Na88 Sn16 P8 Se96                       
   1.00000000000000     
    14.0793397336999995    0.0000000000000000    0.0000000000000000
     0.0000000000000000   14.0793397336999995    0.0000000000000000
     0.0000000000000000    0.0000000000000000   28.1586794673000007
   Na   Sn   P    Se
    88    16     8    96
Direct
  0.4706673062305267  0.3207382762837086  0.0090660828333592
  0.4253476453021881  0.7589697497489979  0.7248592947478660
  0.4639746051771277  0.4679160707210916  0.7437395686279014
  0.0193996312298267  0.0378687225061336  0.2595541104164128
  0.5274194711946513  0.0347695581424860  0.8864443409298421
  0.7879848722089523  0.4572592153228063  0.3965572159805987
  0.2424879030624094  0.2338755735885306  0.0154694298328207
  0.0098408266753236  0.0577682962112570  0.1090417590757874
  0.9793782885123576  0.9769490175442944  0.7592881551490895
  0.7226053332735073  0.2937037131469447  0.0006646872315981
  0.7012759021235322  0.7446109839625794  0.2578319398493500
  0.7578893306314849  0.2502786482486715  0.7907628976261857
  0.7235148482753966  0.5189761980675485  0.1320341118214460
  0.1970238843418214  0.5204823548096271  0.6231751557137388
  0.9372870918447743  0.7420037508817605  0.7899312973233855
  0.2607301534537708  0.2480372400477634  0.3687866352895848
  0.7372768203584426  0.7478505423133999  0.4989152016987324
  0.6690652741132969  0.4521035974128529  0.6317157796216543
  0.4976398251754450  0.9303714458303998  0.9897000806147046
  0.0079854717993204  0.2155543214314498  0.7624006205933275
  0.7213241419688056  0.9285271904284371  0.3896761651071697
  0.3147617722579538  0.9853978447816779  0.3696537591666605
  0.7622839240266452  0.1194011653374959  0.8988867791456963
  0.9131084682854060  0.4807800098244593  0.6528110886593840
  0.2012315145040898  0.7347339464907060  0.9953196574136299
  0.2132321457625884  0.2665903362201306  0.4897599245125536
  0.0028179298651821  0.9661130942210115  0.0033107096386882
  0.9684394847304032  0.4852752759434324  0.5265346188352574
  0.4520765785139023  0.7085394660780496  0.4940512236137241
  0.2337297058929624  0.2249312621196482  0.8789905689930017
  0.0216533217195077  0.5204410543630147  0.3873097815666536
  0.4662232502606009  0.0076497419076044  0.7342664200901489
  0.9685127976337121  0.7730046002383348  0.2702010047687021
  0.7257615203964181  0.2453923895670159  0.4981963999399256
  0.0254656143132636  0.9913686517681394  0.8690758389765297
  0.5010389962338511  0.9968488328413995  0.4947210282296225
  0.7438726233850150  0.8318282997213073  0.0158816016374243
  0.2446715696231206  0.4922808451760250  0.3752934440776042
  0.2204874280370842  0.2496945348835506  0.6138330936870073
  0.7670962349506154  0.7588613029795636  0.1261455070634153
  0.2151524473697214  0.9164920278961894  0.1228714014737924
  0.0136773912325934  0.0122998847669828  0.6122335572598541
  0.4941875971457238  0.9947057321641249  0.6214108060232345
  0.9913692697299844  0.5014128340394920  0.2508569747033040
  0.5221300403392394  0.2025330923202090  0.7711518965512928
  0.7663206514531611  0.7268693512028712  0.3875091087573379
  0.1796729799339674  0.7737961048150801  0.5524122835852865
  0.7162180549872719  0.3016490120502031  0.1628060027828729
  0.0220579571742314  0.0186328957307966  0.5068902680910629
  0.4536173519645574  0.0155622152334525  0.1146729768522918
  0.2373306117024467  0.2259733179215781  0.7363418418106255
  0.5000256080469960  0.0179991172624189  0.2455473102941680
  0.9819292147014368  0.5015285711559878  0.7523622882617226
  0.7354533598672073  0.7068614228412042  0.7694550355338412
  0.4898452155227655  0.5071145328432086  0.5231332520022042
  0.4999480940681522  0.7770219103152969  0.0577859658396602
  0.9706563984196762  0.4931104817831905  0.8800742037525766
  0.1988712230997507  0.7778055981897062  0.3815965529011575
  0.5038918987545660  0.2645787023513974  0.2666270709910626
  0.9696604470400795  0.9944614551340424  0.3810521504731253
  0.5591901442597925  0.6325854709391032  0.9573654297008946
  0.0211012278111646  0.7597791406409525  0.4734278276044044
  0.4814795309998725  0.6996797523857090  0.2467659510889588
  0.7513287591137626  0.9868764007136273  0.6337811219010584
  0.2590530851336698  0.2505146801570980  0.2404540262767672
  0.2079956168025633  0.7460261963902732  0.7420518835710874
  0.2143602782645661  0.5274054328030304  0.1323169785425752
  0.8119676562930307  0.7993981081295845  0.8912354750393608
  0.2390077923500471  0.7461089047628140  0.2267929666215723
  0.5180863395794426  0.4012865871027221  0.8970328767305117
  0.7817247814904669  0.2556274465996294  0.3029253366597048
  0.2743610223356834  0.6735173422021538  0.8838542425518408
  0.5135171490010237  0.4851638881335063  0.2730643178929212
  0.6814474317394249  0.7659686856290556  0.6217068513747079
  0.9977262661737929  0.2528948009083422  0.0280129806145338
  0.4999098963934012  0.4838088537536828  0.3891614628420753
  0.1936543588631073  0.4554783072997432  0.8841498940651218
  0.9877417809830166  0.2454758114037672  0.2537956070222251
  0.7761672108950259  0.0058876773518258  0.1401789237037089
  0.4323310322826839  0.2446133201755011  0.5166727961362800
  0.7312020831899639  0.5373329818792393  0.8835183493076441
  0.5247665743273700  0.0435515591877097  0.3760071209553211
  0.7972153995409965  0.2067703464679704  0.6491571625542278
  0.2385007880834445  0.2736382210892060  0.1431810171113216
  0.2423357583942511  0.0283645392298017  0.6269843227141124
  0.0140633070670660  0.4994382448582388  0.0385886438015895
  0.2902564504981050  0.9454882371914776  0.8519079698922516
  0.4842858723088942  0.5266902714665296  0.1371310450875648
  0.2726827170114196  0.0092572209509244  0.2455976210364080
  0.6921508892447593  0.4946685101762304  0.7529253085366712
  0.2224705995739898  0.9765980907307907  0.7423829614881424
  0.7489510283712411  0.5103426300397843  0.2489472320374566
  0.2311018490489559  0.9859033827911695  0.9912080484257646
  0.7373473217125124  0.4998868708334272  0.5253279096406019
  0.2515412795975834  0.9903691167011003  0.5035980693311076
  0.7770292442023534  0.5316958433071350  0.9984047738316736
  0.7257922120352801  0.9890498363630696  0.7584127809862563
  0.2349753480623272  0.4992930928289140  0.2657732656355827
  0.2312325488743665  0.5045558025303351  0.7544011010082275
  0.7599025297204276  0.0050674924659910  0.2574452397333487
  0.2386711963410433  0.5209395346757378  0.5108587997650070
  0.7264470918243447  0.0402365150019337  0.0115623521188474
  0.7547125858936458  0.0095920869170706  0.5006346704595299
  0.2668755818897697  0.4916697312080655  0.0096769743104110
  0.0082534407394794  0.2639176531067360  0.3803552158346324
  0.5136828868662794  0.7744159842112417  0.8830277696682054
  0.4871199127095322  0.2405914140094270  0.6233121366332075
  0.0043024249316433  0.7742778324134296  0.1307528196205223
  0.9839154313855787  0.2421471815969500  0.8888270404885410
  0.4863577578994142  0.7532978621765604  0.3766680624996561
  0.9886108536940202  0.7466040464503860  0.6350552305061170
  0.4819797925602088  0.2491514404192312  0.1324395469004178
  0.1536844899718313  0.3952548935894016  0.0643011667392386
  0.6492223084503371  0.9246227112461245  0.5606179681412534
  0.5893171705158388  0.1220008324098158  0.9652428848636040
  0.1571678644194275  0.6192246711157793  0.4514877007341786
  0.3374344567490745  0.3728138132502142  0.9389128650812969
  0.8446982502149015  0.8755172521803305  0.4524759042286272
  0.7998365328048197  0.1576535533061304  0.0743483692126226
  0.3307201223901442  0.6332569486336416  0.5586727793557829
  0.8645148559506314  0.1181752374873058  0.2083605613828468
  0.3072694590053950  0.6236986356421992  0.6918928944904584
  0.8758207246945879  0.9172380301782005  0.3104427321586936
  0.3336687491879934  0.3670461185375833  0.7888760472411090
  0.1432710686739596  0.6465530393598322  0.3015827620201454
  0.6359092235565537  0.0906598383344046  0.8203336194768469
  0.1276969704498608  0.4034182400313296  0.2078331966329853
  0.6143714189053352  0.9035640830053812  0.7005920388234120
  0.8608757260537587  0.6349632851146968  0.9406011671214102
  0.3724246477215886  0.1046874529782155  0.4609479848566424
  0.8229980984637827  0.3922833000588644  0.5843598952018054
  0.3277379006315121  0.8691460960872969  0.0470530109595425
  0.1539310021034058  0.1274080238546036  0.5486347730512955
  0.6557726664708730  0.6301745977407223  0.0577481090127977
  0.1345283901141319  0.8790427348783094  0.9341658358714892
  0.6410949927164680  0.4034352815878848  0.4685447083433997
  0.6576584472852014  0.4137883045648890  0.3188876271636559
  0.1150161939220458  0.8665054656926117  0.8021721178276053
  0.1110851060993002  0.0833936214347740  0.7017362345035880
  0.6230299860316640  0.6007243642331818  0.2077689499522337
  0.7795917863749956  0.3698112121675958  0.7128057555233862
  0.3732723800322380  0.8927715543477084  0.1889953133897439
  0.3730206258040616  0.1209880824640883  0.2970131898816684
  0.8453076431133754  0.5707287805196066  0.8028286716699063
  0.1449439816308377  0.0914873857503114  0.0478178671263908
  0.6459043026658842  0.6051098599739676  0.5775384180368167
  0.6148204062903135  0.4436675828745434  0.9737477938958661
  0.1354419283198375  0.9090102212055179  0.4549600445723430
  0.3450623715651096  0.0956545382590898  0.9422715658076066
  0.8535533959989783  0.5889904834629878  0.4541301130662501
  0.8701355571500946  0.4341255939334627  0.0656594675832298
  0.3434623202252994  0.8809685689368081  0.5491619936310753
  0.1614718574784867  0.0909934519828162  0.1877695872098999
  0.5915609310044145  0.5949656294748646  0.7021240491368996
  0.1732742065461425  0.8838350374041947  0.3019587824199709
  0.6170531865579650  0.4055906653116102  0.8154421661869024
  0.8500868629308692  0.6202535477048624  0.2986440197777286
  0.3142162827746305  0.0947621015373799  0.7898617681913629
  0.8538099321331752  0.3801846263630512  0.2136588484836001
  0.3291363076691176  0.9012381515841722  0.6836077342915138
  0.8542133905717892  0.9925514494322669  0.9509884423749914
  0.3472152555667605  0.4016094918498381  0.4553432597587503
  0.8627615216716183  0.1170318869914384  0.5533593277342720
  0.3881495381306045  0.5991225244551630  0.0477921066256805
  0.1402686162895872  0.3979558624775918  0.5494536652923804
  0.6173602057493414  0.9228559680642595  0.0657313803294411
  0.1297554938784422  0.5680396538271116  0.9564100574904487
  0.6875382288512193  0.1020488908279959  0.4339104184269659
  0.3255292764186558  0.3805332456609499  0.3104159167458443
  0.8403858429831443  0.9246271538941323  0.8159031495943925
  0.8629847440725223  0.0439936275067949  0.7031052560281558
  0.3480563862000668  0.5863769859688310  0.2111286650075807
  0.1154945163866245  0.4208991181386579  0.6950766174880465
  0.6532748674223586  0.8991280819442147  0.2023708252991126
  0.6424373194579724  0.1085714031718052  0.2973717684005253
  0.1535526811813437  0.6103590780533193  0.8113567730099658
  0.0947136116513810  0.1441115299852673  0.3404337500626747
  0.4028957402593531  0.7650827022593580  0.9468742897307625
  0.4095318660795253  0.3582789493665460  0.5919084871225286
  0.0694209093365487  0.8486193358407434  0.1915175720230795
  0.5653545303439707  0.2946608886007499  0.6836867017129742
  0.9066416571644813  0.6749721543870514  0.1671723316836998
  0.9371125217577112  0.3846971842888897  0.3386457156209644
  0.4548862047392244  0.8457276220315969  0.8163850264269049
  0.0493309904443084  0.1763271705808917  0.9461868940685226
  0.5865666934796466  0.6693633967487134  0.4248008634438837
  0.9286167622641532  0.6521958168951071  0.6913376672493894
  0.5972828761331322  0.3601893992688230  0.0907941754383666
  0.1067572253499846  0.8332893028456329  0.6517745262664976
  0.3901953975104111  0.1911709925570319  0.0758738362404833
  0.8623227985659914  0.3346175241467146  0.9191120765034708
  0.4061682909594215  0.8586717580646560  0.4238932366527044
  0.8744798455711563  0.8345549442540967  0.5999791070374797
  0.3890891348347757  0.3348607235136572  0.1815618197665349
  0.9055881156661608  0.1398845669065822  0.8377967654284760
  0.4061513503677149  0.6409166606435398  0.3397255458974674
  0.0837580640725556  0.3146690354771195  0.8412925271428391
  0.5699547862352826  0.8455983009048760  0.3172292498932718
  0.0329577773976281  0.6690677378428703  0.5603155677869215
  0.5702681089063896  0.1507487974808668  0.1720148937117515
  0.3730964814195458  0.1462299951375321  0.6551851810166115
  0.9221934391384320  0.8741127473343644  0.0860071214778514
  0.9099193912619565  0.1899767470587073  0.4324696651133449
  0.6215014301085536  0.8510936356714709  0.9184098188733915
  0.1098743196568490  0.3593762931539717  0.4235381884070767
  0.5721003705172071  0.6393015566407404  0.8583072335688368
  0.5939993870807601  0.1729238237324457  0.5751323854067002
  0.1130249501715417  0.6972570972917659  0.0881046540783759
 
 -0.20660372E-02  0.94551830E-02  0.60395729E-02
 -0.31915652E-02 -0.30958932E-03  0.74097991E-03
  0.48899306E-04 -0.77653126E-02  0.37575983E-03
 -0.34676117E-02  0.14848060E-02 -0.55372360E-03
  0.62810245E-02 -0.10503071E-01  0.21384072E-02
  0.47985181E-03  0.10542358E-02  0.16952366E-02
 -0.44966476E-02 -0.91984690E-02  0.15508640E-02
  0.65445994E-02  0.24551980E-02 -0.10972544E-01
 -0.71086657E-03 -0.29122854E-02 -0.78477537E-04
  0.59154646E-02  0.24892030E-02 -0.11612912E-01
  0.19002097E-02  0.32587291E-02 -0.34590630E-02
  0.18149604E-02  0.44016303E-02 -0.73198850E-02
 -0.15011685E-02 -0.66312804E-02 -0.19802054E-02
 -0.34239249E-02 -0.10425411E-01 -0.35928618E-02
  0.32608714E-02 -0.15202640E-02  0.67114105E-02
 -0.47405417E-02  0.35690472E-02  0.29302960E-03
  0.13478399E-02  0.10274415E-01  0.26103642E-03
 -0.30755311E-03 -0.75379483E-02 -0.26607615E-02
  0.66410618E-02 -0.60951954E-02 -0.80375778E-02
  0.15609827E-03 -0.55075585E-02  0.16694897E-02
 -0.53501098E-02 -0.74765915E-02  0.99391051E-02
 -0.39177423E-02 -0.22236871E-03 -0.16734445E-02
 -0.57479207E-02 -0.26317667E-02  0.75261930E-02
  0.57381396E-02  0.37012646E-03 -0.52973623E-02
  0.92076453E-03  0.35724864E-02  0.12690745E-02
 -0.39665344E-02 -0.82072471E-02 -0.30270924E-02
 -0.51860166E-02  0.32683452E-02  0.41770498E-02
 -0.65590476E-02 -0.22591850E-02  0.23996407E-02
 -0.97454087E-02  0.22220968E-02 -0.35708435E-02
  0.90936941E-02  0.49439643E-02 -0.62393330E-02
 -0.68553276E-02 -0.38924212E-03 -0.10167911E-03
 -0.92877743E-02 -0.10097789E-01  0.52435154E-02
  0.79537201E-02 -0.15687552E-02 -0.18231101E-02
 -0.61461522E-02 -0.45850663E-02 -0.52282378E-02
 -0.91780957E-02  0.31260256E-02 -0.32356736E-02
 -0.49100244E-02  0.10582997E-01  0.90055179E-02
  0.79528611E-02 -0.23355932E-03  0.11886976E-02
 -0.13016127E-01  0.77585724E-02  0.83818759E-02
 -0.13808083E-01 -0.31568423E-02 -0.21046028E-02
 -0.65686823E-02  0.21873103E-03 -0.52183116E-02
  0.28546581E-02 -0.18229938E-02 -0.62986109E-02
 -0.27001166E-02 -0.16510173E-02 -0.16051809E-01
  0.40949556E-02 -0.16528917E-01 -0.27315907E-02
  0.11591904E-03  0.18884512E-02  0.21457506E-02
  0.20175359E-02  0.45545422E-02 -0.52103003E-02
  0.16502525E-01 -0.64097887E-02 -0.13059676E-02
  0.70107598E-02 -0.56269106E-02 -0.38924696E-02
  0.12187249E-02 -0.77374835E-02 -0.23528314E-02
  0.14376544E-02  0.38563739E-02  0.10494775E-02
  0.45069413E-02 -0.34912334E-02  0.81339892E-02
  0.11959341E-03 -0.11669039E-02 -0.13438370E-01
 -0.11370688E-02  0.37518174E-02 -0.22526657E-02
 -0.52187909E-02  0.35862349E-02  0.28252780E-02
  0.10222057E-01 -0.50458874E-02  0.57009687E-02
  0.49666309E-02 -0.11323137E-02  0.47007972E-02
 -0.10611032E-01 -0.10285960E-01 -0.46325397E-02
 -0.48703948E-02  0.69991940E-02  0.40461627E-02
 -0.40036938E-02 -0.72168775E-02  0.64199977E-02
 -0.92035544E-02 -0.81936789E-02 -0.19956354E-02
  0.14001268E-02 -0.98366045E-03 -0.22127787E-02
 -0.13373933E-02 -0.10851737E-03 -0.24399897E-02
 -0.27162360E-03 -0.24461391E-02 -0.63838784E-02
  0.99163231E-02 -0.34607682E-03  0.74724311E-02
 -0.49582429E-02  0.10226471E-02 -0.24411040E-02
 -0.41915126E-02  0.39736711E-03 -0.83628295E-02
 -0.66427827E-02 -0.42201583E-02  0.18379532E-01
  0.17906760E-02  0.17906960E-02 -0.62014018E-02
  0.12083785E-01 -0.11173193E-01  0.84760516E-03
  0.63090407E-02  0.46331305E-02  0.22691232E-02
 -0.14706828E-02 -0.52101437E-02  0.12544951E-02
  0.12957924E-01  0.99145388E-02 -0.29506304E-02
  0.29280658E-02  0.35724985E-02  0.32643025E-02
 -0.22189483E-03  0.13417423E-02  0.40090209E-02
 -0.35980478E-04  0.17658200E-02  0.37325559E-02
 -0.60563177E-02  0.78458017E-02  0.71186203E-03
  0.23548255E-02 -0.49168629E-02 -0.35547034E-02
  0.44734576E-02 -0.50808621E-02  0.74492840E-02
 -0.63338994E-02 -0.44199860E-02 -0.44322792E-02
  0.49617816E-02  0.59369781E-02 -0.24024829E-02
  0.21479184E-02 -0.41747834E-02  0.53550348E-02
 -0.48231869E-02  0.16214188E-02  0.46054151E-03
  0.37686038E-02 -0.10860477E-02  0.25673088E-02
  0.14720634E-02  0.10785959E-01  0.48999411E-02
 -0.31010610E-02 -0.31555778E-02 -0.99610341E-02
 -0.74117097E-02 -0.21254828E-02  0.17149777E-02
  0.20172883E-02 -0.23203546E-02  0.19305494E-02
 -0.24170238E-02  0.20815687E-02 -0.19854903E-02
  0.65645604E-02 -0.72333792E-02 -0.60016899E-02
  0.24593847E-02  0.24322989E-02  0.11744764E-02
 -0.35005868E-02 -0.17318426E-02 -0.33640198E-02
 -0.10968722E-02 -0.17650650E-02  0.46559001E-02
  0.32379630E-02 -0.40277921E-03 -0.18534951E-02
  0.45215174E-02 -0.13965882E-02 -0.55970769E-02
 -0.27727771E-02  0.49254139E-03  0.40054446E-02
  0.10937552E-03  0.17761028E-02  0.29563785E-03
 -0.12864902E-02  0.58402325E-02  0.21602546E-02
  0.34368873E-02  0.54879444E-03  0.43993018E-02
 -0.44464158E-02  0.27619268E-02 -0.83798175E-03
  0.33362156E-02 -0.22896398E-02 -0.64683388E-03
 -0.37051357E-02  0.21176451E-02 -0.10642718E-02
 -0.11656998E-02 -0.27822753E-02 -0.47923710E-03
 -0.89199303E-03 -0.36483280E-03 -0.14029929E-02
  0.56660954E-02  0.14223530E-02  0.18153643E-02
  0.14915360E-03  0.88558875E-05  0.37553960E-03
 -0.58414500E-04  0.82599794E-02  0.14906431E-02
  0.10874795E-01  0.66230984E-03 -0.37985579E-02
 -0.19545382E-02  0.19889586E-02 -0.37138808E-02
 -0.39488044E-02 -0.27959117E-03 -0.93019814E-03
 -0.12207210E-02 -0.13613879E-02  0.10103958E-03
  0.16305498E-02  0.12773090E-02 -0.30951329E-02
  0.34384837E-03 -0.75283121E-02 -0.54502315E-03
 -0.55857968E-02 -0.40957005E-03  0.67808092E-03
  0.23001068E-02 -0.15470875E-02 -0.70280999E-04
 -0.36472295E-02 -0.48441575E-02  0.37297432E-02
 -0.43290491E-02  0.16408939E-02  0.54951120E-02
 -0.51607747E-02  0.21560841E-02  0.65193129E-03
 -0.43409184E-03  0.15727276E-02 -0.69045209E-03
  0.12189360E-02 -0.14806221E-03  0.18684641E-02
 -0.32103673E-02  0.54579600E-02  0.31795007E-02
 -0.29235256E-02 -0.12084632E-02  0.51096953E-02
 -0.72167679E-03  0.35587028E-03 -0.35913256E-02
  0.28892818E-02  0.30614700E-02  0.17203179E-02
  0.16549672E-02  0.55606612E-03  0.35096674E-02
  0.18983623E-02 -0.26114105E-02 -0.62796400E-03
  0.26484844E-02 -0.18359756E-02  0.41783366E-02
 -0.15803927E-02  0.20282506E-02  0.83876407E-02
 -0.21055528E-03  0.23037852E-02 -0.86295647E-03
 -0.12190535E-02 -0.24222275E-02 -0.37981642E-02
  0.17775739E-02  0.13919547E-02 -0.46924090E-03
 -0.20496497E-03 -0.27970822E-02  0.11011992E-05
 -0.61961986E-03  0.26154171E-02 -0.65202515E-03
 -0.17163295E-02  0.70713366E-04 -0.32347219E-02
  0.16787694E-02  0.30906599E-02  0.34491639E-02
 -0.10080380E-02 -0.49520318E-02 -0.38649227E-02
  0.46061874E-02  0.14644663E-02  0.27898667E-02
  0.55746887E-02  0.58917395E-02 -0.58814997E-03
  0.54548131E-03 -0.14245341E-02  0.10607925E-02
  0.33458470E-03  0.14587791E-02  0.21254195E-03
  0.12982519E-02  0.30943233E-02  0.21233899E-03
  0.45428769E-02  0.34840848E-02 -0.44606101E-02
  0.31701946E-02  0.18566345E-02  0.10118393E-02
  0.50859034E-02 -0.34031349E-02 -0.22246796E-02
 -0.13273240E-02 -0.18023553E-03 -0.31325018E-02
 -0.64510984E-02  0.50360367E-02  0.86473411E-02
 -0.47283780E-02 -0.54349429E-02  0.19670833E-02
 -0.27841856E-02 -0.14858365E-02  0.79442698E-03
  0.43000042E-03  0.66557439E-03 -0.94875876E-03
  0.35087736E-03  0.16331505E-02  0.12516145E-02
 -0.51253041E-03  0.31063098E-03 -0.52019069E-02
  0.41169476E-02 -0.50155487E-02 -0.24148199E-02
 -0.19607965E-02 -0.30352655E-02  0.32808470E-02
 -0.87020525E-03  0.22253938E-02 -0.24198774E-02
 -0.28642623E-02  0.14984781E-02 -0.19261752E-02
  0.42419736E-02 -0.36312072E-02 -0.42665470E-02
  0.24298313E-02  0.13248542E-02  0.66180874E-03
  0.19473201E-02  0.84575708E-03 -0.68541944E-04
  0.82134802E-03  0.37615923E-02 -0.52289310E-02
 -0.91247192E-02 -0.42026866E-02  0.78481823E-03
 -0.39741542E-02  0.44718629E-02  0.46130627E-02
 -0.18839336E-02 -0.30585917E-02  0.12762269E-02
  0.59854926E-02 -0.84445820E-03  0.22062606E-02
  0.85246267E-04 -0.12683806E-02  0.44711845E-02
 -0.38316247E-02  0.65874373E-02 -0.18532769E-02
 -0.89706818E-03  0.64198472E-02 -0.35746558E-02
  0.94027738E-03 -0.36319729E-02  0.44293484E-02
 -0.39758209E-02 -0.25182033E-02  0.28061247E-02
  0.32195893E-02 -0.31987361E-02 -0.30611469E-03
 -0.86851534E-03  0.15997359E-02  0.87376033E-03
  0.68099596E-02  0.19026791E-02 -0.19263467E-02
 -0.35241190E-02 -0.24467814E-02 -0.33697604E-03
  0.68999825E-02  0.12005005E-02  0.62847321E-02
  0.36023548E-02  0.55248943E-02 -0.86992416E-03
  0.53663535E-02 -0.11099346E-02  0.14826975E-02
 -0.65127283E-03  0.28960767E-02  0.12721833E-03
  0.24316682E-03  0.31559219E-02  0.56537036E-02
  0.15274420E-02  0.72419107E-03 -0.18218197E-02
  0.24664963E-02 -0.12994570E-02  0.41665454E-02
 -0.45971540E-02  0.35891497E-02  0.24203489E-02
 -0.11069422E-02 -0.31395008E-02  0.21235619E-02
 -0.60453045E-02 -0.69689219E-03 -0.47940152E-02
 -0.29183302E-03 -0.14696200E-02  0.19749340E-02
 -0.34904045E-02 -0.40315372E-03 -0.35361286E-02
  0.29380381E-02 -0.23221681E-02 -0.23406907E-03
 -0.40392966E-02  0.64897844E-02 -0.85939470E-03
  0.28776648E-03 -0.42754545E-02 -0.36922190E-02
  0.36034182E-02  0.29324407E-03  0.19879669E-02
  0.14568165E-02 -0.23424324E-02  0.13640677E-02
 -0.49905327E-03 -0.50048481E-02 -0.38210795E-04
 -0.80359151E-03 -0.18393718E-02  0.25961190E-02
  0.19186486E-02  0.73186945E-02 -0.43130600E-02
 -0.36250282E-02 -0.84044243E-02 -0.12563420E-03
  0.54548623E-03 -0.34678606E-02  0.26195928E-02
 -0.16932402E-02 -0.22507047E-03 -0.33873849E-02
 -0.40503287E-02  0.13969031E-03 -0.26847825E-02
 -0.52336664E-04 -0.21871445E-02 -0.25872991E-03
  0.18676483E-02 -0.47085317E-03 -0.35115267E-02
  0.16263386E-02  0.15102392E-02  0.41329386E-03
 -0.89291451E-03  0.12981437E-02 -0.56094669E-03
 -0.36716615E-02 -0.21827792E-02 -0.75623159E-02
  0.47136302E-02  0.67302868E-02  0.76147149E-03
  0.13493273E-02 -0.94447077E-03 -0.55310800E-02
  0.38354497E-02 -0.33626838E-02 -0.26216989E-02
 -0.56686460E-02 -0.30244903E-02 -0.35161712E-03
 -0.26222545E-02 -0.15386850E-02 -0.28497887E-02
  0.68124057E-03  0.67739206E-03 -0.66701624E-03
  0.53270299E-02  0.22918993E-02  0.22794423E-02
  0.38713512E-02  0.20719539E-02 -0.63266017E-02
 -0.52367534E-02  0.50518484E-02  0.31218421E-02
 
           1
   2.00000000000000     
  0.49332408E+00 -0.29903837E-03  0.00000000E+00  0.00000000E+00
  0.47037382E+00  0.32208141E+00  0.94950499E-02
  0.42489428E+00  0.75892577E+00  0.72491192E+00
  0.46398155E+00  0.46681299E+00  0.74376626E+00
  0.18907050E-01  0.38079642E-01  0.25951478E+00
  0.52831170E+00  0.33277575E-01  0.88659622E+00
  0.78805304E+00  0.45740897E+00  0.39667762E+00
  0.24184914E+00  0.23256891E+00  0.15579582E-01
  0.10770501E-01  0.58117062E-01  0.10826242E+00
  0.97927731E+00  0.97653532E+00  0.75928258E+00
  0.72344564E+00  0.29405731E+00  0.99983987E+00
  0.70154583E+00  0.74507389E+00  0.25758626E+00
  0.75814715E+00  0.25090391E+00  0.79024300E+00
  0.72330160E+00  0.51803421E+00  0.13189347E+00
  0.19653751E+00  0.51900140E+00  0.62291997E+00
  0.93775031E+00  0.74178779E+00  0.79040798E+00
  0.26005675E+00  0.24854423E+00  0.36880745E+00
  0.73746828E+00  0.74931004E+00  0.49893374E+00
  0.66902159E+00  0.45103282E+00  0.63152680E+00
  0.49858320E+00  0.92950561E+00  0.98912920E+00
  0.80076459E-02  0.21477196E+00  0.76251920E+00
  0.72056415E+00  0.92746512E+00  0.39038210E+00
  0.31420525E+00  0.98536626E+00  0.36953490E+00
  0.76146742E+00  0.11902732E+00  0.89942133E+00
  0.91392358E+00  0.48083259E+00  0.65243484E+00
  0.20136231E+00  0.73524143E+00  0.99540979E+00
  0.21266869E+00  0.26542448E+00  0.48954492E+00
  0.20812452E-02  0.96657737E+00  0.36073890E-02
  0.96750776E+00  0.48495435E+00  0.52670506E+00
  0.45069222E+00  0.70885512E+00  0.49379760E+00
  0.23502148E+00  0.22563356E+00  0.87854741E+00
  0.20679508E-01  0.52038576E+00  0.38730256E+00
  0.46490390E+00  0.62153297E-02  0.73463885E+00
  0.96964264E+00  0.77278176E+00  0.27007152E+00
  0.72488845E+00  0.24474107E+00  0.49782506E+00
  0.24161846E-01  0.99181271E+00  0.86884602E+00
  0.50034152E+00  0.99835217E+00  0.49536065E+00
  0.74500234E+00  0.83179512E+00  0.15966030E-01
  0.24282260E+00  0.49338297E+00  0.37588878E+00
  0.21852596E+00  0.24924610E+00  0.61368361E+00
  0.76616314E+00  0.75889237E+00  0.12577487E+00
  0.21555796E+00  0.91623307E+00  0.12242404E+00
  0.13293834E-01  0.12065354E-01  0.61109346E+00
  0.49476929E+00  0.99235776E+00  0.62121679E+00
  0.99138574E+00  0.50168109E+00  0.25100938E+00
  0.52241664E+00  0.20318007E+00  0.77078183E+00
  0.76866487E+00  0.72595883E+00  0.38741635E+00
  0.18066887E+00  0.77299679E+00  0.55213582E+00
  0.71639118E+00  0.30054989E+00  0.16263889E+00
  0.22262179E-01  0.19180702E-01  0.50696481E+00
  0.45425757E+00  0.15066278E-01  0.11525070E+00
  0.23734760E+00  0.22580756E+00  0.73538737E+00
  0.49986409E+00  0.18532071E-01  0.24538731E+00
  0.98118787E+00  0.50203800E+00  0.75256296E+00
  0.73690542E+00  0.70614464E+00  0.76985995E+00
  0.49055074E+00  0.50695369E+00  0.52346713E+00
  0.49844077E+00  0.77556077E+00  0.57456935E-01
  0.96996455E+00  0.49410473E+00  0.88036159E+00
  0.19830249E+00  0.77678043E+00  0.38205254E+00
  0.50258451E+00  0.26341477E+00  0.26648533E+00
  0.96985934E+00  0.99432172E+00  0.38089499E+00
  0.55900016E+00  0.63257006E+00  0.95719213E+00
  0.21062643E-01  0.75943166E+00  0.47297441E+00
  0.48288817E+00  0.69963059E+00  0.24729669E+00
  0.75062443E+00  0.98702167E+00  0.63360774E+00
  0.25845767E+00  0.25057113E+00  0.23986005E+00
  0.20705200E+00  0.74542671E+00  0.74335731E+00
  0.21461465E+00  0.52765980E+00  0.13187652E+00
  0.81368418E+00  0.79781093E+00  0.89129568E+00
  0.23990400E+00  0.74676705E+00  0.22695413E+00
  0.51787743E+00  0.40054648E+00  0.89712198E+00
  0.78356548E+00  0.25703583E+00  0.30271577E+00
  0.27477696E+00  0.67402482E+00  0.88408609E+00
  0.51348563E+00  0.48535449E+00  0.27334906E+00
  0.68144232E+00  0.76621952E+00  0.62197196E+00
  0.99686595E+00  0.25400931E+00  0.28063541E-01
  0.50024440E+00  0.48311040E+00  0.38890899E+00
  0.19428982E+00  0.45475656E+00  0.88467899E+00
  0.98684204E+00  0.24484794E+00  0.25348080E+00
  0.77687204E+00  0.67310377E-02  0.14000828E+00
  0.43263615E+00  0.24402028E+00  0.51705314E+00
  0.73051694E+00  0.53756331E+00  0.88355106E+00
  0.52530191E+00  0.43397284E-01  0.37618947E+00
  0.79742451E+00  0.20830251E+00  0.64950519E+00
  0.23806028E+00  0.27318996E+00  0.14247352E+00
  0.24128291E+00  0.28062610E-01  0.62710613E+00
  0.14349867E-01  0.49910863E+00  0.38725763E-01
  0.28991311E+00  0.94578393E+00  0.85176695E+00
  0.48521838E+00  0.52566275E+00  0.13670477E+00
  0.27303208E+00  0.96027342E-02  0.24568104E+00
  0.69165362E+00  0.49442250E+00  0.75268638E+00
  0.22231479E+00  0.97634736E+00  0.74271365E+00
  0.74941099E+00  0.51028541E+00  0.24881559E+00
  0.23174414E+00  0.98570499E+00  0.99081051E+00
  0.73695344E+00  0.49995684E+00  0.52561240E+00
  0.25155682E+00  0.99062142E+00  0.50361907E+00
  0.77684650E+00  0.53252546E+00  0.99855821E+00
  0.72628043E+00  0.98912779E+00  0.75872525E+00
  0.23434373E+00  0.49968543E+00  0.26571375E+00
  0.23170647E+00  0.50423055E+00  0.75435516E+00
  0.75937621E+00  0.53683084E-02  0.25736965E+00
  0.23850561E+00  0.52054431E+00  0.51082476E+00
  0.72632038E+00  0.40184690E-01  0.11462703E-01
  0.75551747E+00  0.97941352E-02  0.50076361E+00
  0.26689677E+00  0.49167099E+00  0.97036474E-02
  0.82451428E-02  0.26509100E+00  0.38046109E+00
  0.51522767E+00  0.77451007E+00  0.88275797E+00
  0.48684227E+00  0.24087395E+00  0.62304835E+00
  0.37414889E-02  0.77423812E+00  0.13068675E+00
  0.98374203E+00  0.24195379E+00  0.88883422E+00
  0.48658938E+00  0.75347931E+00  0.37644823E+00
  0.98865970E+00  0.74553463E+00  0.63501652E+00
  0.48118632E+00  0.24909326E+00  0.13248771E+00
  0.15401123E+00  0.39503513E+00  0.64296175E-01
  0.64870421E+00  0.92393459E+00  0.56088288E+00
  0.58870222E+00  0.12223392E+00  0.96563318E+00
  0.15643477E+00  0.61953095E+00  0.45153400E+00
  0.33737279E+00  0.37303722E+00  0.93886382E+00
  0.84487140E+00  0.87549622E+00  0.45260861E+00
  0.79938049E+00  0.15842887E+00  0.74574197E-01
  0.33030483E+00  0.63308528E+00  0.55903570E+00
  0.86441234E+00  0.11822579E+00  0.20810548E+00
  0.30767989E+00  0.62413352E+00  0.69201508E+00
  0.87605582E+00  0.91731702E+00  0.31069201E+00
  0.33393842E+00  0.36667516E+00  0.78883145E+00
  0.14364729E+00  0.64629224E+00  0.30187953E+00
  0.63568473E+00  0.90947956E-01  0.82092936E+00
  0.12766706E+00  0.40374550E+00  0.20777190E+00
  0.61419825E+00  0.90322000E+00  0.70032227E+00
  0.86112823E+00  0.63516102E+00  0.94056784E+00
  0.37239553E+00  0.10429012E+00  0.46094806E+00
  0.82291008E+00  0.39265483E+00  0.58431358E+00
  0.32749409E+00  0.86915614E+00  0.46823261E-01
  0.15416947E+00  0.12784706E+00  0.54887975E+00
  0.65562947E+00  0.62947115E+00  0.57473599E-01
  0.13518271E+00  0.87925077E+00  0.93436399E+00
  0.64188689E+00  0.40427222E+00  0.46850293E+00