Na88 Ge16 P8 Se96                       
   1.00000000000000     
    13.9614333504000001    0.0000000000000000    0.0000000000000000
     0.0000000000000000   13.9614333504000001    0.0000000000000000
     0.0000000000000000    0.0000000000000000   27.9228667008000002
   Na   Ge   P    Se
    88    16     8    96
Direct
  0.7120223673230943  0.7201116997461359  0.1437265375940801
  0.2893394147159792  0.1202661017393044  0.6251719376540504
  0.4781315075250353  0.2419716537146044  0.0006189936781476
  0.9887977736406403  0.0026719070962462  0.4884738618404806
  0.2663945426360764  0.9937258436275372  0.8712968386952893
  0.2405076915437895  0.5328385349062852  0.3880442991660050
  0.0159308447725236  0.5361472403851725  0.2365385231576409
  0.2652714091106349  0.2605802402404308  0.1525090627652971
  0.5200127332150827  0.5048207871864380  0.7507220986639502
  0.6704317077673529  0.2784223468125590  0.7158388876343846
  0.7357730113766567  0.6976740737769639  0.4744157349557934
  0.2671230454696472  0.2405263543602394  0.8905095984430962
  0.4742890906590490  0.0036119452733562  0.0075667773613373
  0.2533536489897991  0.7422582959880467  0.3724403194581586
  0.1742156159110033  0.7667407955333504  0.7070150447664624
  0.4840385672237968  0.5166878522600726  0.3964065199217693
  0.2522242283590226  0.2958272847474304  0.5011650302449311
  0.7535501221426172  0.7774330528881856  0.6282098016728080
  0.7319241874210409  0.9985108943413834  0.1232954641235354
  0.0202912166170294  0.4830350223090462  0.8710597629492948
  0.5182232325580667  0.0248406229864156  0.3681032082209911
  0.5229248463072593  0.2243433529501912  0.2490173588340566
  0.7702521356420943  0.1304872424354200  0.8846209693000793
  0.7780323853272227  0.3025545751094455  0.6225130989862148
  0.2718278561509140  0.9681358027655937  0.1144637947986857
  0.0573208282316464  0.1253084066677185  0.7816904329172708
  0.5129278906127178  0.5672757443142262  0.9876319630702274
  0.7375461683938834  0.4631713919134848  0.3677852311933666
  0.4893992641047711  0.7576623383387372  0.5536506929133653
  0.2697664573571392  0.7674018713885887  0.9621617970302514
  0.0235790511561318  0.5214993247273546  0.6326594129194414
  0.5374452256091470  0.8111969814632076  0.7453928656389959
  0.2087384634040103  0.7384613785678208  0.2162963410841962
  0.2928046591738915  0.2758205891940798  0.7280579761980883
  0.9793013914786407  0.0153540970076865  0.1041936398035596
  0.7436428956982358  0.9734078486263940  0.3871587294505678
  0.5403379334380907  0.5147455642345240  0.1073516919140074
  0.7449533756560980  0.2803751219655073  0.1124215298252340
  0.7753495002737399  0.7549970034597581  0.7568934457977924
  0.7472422820604883  0.7304835158588761  0.2582508101088730
  0.0395304668197958  0.9147076363813138  0.2348480684893853
  0.5225031406876669  0.5024615751916635  0.8656831399040036
  0.5100127743787412  0.9891979305713894  0.7695801117108624
  0.0093554585831633  0.4902596896582523  0.3689035955830534
  0.9940521530670517  0.1154989488107928  0.9885868968936525
  0.4763853350104952  0.0503966706266424  0.5084395573375070
  0.9959100826838139  0.7571866829490645  0.4998099240408032
  0.7583927918387856  0.2660225018305001  0.9914739048041522
  0.1555714854384265  0.9224801210330597  0.5907362848198473
  0.7773127006825696  0.2324935713917002  0.2548046912323191
  0.9857176886199149  0.5256673910287901  0.7502573709865912
  0.5459903292071515  0.9467872595049516  0.2719602915906912
  0.2861920535675677  0.2459071575951298  0.3685067527218171
  0.9679253822087953  0.7856418431140877  0.9940588890797822
  0.7176516620824323  0.2522527224519023  0.5026678040567049
  0.2212346781364863  0.7392832321970835  0.0728460069513236
  0.9481371966749337  0.9563858882687591  0.8875278881983700
  0.5044242931756150  0.4407454909977905  0.5352808630472198
  0.2938061704814484  0.2361435128618272  0.0215744866216176
  0.9935817935484920  0.1151792023074270  0.6430974567376098
  0.5881596052109505  0.9491360653239220  0.8835011534497001
  0.0305701061736846  0.5192276523463849  0.4729710281287412
  0.0100171002550344  0.5024788582231106  0.9987263955953313
  0.4949997216740017  0.0203264570223045  0.6380430955166246
  0.2541932185455509  0.2403996524722190  0.2645537020378908
  0.7418937537346117  0.7304830350729350  0.8873266053197872
  0.5018728213276257  0.7466925454783163  0.2538865220508094
  0.4988761872953321  0.2397125414301162  0.7936514254797343
  0.7964155991926992  0.7122139750267406  0.3621756364818874
  0.9807504700733902  0.3202355734924606  0.7573344551174791
  0.7523464349869028  0.1911558240722450  0.3711135199328773
  0.2816646667490910  0.7644074671275094  0.5113072067768512
  0.2748241949348448  0.5117911159119656  0.1370074362868806
  0.7129740924435722  0.0425680715353468  0.6208303134042898
  0.9779437786724129  0.9020032739934557  0.7116462233797081
  0.2560228503429309  0.9960639955368770  0.3698415485855115
  0.2763379324070162  0.4741488503642717  0.8825205445087208
  0.0234381999903014  0.2725044127481575  0.2584818331623617
  0.7572872194829888  0.7557185408448756  0.0160970810671232
  0.2671017451459949  0.4889445137948319  0.6371205958716699
  0.7826253177023966  0.4557895386285578  0.8658179109538277
  0.0235123896336586  0.9604588980135200  0.3626924385132157
  0.7503478453611045  0.5439906454994529  0.6149650470744549
  0.5177150652886386  0.9683253242265069  0.1305407321510138
  0.9926144219868411  0.2463754738096061  0.4979282356522702
  0.8510213477158122  0.5470756402145553  0.1104197897579617
  0.2979117110993383  0.7508638138360934  0.7919112637625724
  0.4640261981045727  0.4916902172846486  0.2401378399122588
  0.2930918690063058  0.9951036591357711  0.2509124327945564
  0.7595073022377506  0.5153668358348326  0.7460022355223674
  0.2664349977910463  0.0075725990707029  0.7359932088854934
  0.7256170920134111  0.4742561282546903  0.2440691654022602
  0.2288880804138797  0.0000389618515068  0.0026662537745724
  0.7409980839892309  0.4851658134180032  0.4840220648167700
  0.2458468961540531  0.0339152691618455  0.4981009375952183
  0.7537785319961325  0.4976685779680877  0.9905526739040671
  0.7588144155979336  0.0296405104580001  0.7539622294124034
  0.2457182971220372  0.4967659124580104  0.2742268719361360
  0.2542131889120691  0.5090805020744555  0.7534458281515721
  0.7730614053699677  0.9689350745550763  0.2431045716468996
  0.2600075902005168  0.5324761250420076  0.5169087035775041
  0.7035074181515641  0.0181709485380816  0.0021392589217825
  0.7353399899535513  0.0050165691292282  0.5134557924990716
  0.2711555317286278  0.4833377124584160  0.0163434581450297
  0.0143537090135548  0.2398844462032974  0.3804149973463962
  0.4858418786553736  0.7555569413080263  0.8753398541953957
  0.5027308755271888  0.2825758400447902  0.6404790899380909
  0.9929535204914443  0.7512900179835781  0.1231665778489580
  0.0022832451747030  0.2497782339091763  0.8691839609129423
  0.4959649076672582  0.7691921274767068  0.3863500788277200
  0.9926146977819719  0.7381915882931942  0.6166183859543821
  0.5136278616340951  0.2334529219568208  0.1306788537139484
  0.1722047362634276  0.3871313132644851  0.0636881040466727
  0.6166360121894453  0.9121292474321065  0.5660677475602430
  0.6104914408350819  0.1090345670298988  0.9506430664688252
  0.1867236109337407  0.6271927923948559  0.4617577408785392
  0.3692008048047186  0.3931483153597917  0.9586357191648416
  0.8158250864326293  0.8707318435392963  0.4693349488912230
  0.8277836426357332  0.0939087924212698  0.0407769800431829
  0.3522032809295946  0.6251023012275955  0.5761225382460823
  0.8698990123938360  0.0733498204108405  0.1989110321951673
  0.3404639178482520  0.6179188788886446  0.7063772084349765
  0.8638004588236868  0.8833730556180718  0.2997211996289871
  0.3728309118664068  0.4114621783271897  0.7914846780436994
  0.1292094515803438  0.6103259063232649  0.3180019620433576
  0.6571686126794544  0.0962347764076860  0.8059436347563491
  0.1633855178184851  0.4069385941542939  0.2149409984652297
  0.6729147299174106  0.9465152955720855  0.7032200695447020
  0.8583893718045552  0.5953547920503750  0.9389434922286056
  0.3387089721883844  0.1282306657654005  0.4450728726560783
  0.8647610994300323  0.4053417517065523  0.5381965596061488
  0.3360710631897724  0.8810168963035927  0.0344883730244980
  0.1324357317965021  0.1203619912716158  0.5502388992650038
  0.6729407478360788  0.5938854506463014  0.0485568036243829
  0.1249655790789974  0.9091368665874140  0.9520721905974284
  0.6269930603183799  0.4112005045629628  0.4383393768368429
  0.6215515361615498  0.3743082412509259  0.2954426237967948
  0.1446616727157776  0.9252330155913213  0.7832757618571763
  0.1744056689441915  0.1104482752997699  0.6935895886716917
  0.6289495792095186  0.5840865740216293  0.1978508030476125
  0.8629930988975180  0.4342326117289245  0.6959373801138482
  0.3972873739752704  0.8952454425781289  0.1996536167322500
  0.3891786549439492  0.1014232402213125  0.2931176223709477
  0.8475962586471946  0.6009901857105219  0.8043345139131541
  0.1483989436966265  0.0980822152289863  0.0640031532085946
  0.6484167368309602  0.5752979128989432  0.5367211609635343
  0.6443627871755733  0.4360748643994630  0.9390665129364291
  0.1587706575718863  0.9203436903536441  0.4452467742084907
  0.3460311657849809  0.0885254026935775  0.9548880552197032
  0.8525186889931659  0.5804461720132174  0.4378500172186071
  0.8521445674764847  0.3950643106379738  0.0395149331205127
  0.3393203905709472  0.9445343255825626  0.5589679419617491
  0.1885082587390113  0.0894566121401598  0.2078315560353708
  0.6514130523620599  0.6245146643451914  0.6994547591482217
  0.2107344498701620  0.8914288140534351  0.2997204232418427
  0.6632635280337206  0.4094846602472897  0.7997274405983051
  0.8341183196958415  0.5598216921464516  0.2891380154962233
  0.3426871920585277  0.1167650028712828  0.7942109065402031
  0.8215789738971717  0.3865238513376722  0.1880090598954163
  0.3648432718916370  0.8985065438936743  0.6967172333009215
  0.7791690918689376  0.9123046182091145  0.9452343557792811
  0.3571517253967581  0.4377170231544744  0.4618331126125280
  0.8433201772864195  0.1156617443015616  0.5539826456883077
  0.3744921995526706  0.6121776602178008  0.0637900499744105
  0.1402914942141736  0.4218711583447880  0.5600299424143815
  0.6261276528687405  0.9169489234301252  0.0508067129709363
  0.1893967884801065  0.5928533566708470  0.9606686230277832
  0.6344767043326719  0.0952905381854024  0.4539975681770623
  0.3367010729551163  0.4064681708967162  0.3198064787367484
  0.8661079351740646  0.9261240294980734  0.7955861163715330
  0.8316991289220217  0.1300550627838145  0.7049873034313026
  0.3343245054190279  0.6055698794801908  0.2280120016004704
  0.1433516128078554  0.4183667023580383  0.6999348109093319
  0.6593799266523276  0.8848960338047367  0.2039787937020383
  0.6925586740537080  0.0737570997661395  0.3038807997818483
  0.1657722382313556  0.5934279855430263  0.8155766101543287
  0.9042570460170644  0.3168586692356410  0.3320587645751647
  0.6197321405704055  0.7367705572975523  0.8218956150226592
  0.5824994286527099  0.4087728915925734  0.6557920840210260
  0.8917679612486741  0.8268310232373656  0.0734789617025776
  0.4703769224324417  0.1751676064349228  0.6976991110499711
  0.9560366131339150  0.7239010152957034  0.1964583179805544
  0.9254623983637243  0.1116846436402113  0.4130184102216376
  0.4142410422886441  0.8868770740584296  0.8495282235613923
  0.0628664629587185  0.1143296697144442  0.8977836606671072
  0.5417078649998985  0.6825661174784518  0.4503163310917466
  0.9662090420777354  0.8983234312065959  0.6040008632670101
  0.6266255732781530  0.1593940737475636  0.1734127609279058
  0.9647522353088259  0.7052986990405944  0.6915686558361204
  0.4200943499367082  0.1387339977976408  0.0903400262627363
  0.9537410339891285  0.3208198265044216  0.9345210025063556
  0.4087812867537858  0.8979939703406855  0.4116476469769512
  0.1567969597228367  0.6962620661632331  0.5934898259506630
  0.5799983955628388  0.3222654073271821  0.0757147911862205
  0.8697954977920754  0.2475410207307220  0.8240154638862809
  0.4163866442273665  0.6664073410696859  0.3362816504821360
  0.1259211577265256  0.3241249838355439  0.8290756771402110
  0.6203172678713874  0.8162938125217306  0.3463402717418718
  0.8858266139649787  0.6671924306807370  0.5647039207140732
  0.4308906975500778  0.3307587071436642  0.1786073561546889
  0.3615953137894194  0.3335388359296254  0.6065342175911386
  0.0378772719741119  0.6195289835480576  0.0948334242778505
  0.1058896370599245  0.1669001248789480  0.3283310260241943
  0.3684815039472575  0.6592590325847048  0.8746283284223716
  0.0907228368966523  0.3403173714599363  0.4248897734684483
  0.5450982857301381  0.7612339709455430  0.9499429620416422
  0.5613204023389166  0.1921500585211051  0.5858727202413464
  0.1229635720076806  0.8418462521634645  0.1362490235885197
 
 -0.32621325E-02 -0.40267721E-02  0.12569425E-01
 -0.11268537E-02  0.39521670E-02 -0.67830081E-02
 -0.39494070E-02 -0.36173961E-02  0.10527984E-02
  0.29621929E-02 -0.43948288E-02  0.94178291E-02
  0.38384229E-02 -0.19580995E-02  0.19600238E-02
  0.19880138E-02 -0.19479783E-02 -0.94129499E-03
  0.18162281E-02  0.11857115E-01 -0.36005633E-02
 -0.82816069E-02 -0.31369412E-02  0.30007431E-02
 -0.88101362E-03 -0.67589789E-03  0.90199830E-02
 -0.28220918E-02 -0.11275771E-01  0.78695013E-02
  0.31489703E-02  0.87458777E-02 -0.81637261E-02
 -0.71032793E-02 -0.11453235E-01 -0.94653643E-03
  0.35374215E-02 -0.46767111E-02 -0.67547763E-02
 -0.44650152E-02  0.27403655E-02  0.24454980E-02
  0.54812583E-02 -0.19483709E-02  0.68529770E-02
  0.49848205E-02  0.81284990E-02 -0.42457261E-02
  0.93568535E-02 -0.43626772E-03  0.29351285E-03
  0.21377520E-02 -0.78225812E-02  0.65778248E-02
 -0.35375835E-02 -0.77034212E-04  0.66515147E-02
  0.23613401E-03 -0.11567501E-02  0.34600463E-03
  0.65204204E-02  0.55047549E-02 -0.10046750E-01
 -0.12000119E-01 -0.22216476E-02  0.31682607E-02
  0.20885513E-03 -0.99304373E-02 -0.70393169E-02
 -0.47779634E-02 -0.17176501E-02 -0.17773280E-02
  0.33401059E-02  0.35247360E-02 -0.61455256E-02
  0.29486129E-02 -0.21955811E-02 -0.48264454E-02
 -0.10004256E-01  0.21216269E-02 -0.61770824E-02
  0.52493649E-02  0.64718869E-02  0.29415178E-02
  0.22796948E-02 -0.11150317E-01  0.28066045E-02
 -0.10577586E-01 -0.13137348E-02  0.22449856E-02
  0.13230631E-02  0.49869820E-02 -0.53999001E-02
 -0.75231472E-02  0.20645636E-03  0.18256124E-02
  0.36078305E-02 -0.51890668E-02  0.57665518E-02
  0.18417339E-02  0.84622330E-03 -0.55962729E-02
 -0.25664313E-02 -0.74810043E-02 -0.14497313E-02
  0.79290038E-02 -0.15507929E-01  0.55593136E-03
  0.73983905E-02 -0.42875902E-02 -0.48449156E-02
  0.89445788E-02  0.36709683E-03 -0.45679776E-02
 -0.61966087E-02 -0.62760364E-02  0.12421394E-01
  0.20944940E-02  0.90155303E-02  0.23702212E-02
 -0.81060269E-03 -0.80037076E-02 -0.38918140E-02
  0.69659860E-02  0.97548343E-03 -0.49057337E-02
  0.52435087E-02  0.36134714E-02  0.10560345E-01
  0.60551035E-03  0.24568087E-03  0.11034595E-01
 -0.65202762E-02  0.17020620E-02  0.14370749E-01
  0.13063087E-02 -0.59592474E-02 -0.79049124E-02
  0.36686253E-02  0.18038814E-02 -0.12469391E-02
  0.62886974E-02  0.30704798E-02 -0.15178193E-02
 -0.12106016E-01 -0.31322147E-02  0.60512833E-03
  0.14162778E-02 -0.91497260E-02  0.63498129E-02
  0.38732058E-02  0.51001723E-03  0.64371294E-02
  0.45276571E-02  0.16413565E-02  0.52011482E-02
  0.14980107E-01 -0.18380312E-02  0.35268215E-02
 -0.57335240E-02 -0.15334585E-02 -0.36078500E-02
 -0.96642377E-02  0.31932362E-02 -0.39342775E-03
  0.18882999E-02  0.90361222E-02  0.15914750E-02
  0.10508458E-02 -0.21746589E-02  0.20633756E-02
  0.25872199E-02 -0.30571043E-02  0.23104623E-02
  0.73995152E-02 -0.43003887E-02 -0.24106506E-02
  0.16380550E-04 -0.56631407E-02 -0.17269507E-02
  0.63576920E-03  0.37581063E-03 -0.70874787E-03
  0.92750427E-02  0.75606816E-02 -0.80760576E-03
 -0.27360140E-02 -0.41362371E-02  0.27115188E-02
  0.68494553E-02  0.54379288E-02  0.31479751E-02
  0.54914498E-02  0.18898136E-02  0.68437116E-02
  0.34097731E-02  0.12633200E-02  0.65187376E-02
  0.45382177E-02 -0.76973720E-02  0.41264233E-02
  0.56471840E-02 -0.67317025E-02 -0.54802077E-02
 -0.33614848E-02  0.38091355E-02 -0.41432606E-02
  0.38070345E-02  0.40605299E-02 -0.30728347E-02
  0.51271843E-02 -0.26871153E-02 -0.44324157E-02
  0.33073577E-02  0.20248261E-02 -0.31705531E-03
 -0.42403783E-02 -0.15940091E-02  0.68890484E-02
  0.88516366E-03  0.33875562E-02 -0.16744911E-02
 -0.27995423E-02 -0.10042483E-01 -0.59319049E-02
  0.24440962E-02 -0.42116939E-02  0.13294163E-02
 -0.36711110E-02 -0.51133620E-03 -0.20475020E-02
 -0.36187280E-02  0.10403831E-01 -0.11553797E-02
  0.24618038E-02 -0.15464065E-03  0.44355510E-02
 -0.25343393E-02 -0.71094416E-02  0.70476388E-03
  0.52547666E-02  0.74935856E-02 -0.10743659E-02
  0.41866201E-02 -0.34968298E-02  0.75009674E-02
  0.68645832E-02 -0.18200028E-02 -0.87353682E-02
  0.23738845E-02  0.56270143E-02  0.64883492E-02
 -0.32355740E-02 -0.12629700E-02  0.30754358E-02
  0.92589862E-02 -0.25952866E-02 -0.56441723E-02
 -0.44127595E-02  0.25183193E-02 -0.65370281E-02
 -0.73763464E-03  0.81528114E-02 -0.40201696E-02
 -0.53539483E-02  0.19839041E-02  0.24851001E-02
  0.49481894E-02  0.32116171E-02 -0.56687413E-02
  0.23166319E-02  0.27359848E-02 -0.41720043E-02
 -0.14284137E-02  0.16309604E-02  0.14759185E-02
 -0.33380667E-02 -0.39749265E-02 -0.33185258E-03
  0.95053803E-03 -0.22218879E-02  0.38342291E-03
  0.44437226E-02  0.40389477E-03 -0.41900272E-02
 -0.88344844E-03  0.46899310E-02  0.51637597E-03
  0.24377767E-02  0.64615750E-02  0.41892188E-02
 -0.69962326E-03  0.24201280E-02  0.20802974E-02
  0.21199053E-02 -0.28078262E-02  0.20515297E-02
  0.12020367E-02  0.23139532E-02 -0.38632573E-02
  0.30958135E-02  0.16867017E-02  0.29875600E-02
 -0.52460615E-02  0.30425794E-02  0.22184724E-02
  0.50414229E-02  0.75540292E-02  0.47302438E-02
  0.81085553E-02 -0.22259263E-02  0.19192606E-02
 -0.33403649E-02 -0.12052166E-02 -0.47119427E-03
 -0.25149640E-02 -0.43946737E-03 -0.95922321E-03
 -0.72621035E-02 -0.52274907E-02  0.21426840E-02
 -0.33865903E-02  0.20092852E-02 -0.12821078E-02
  0.30943278E-02 -0.55423680E-02 -0.87180360E-03
  0.23122220E-02  0.14038270E-02  0.20345766E-03
 -0.30767631E-02  0.49672746E-03  0.20886264E-02
 -0.30567328E-02 -0.33764917E-02 -0.19428130E-02
  0.45020545E-02  0.11766357E-02  0.33540691E-02
  0.75903819E-03  0.28843339E-02 -0.22346695E-02
 -0.11766123E-02 -0.28310610E-02  0.51003254E-03
  0.21189978E-02  0.21877423E-02  0.87625640E-03
  0.50717255E-02 -0.17973879E-02  0.28516582E-02
  0.40615411E-02 -0.11250586E-02  0.67389440E-02
 -0.21262803E-02  0.89409977E-03  0.35347862E-02
  0.64898673E-03  0.30246456E-03 -0.20831673E-02
  0.50826104E-02 -0.62355425E-03  0.15741133E-02
  0.36543495E-02  0.16532328E-04 -0.88366824E-03
 -0.75626944E-02 -0.83468927E-03  0.17005579E-02
 -0.11618471E-02 -0.80443504E-02  0.59659257E-03
 -0.23611924E-02  0.53312189E-02  0.44942473E-02
 -0.12498589E-05  0.26384678E-02  0.64526519E-03
  0.32301995E-02 -0.14271866E-02 -0.23764887E-02
 -0.20031365E-02 -0.94441692E-03 -0.14199008E-02
  0.27032128E-02 -0.55673476E-02 -0.44370129E-03
  0.13208892E-02 -0.46600626E-02  0.80787698E-04
  0.18342138E-02 -0.21337148E-02  0.20247756E-03
 -0.12722370E-03 -0.32127668E-02 -0.16910231E-02
 -0.62438344E-03  0.23399062E-03 -0.10207240E-02
 -0.24910134E-02 -0.19968883E-02 -0.13131133E-02
 -0.28105906E-02  0.27098452E-02  0.84042697E-02
 -0.21765476E-03 -0.32854677E-02 -0.38600964E-02
  0.24617327E-02 -0.16608429E-02 -0.68170931E-03
 -0.47007128E-03 -0.17757831E-02 -0.69453217E-02
 -0.11975215E-02 -0.21819895E-02 -0.36352915E-02
  0.87483771E-02  0.19778011E-03 -0.23884249E-02
 -0.78558016E-04 -0.26086342E-02 -0.19887761E-02
  0.23585395E-02  0.58775014E-03  0.34703961E-02
 -0.89952101E-03 -0.77347241E-03 -0.21547102E-02
  0.22228800E-02 -0.19322044E-02 -0.46831393E-03
 -0.40185679E-02  0.26665487E-02 -0.42725668E-02
  0.48595862E-03  0.13004845E-03  0.41278794E-02
 -0.23424594E-02 -0.36710082E-02  0.48193563E-02
  0.41996171E-02  0.36652886E-02  0.25322181E-03
 -0.11762414E-03 -0.17366941E-02  0.29159401E-02
 -0.46270990E-03  0.46661966E-04  0.17573824E-03
 -0.29578089E-02  0.30586778E-02 -0.27842520E-02
  0.22709013E-02  0.30978889E-02 -0.84293095E-02
 -0.17253319E-02 -0.15291929E-02 -0.41162375E-02
 -0.83339429E-03  0.27448645E-02 -0.27634075E-02
  0.24421998E-02 -0.70153618E-03  0.30881729E-02
  0.33458471E-02 -0.39316062E-03  0.37630899E-03
 -0.85260001E-03 -0.25372204E-02  0.24871006E-02
  0.25154287E-02 -0.55381545E-03  0.37375286E-03
 -0.12515141E-02  0.40797888E-03 -0.26543466E-02
 -0.35334873E-03 -0.32190398E-02 -0.17481327E-02
 -0.15432211E-02  0.82354835E-03  0.86748308E-03
  0.31157574E-02 -0.51956176E-02 -0.16157076E-02
 -0.62324318E-02  0.13666413E-02  0.17226285E-02
 -0.70052596E-03  0.15613168E-03 -0.26926388E-02
 -0.18644795E-02 -0.59984141E-03  0.16409221E-02
 -0.33496769E-02  0.28547042E-02 -0.98501590E-03
  0.29040802E-02  0.40053372E-02 -0.40960252E-02
 -0.21194812E-02 -0.13267575E-02  0.20006994E-02
 -0.17505667E-02  0.51945825E-02 -0.23028321E-02
 -0.11978887E-02  0.13079110E-02  0.20411936E-02
 -0.30378675E-02  0.44987304E-02  0.28044926E-02
 -0.16059327E-02  0.96183390E-03 -0.56052621E-03
  0.70573564E-03 -0.87669980E-02  0.87587702E-03
 -0.60202146E-02  0.53526350E-02 -0.46033749E-03
 -0.64050917E-03  0.30953639E-02  0.12977651E-02
 -0.11255814E-03  0.10190668E-02 -0.29911898E-02
 -0.34046716E-02  0.24025157E-02  0.25223959E-02
  0.89277090E-03  0.12660013E-02 -0.15259390E-02
  0.11239521E-02 -0.76558501E-03 -0.36521755E-02
 -0.75693682E-03  0.48218120E-02  0.31431753E-02
  0.11891458E-02 -0.47368799E-02  0.31726712E-04
 -0.72001948E-02 -0.33779851E-02 -0.44357931E-03
  0.10374041E-02  0.52286899E-03 -0.44907948E-02
 -0.36566567E-02  0.25488869E-02  0.20138706E-02
  0.19576311E-02  0.21515044E-02  0.43525313E-03
 -0.11759011E-02 -0.49658412E-03  0.45274576E-02
 -0.16586823E-02  0.96840246E-03 -0.30990676E-02
  0.10575448E-02 -0.33841696E-02  0.10084823E-02
  0.34073578E-02  0.16320038E-02  0.10298340E-02
 -0.65358035E-02  0.20993608E-02 -0.15947224E-02
  0.42511204E-02  0.23926542E-02  0.41963564E-02
  0.14093716E-02 -0.28381627E-04  0.10689473E-02
 -0.59119164E-03  0.14850647E-02 -0.31017136E-02
 -0.31120649E-02 -0.11139131E-02 -0.12353044E-02
  0.66501990E-03 -0.11805183E-02  0.29100224E-02
 -0.93006121E-03  0.22467816E-02 -0.12650948E-03
  0.13443206E-03  0.22018413E-03  0.34276581E-02
  0.39567710E-03 -0.58090703E-03 -0.67128081E-02
 -0.11011180E-02 -0.19363956E-03 -0.23579918E-02
 -0.78166470E-03  0.22016869E-02 -0.55007826E-02
 -0.55563607E-02 -0.27806862E-02  0.16153762E-02
  0.29011308E-03 -0.57699563E-02 -0.13256794E-02
 -0.25267694E-02  0.14445111E-02  0.32035801E-02
 -0.57331321E-02 -0.42956726E-02 -0.47233774E-02
 -0.44956793E-02  0.17065622E-02 -0.12372275E-02
 -0.42230818E-04  0.41641590E-02 -0.11209966E-02
 -0.42699411E-02  0.40641227E-02 -0.36919994E-02
  0.76702548E-04  0.36719770E-02  0.23621048E-02
 
           1
   2.00000000000000     
  0.57760234E+00  0.20551604E-02  0.00000000E+00  0.00000000E+00
  0.71155506E+00  0.71953486E+00  0.14462683E+00
  0.28917799E+00  0.12083226E+00  0.62468610E+00
  0.47756575E+00  0.24145346E+00  0.69440130E-03
  0.98922211E+00  0.20423401E-02  0.48914842E+00
  0.26694440E+00  0.99344534E+00  0.87143723E+00
  0.24079248E+00  0.53255948E+00  0.38797688E+00
  0.16191023E-01  0.53784579E+00  0.23628063E+00
  0.26408505E+00  0.26013087E+00  0.15272399E+00
  0.51988653E+00  0.50472396E+00  0.75136816E+00
  0.67002744E+00  0.27680707E+00  0.71640255E+00
  0.73622411E+00  0.69892694E+00  0.47383100E+00
  0.26610549E+00  0.23888566E+00  0.89044180E+00
  0.47479583E+00  0.29419981E-02  0.70829605E-02
  0.25271403E+00  0.74265086E+00  0.37261548E+00
  0.17500082E+00  0.76646169E+00  0.70750590E+00
  0.48475265E+00  0.51785227E+00  0.39610242E+00
  0.25356461E+00  0.29576479E+00  0.50118605E+00
  0.75385636E+00  0.77631245E+00  0.62868094E+00
  0.73141742E+00  0.99849986E+00  0.12377188E+00
  0.20325043E-01  0.48286932E+00  0.87108455E+00
  0.51915729E+00  0.25629189E-01  0.36738360E+00
  0.52120581E+00  0.22402510E+00  0.24924429E+00
  0.77028205E+00  0.12906469E+00  0.88411677E+00
  0.77734793E+00  0.30230852E+00  0.62238580E+00
  0.27230633E+00  0.96864073E+00  0.11402362E+00
  0.57743222E-01  0.12499389E+00  0.78134473E+00
  0.51149476E+00  0.56757967E+00  0.98718952E+00
  0.73829815E+00  0.46409850E+00  0.36799592E+00
  0.48972583E+00  0.75606504E+00  0.55385172E+00
  0.26825120E+00  0.76721368E+00  0.96232260E+00
  0.23768582E-01  0.52221372E+00  0.63227264E+00
  0.53636752E+00  0.81122656E+00  0.74552363E+00
  0.20925529E+00  0.73771804E+00  0.21670938E+00
  0.29306849E+00  0.27594181E+00  0.72765714E+00
  0.97893375E+00  0.14282430E-01  0.10408980E+00
  0.74477874E+00  0.97118631E+00  0.38719855E+00
  0.54139777E+00  0.51413136E+00  0.10700467E+00
  0.74623470E+00  0.28042771E+00  0.11209434E+00
  0.77446183E+00  0.75409795E+00  0.75778314E+00
  0.74754232E+00  0.73177501E+00  0.25842058E+00
  0.39414347E-01  0.91356109E+00  0.23456931E+00
  0.52350103E+00  0.50260131E+00  0.86533176E+00
  0.51076392E+00  0.98971557E+00  0.77033651E+00
  0.94421990E-02  0.49029488E+00  0.36969396E+00
  0.99311811E+00  0.11574277E+00  0.98961621E+00
  0.47657247E+00  0.49542998E-01  0.50787336E+00
  0.99643562E+00  0.75744509E+00  0.49972061E+00
  0.75929366E+00  0.26646235E+00  0.99136519E+00
  0.15383728E+00  0.92203143E+00  0.59077963E+00
  0.77751558E+00  0.23118286E+00  0.25525950E+00
  0.98627253E+00  0.52574045E+00  0.75071844E+00
  0.54663892E+00  0.94702239E+00  0.27233283E+00
  0.28833798E+00  0.24564386E+00  0.36875936E+00
  0.96710404E+00  0.78542217E+00  0.99380047E+00
  0.71626724E+00  0.25271016E+00  0.50263962E+00
  0.22150518E+00  0.74057767E+00  0.72959998E-01
  0.94828773E+00  0.95607436E+00  0.88767568E+00
  0.50479492E+00  0.44030756E+00  0.53544635E+00
  0.29486616E+00  0.23552747E+00  0.21401822E-01
  0.99358414E+00  0.11436795E+00  0.64297376E+00
  0.58825068E+00  0.94918990E+00  0.88345039E+00
  0.31898772E-01  0.52031073E+00  0.47291318E+00
  0.96251614E-02  0.50188633E+00  0.99892061E+00
  0.49598092E+00  0.21105450E-01  0.63826857E+00
  0.25497988E+00  0.24067037E+00  0.26504389E+00
  0.74238221E+00  0.73066401E+00  0.88779352E+00
  0.50252293E+00  0.74558988E+00  0.25418208E+00
  0.49968516E+00  0.23874821E+00  0.79325890E+00
  0.79593406E+00  0.71275964E+00  0.36187887E+00
  0.98129583E+00  0.32081725E+00  0.75711436E+00
  0.75308091E+00  0.19077089E+00  0.37079604E+00
  0.28213845E+00  0.76469753E+00  0.51128450E+00
  0.27421675E+00  0.51156277E+00  0.13750087E+00
  0.71310089E+00  0.43053345E-01  0.62071038E+00
  0.97754274E+00  0.90056467E+00  0.71122135E+00
  0.25637297E+00  0.99546066E+00  0.36993677E+00
  0.27581204E+00  0.47407560E+00  0.88237389E+00
  0.22919811E-01  0.27399478E+00  0.25839908E+00
  0.75763988E+00  0.75569639E+00  0.16414781E-01
  0.26673870E+00  0.48792607E+00  0.63717108E+00
  0.78337807E+00  0.45686301E+00  0.86574096E+00
  0.24112130E-01  0.95995797E+00  0.36322970E+00
  0.75133121E+00  0.54372993E+00  0.61433937E+00
  0.51805513E+00  0.96913140E+00  0.13100547E+00
  0.99215092E+00  0.24619455E+00  0.49814852E+00
  0.85234771E+00  0.54670386E+00  0.11001552E+00
  0.29727958E+00  0.75122457E+00  0.79144304E+00
  0.46392053E+00  0.49285812E+00  0.23984989E+00
  0.29232491E+00  0.99538786E+00  0.25109043E+00
  0.76021614E+00  0.51582691E+00  0.74559621E+00
  0.26676686E+00  0.79645337E-02  0.73569439E+00
  0.72541247E+00  0.47448977E+00  0.24417488E+00
  0.22840990E+00  0.99946955E+00  0.26424845E-02
  0.74113425E+00  0.48484752E+00  0.48404953E+00
  0.24648347E+00  0.33973128E-01  0.49780082E+00
  0.75365198E+00  0.49834042E+00  0.99058966E+00
  0.75916363E+00  0.30566142E-01  0.75426229E+00
  0.24561807E+00  0.49711260E+00  0.27437588E+00
  0.25451687E+00  0.50867828E+00  0.75359277E+00
  0.77323360E+00  0.96926655E+00  0.24282786E+00
  0.26045107E+00  0.53271775E+00  0.51712269E+00
  0.70275591E+00  0.18606803E-01  0.22981590E-02
  0.73606218E+00  0.60986972E-02  0.51379460E+00
  0.27231710E+00  0.48301884E+00  0.16480927E-01
  0.13875196E-01  0.23971180E+00  0.38038125E+00
  0.48548161E+00  0.75549399E+00  0.87527115E+00
  0.50169057E+00  0.28182699E+00  0.64063256E+00
  0.99246839E+00  0.75157785E+00  0.12307475E+00
  0.27265131E-02  0.24898428E+00  0.86912152E+00
  0.49629614E+00  0.76939323E+00  0.38636465E+00
  0.99217395E+00  0.73826275E+00  0.61676799E+00
  0.51318998E+00  0.23296923E+00  0.13053970E+00
  0.17284966E+00  0.38729987E+00  0.63928342E-01
  0.61674475E+00  0.91254243E+00  0.56590769E+00
  0.61032289E+00  0.10862901E+00  0.95067960E+00
  0.18702716E+00  0.62750619E+00  0.46182050E+00
  0.36992734E+00  0.39289084E+00  0.95883997E+00
  0.81640691E+00  0.87057068E+00  0.46981763E+00
  0.82747905E+00  0.94036874E-01  0.41030162E-01
  0.35229625E+00  0.62514563E+00  0.57597333E+00
  0.87062711E+00  0.73260495E-01  0.19902378E+00
  0.34098741E+00  0.61792125E+00  0.70631391E+00
  0.86271709E+00  0.88325348E+00  0.29984300E+00
  0.37266448E+00  0.41030981E+00  0.79152741E+00
  0.12887121E+00  0.61108961E+00  0.31832387E+00
  0.65716843E+00  0.96612742E-01  0.80598985E+00
  0.16384825E+00  0.40673415E+00  0.21477078E+00
  0.67262778E+00  0.94638001E+00  0.70311837E+00
  0.85877661E+00  0.59455726E+00  0.93891171E+00
  0.33889819E+00  0.12756310E+00  0.44507866E+00
  0.86502385E+00  0.40503609E+00  0.53821106E+00
  0.33605284E+00  0.88055666E+00  0.34367252E-01
  0.13234629E+00  0.12039551E+00  0.55016579E+00
  0.67258391E+00  0.59359939E+00  0.48462751E-01
  0.12456296E+00  0.90952506E+00  0.95267415E+00
  0.62696188E+00  0.41072986E+00  0.43806289E+00