Na88 Ge16 P8 S96                        
   1.00000000000000     
    13.3422163233000006    0.0000000000000000    0.0000000000000000
     0.0000000000000000   13.3422163233000006    0.0000000000000000
     0.0000000000000000    0.0000000000000000   26.6844326466999995
   Na   Ge   P    S 
    88    16     8    96
Direct
  0.0071152490913906  0.9924132336021423  0.1116127745698568
  0.5019584035102228  0.4702507775181159  0.7189394039209643
  0.2134052582698757  0.4366646067180804  0.8769700113606677
  0.0405451983593966  0.0191734972433366  0.2467575710332832
  0.4665814212678321  0.0048530660756825  0.8591253103084229
  0.9418320779928523  0.5026881590467401  0.3691807649914574
  0.9780706191572297  0.5123856158479846  0.0284067443742797
  0.2698593762934747  0.2277474744840671  0.1008470140223744
  0.7367822556393824  0.9699797627177645  0.6172984920549656
  0.7063797677256765  0.2484829989431052  0.7441762934214486
  0.7080517752288644  0.5226724492366669  0.3878666979572208
  0.2051685525063265  0.2503477393263447  0.7651524975696760
  0.7550638995207494  0.2619629822407653  0.1246587817317774
  0.2347653712883949  0.7525097755918909  0.6210918207643183
  0.9548516019023703  0.9578309185216701  0.8756383821125048
  0.4745221141029892  0.4675552749727095  0.3737555558823555
  0.9855100465711243  0.0380850866854566  0.6154342155355846
  0.0009077700749101  0.4564957522032263  0.6340609434755143
  0.4957499256523396  0.0028775013727193  0.0101071059945128
  0.9887584384636604  0.5102599970036162  0.9033306797770057
  0.4748055869956272  0.9634501034598536  0.3706964470713233
  0.9908013366400111  0.0054461039346566  0.3725952882493120
  0.7192094305161139  0.2552203813813163  0.8645005368444025
  0.7300062842780367  0.4590330979142160  0.6323253853741423
  0.2824773977530811  0.9889721224120551  0.1219944172080984
  0.2189572651187217  0.2795440043843653  0.4924957910603590
  0.7154993796974821  0.7688663933339673  0.1125115521568139
  0.7721635420271249  0.2050390991549167  0.4847590938645307
  0.4838431435629742  0.0015646043602504  0.4957617175650376
  0.4619602903981212  0.2330482100977507  0.9953861073253316
  0.9657903263243192  0.3993627068796247  0.4772260243843694
  0.9555220324477430  0.7347026267447897  0.7604372883262314
  0.0382462051082010  0.7794395048604058  0.2560317761905856
  0.4705104193184019  0.2286651927731077  0.7664291663632350
  0.9922171957317515  0.7567309620315024  0.9919355228097699
  0.5111569387692646  0.2519306578918960  0.4928447671620658
  0.7160688580688397  0.7732792575886038  0.9912330519263574
  0.4743738035125691  0.2118605392973748  0.2638982994935806
  0.1947987298345782  0.7403733798853488  0.7473733160194721
  0.2576372993415572  0.7294058290486363  0.2577137169651951
  0.9652099282535065  0.2625671594903371  0.2370076685418424
  0.4859078273631494  0.4779025838374583  0.8704693759463631
  0.4519941210140513  0.9932066564916092  0.7388506267677917
  0.9517565967080338  0.5113847010014361  0.2394835048306103
  0.2452281791557053  0.2007030557748402  0.9650584520747852
  0.7199579490986140  0.7280067263981241  0.4792070638957270
  0.1857596710816527  0.7774088254230677  0.5194787407450123
  0.7524247039421780  0.2614893404022288  0.9853343006747425
  0.9351470501921594  0.9829455123418221  0.7373224187542105
  0.4755037905830604  0.4637180280325696  0.2439098076294779
  0.0280259880324403  0.4779125323470023  0.7484620218044010
  0.5384239270870250  0.7594788475924595  0.2560433513283243
  0.2409993271482527  0.5164372783833561  0.3829454093423753
  0.7261926269410397  0.7426953797771361  0.8454932717899660
  0.7429702804091463  0.2165961157645623  0.6078433846939285
  0.2545959908306144  0.6953739787582287  0.9955209822649593
  0.0134790055600297  0.0231470331008031  0.9896704787351502
  0.4726916934244507  0.7485373883056482  0.5047485067622175
  0.4807923242985754  0.4779831411386687  0.1256442780311725
  0.9570360180869223  0.7019794877053163  0.4842772837975445
  0.4795124723138552  0.7870934147329242  0.0042376872025938
  0.9884192464130828  0.9921719475245050  0.5000973571319297
  0.0100880821192113  0.2583331284400777  0.0011995832705278
  0.4673244299125692  0.4941944602862690  0.5166041150732467
  0.2256875357011587  0.2298387592524930  0.2790130111513134
  0.7540315979702686  0.5171750756594286  0.8871004051197966
  0.2705144311455379  0.7393559683510464  0.1412575300107755
  0.9534618965336027  0.2354863304425943  0.7485272644277672
  0.7392717340586984  0.7495983810833128  0.2725576353118255
  0.2275308565488657  0.2548390710209550  0.6259817750491885
  0.7346126328967303  0.2296725685187088  0.2365464920249606
  0.4712680492287832  0.7468314091540263  0.7566245267457202
  0.1879425048299221  0.4802263572225365  0.1345390188969393
  0.4658699151840530  0.9743285624857849  0.6259705432992315
  0.7300687651058085  0.0077656583464262  0.8763649656728190
  0.2168466046869626  0.7457613584602408  0.3831247777301711
  0.2357459492439697  0.6884422534490794  0.8739986736767646
  0.7407124474909280  0.9661119597447343  0.3732335950934650
  0.7588229067040554  0.9953030751117211  0.1285517463371417
  0.3043423313012401  0.5141947828822792  0.6223328602860170
  0.4821751580856202  0.5091471223345450  0.9952825925014439
  0.2160299029379470  0.0681102687676948  0.3719660891605498
  0.7281088028175047  0.7184295989391549  0.6182843570989242
  0.5224695355189044  0.0016516267717570  0.2240232456112832
  0.2253014908105977  0.0021638611504305  0.6254428363006512
  0.7440024022134079  0.5447487271440614  0.1346202144117597
  0.2090949234350859  0.9826720728755890  0.8704853791203281
  0.7387205455412239  0.2139044897337495  0.3663855799851071
  0.2719100961467004  0.9751072978129689  0.2524091816260617
  0.7493503763549419  0.5155618168810727  0.7580249874018145
  0.2035205883935434  0.9910353444976029  0.7489343699944437
  0.7201417238415286  0.4668491649328143  0.2569958375004103
  0.2486556304364908  0.9593132162997292  0.9941219745499622
  0.7508704597085436  0.4745750047726860  0.5070159856235114
  0.2345960037642164  0.0198982098921346  0.5031353838710642
  0.7312954391421680  0.5095876744934682  0.0086260815750315
  0.7032542391888715  0.9874400756531154  0.7439035239321563
  0.2240974139381233  0.4735666738158396  0.2498647469460403
  0.2665820387773978  0.4959460829435016  0.7496658375103626
  0.7794014932195740  0.9991949373190921  0.2465007091265433
  0.2227518426033186  0.5290006115739452  0.5050338182789536
  0.7383554855084782  0.0181399823153847  0.0024293788912907
  0.7406885305051267  0.9634993940199201  0.4956380448563754
  0.2428086221163720  0.4622040163185124  0.0090773486968269
  0.9785771420515348  0.2458727897651463  0.3732774738590673
  0.4784486951035919  0.7428459460492084  0.8800505537386514
  0.4899867215450882  0.2361045923274482  0.6288702718785056
  0.0076699330048151  0.7409569644835180  0.1322056135441822
  0.9840000427849626  0.2254735462211673  0.8741659651511543
  0.4826491479320059  0.7317293509209528  0.3808317926817822
  0.9823701234330195  0.7532892451514941  0.6243608849280233
  0.5008239692218476  0.2186417005971597  0.1201249314836421
  0.1377118688425609  0.3691828878904320  0.0548615243469704
  0.6307608727683289  0.8786699895300953  0.5416863682506878
  0.6414291114817741  0.1065258651792990  0.9474490334972208
  0.1199849100053426  0.6221906329417972  0.4602012872862054
  0.3361742019959310  0.3712124437911570  0.9594974932930231
  0.8528579027411124  0.8709905092928335  0.4516325675516831
  0.8428797426551452  0.1134290029356868  0.0489157406372394
  0.3231802633513248  0.6267358356600887  0.5425908035719625
  0.8799184290238847  0.0961744383415632  0.1931699717542698
  0.3600118144392045  0.5958297578614695  0.7057426004354309
  0.8856958386416964  0.9146955747521986  0.2945007782287062
  0.3437867238684177  0.4023664323414412  0.8078659969123108
  0.1311124066685060  0.5878073240691741  0.2997620336365178
  0.5968925965219801  0.0731984058982029  0.7938035720601880
  0.1364496431065794  0.3489389938188353  0.2103844662900683
  0.6063155218561240  0.8820410348971939  0.6971874328636534
  0.8510662765452973  0.6056723900835429  0.9642823359650097
  0.3247139097238086  0.1294702934063915  0.4568258673083699
  0.8505101552918125  0.3727958720019203  0.5582646412962413
  0.3378521868672436  0.8654340561057686  0.0451752435472344
  0.1372691058496739  0.1175535492859616  0.5545263264799032
  0.6163390435083518  0.6108592605421591  0.0497517991380192
  0.1591650693128583  0.8588767436000289  0.9418874691240103
  0.6698560819942474  0.3640712999461925  0.4616098260163183
  0.6035180455395630  0.3812261102745389  0.3093162836526823
  0.0969812203472843  0.8918326754280467  0.7956029411261583
  0.1086023308430858  0.1095078916111656  0.7132399206238381
  0.6253545739379501  0.5766126461442749  0.2079009189575275
  0.8497976045974042  0.4066200216605479  0.7159772584596933
  0.3530123920090453  0.8627075595888278  0.2025685749581590
  0.3644746869662284  0.0664538662282395  0.3034195796642075
  0.8505077669934342  0.6012672038065247  0.8093983033788973
  0.1648753912659384  0.0690826179285927  0.0432868063848744
  0.6375548915578393  0.5632513191100497  0.5474923546768915
  0.6343975979823553  0.4099529759645860  0.9593410597090148
  0.1454004670748487  0.9250932001759438  0.4491031624263504
  0.3544206245038031  0.0546327276926085  0.9438451822317252
  0.8447332691090985  0.5652582320968352  0.4505742072460771
  0.8272516196421726  0.4148673391504124  0.0623355809855559
  0.3169832885433623  0.9064619974564706  0.5527505546481875
  0.1960735788260303  0.0788374567596324  0.1986495492273356
  0.6506620941570935  0.5995744051292997  0.7057541562902141
  0.1779559123709768  0.8948843677797744  0.3086284973045472
  0.6534368957890094  0.4187101988947678  0.8027183295066446
  0.7971598962719304  0.5780314945098018  0.3028811617314766
  0.3125655410131332  0.0788177972410918  0.7947252169542524
  0.8168536659550734  0.3940022616366531  0.2018225284986681
  0.2935616054629369  0.8962322151858448  0.6992917840932050
  0.8415555820973484  0.9314582889169366  0.9514234340278003
  0.3232685179231823  0.4277735465990991  0.4562755189167752
  0.8251846471095656  0.0668436435251928  0.5481710239562768
  0.3484542214043296  0.5646687573410495  0.0582552097160149
  0.1469176495198063  0.4399745524205241  0.5621703241140749
  0.6455522853339697  0.9162688132254684  0.0511922643627287
  0.1414821366721875  0.5569004606087674  0.9543155559535913
  0.6455836554321693  0.0438378274050495  0.4382617146042674
  0.3222548477380189  0.3907652544696549  0.3075228661049349
  0.8021255617732593  0.8986680361132776  0.7944883679763085
  0.8058329529956267  0.1005453656886873  0.6920175207951426
  0.3172250742758210  0.5682331648664803  0.1965622633476526
  0.1766870713677692  0.4045095514738281  0.6964526348064247
  0.6873525519827512  0.8870085454655915  0.2000197824596894
  0.6707285712490332  0.0822536002854586  0.2934673665674677
  0.1548820753331831  0.5743238617342006  0.8016680887433798
  0.0653172870753678  0.1664142013387697  0.3258994788795622
  0.5650087709664133  0.6486839700671996  0.8369143876517122
  0.6004829162049800  0.3173648338613248  0.6641542998294647
  0.1056894098673715  0.8360339726762666  0.1740855563289194
  0.4067756852724708  0.1527492732174886  0.6766103803693139
  0.9165011190107875  0.6737783869230158  0.1818730865026590
  0.8831916697459754  0.3284621625905076  0.3289401209708518
  0.3771704304711916  0.8208678242419233  0.8382025995039355
  0.0734359630818704  0.1301712861517111  0.9188045454265370
  0.5603801658115700  0.6367740554701881  0.4284338281083702
  0.0753642464925406  0.8453567529878301  0.5860586678118914
  0.5611982070956471  0.3248137129109453  0.0761177049615523
  0.9091556483722965  0.6495741115898280  0.5769732155082672
  0.4161473989911171  0.1140936706073153  0.0766210713734000
  0.9054213895397004  0.3268868616455226  0.9160480051605633
  0.3997471925911794  0.8246169292216456  0.4292206886412187
  0.8768574805723728  0.8319770493974949  0.6664931408378580
  0.4334176768923325  0.3037454541385801  0.1775604296789450
  0.8914634543610463  0.1359935380822918  0.8359371734866100
  0.3886142174915701  0.6537417728792770  0.3298965250872216
  0.0612584224722762  0.3246077470907720  0.8314282920743546
  0.5877592802046492  0.8164190107806516  0.3414661276884119
  0.0776862878490638  0.6804543482630668  0.6749427954372462
  0.6024554076369182  0.1485293612585709  0.1675518431434651
  0.4115943913387717  0.3457931582460906  0.5962579377580541
  0.9112819667763939  0.8225930617052402  0.0804498955567051
  0.8951035694806770  0.1504609237856575  0.4185596815354682
  0.3961457014492571  0.6536209147189462  0.9255991082895616
  0.0849686580661656  0.3360679327468841  0.4051006380389327
  0.5785091085899233  0.8328107793613504  0.9176378286545943
  0.5615335747235525  0.1418184459444463  0.5786011157837951
  0.0981287095704347  0.6424823012590647  0.0972752560898692
 
  0.21139299E-02 -0.70803704E-02 -0.39271377E-02
 -0.25615112E-02  0.37053347E-02  0.47017780E-02
  0.18601968E-04 -0.20893591E-02  0.14402662E-02
 -0.59939595E-02  0.47468017E-02 -0.48451177E-02
 -0.10390040E-02 -0.25681361E-02  0.74055095E-02
  0.10163654E-01  0.12967254E-01 -0.43484037E-02
 -0.18634175E-02 -0.35142149E-02  0.53362185E-03
  0.23666345E-03  0.27641404E-03 -0.20321699E-03
 -0.20219095E-02  0.49675565E-02  0.53809938E-02
  0.14904598E-02  0.60041782E-02  0.60925946E-02
 -0.15071017E-02 -0.35127710E-02 -0.37574152E-02
 -0.13019865E-02  0.18945695E-02  0.41431091E-02
 -0.18637325E-02  0.54549007E-02  0.11429098E-02
 -0.44807595E-02  0.62668418E-02 -0.61908020E-03
  0.59538406E-03  0.20560108E-02 -0.17772317E-02
  0.54308329E-02  0.51335044E-02 -0.63574781E-02
 -0.15246843E-02 -0.79797987E-03 -0.68800196E-02
 -0.14349432E-02  0.54083131E-02  0.96675820E-03
 -0.28586679E-02  0.22278525E-02 -0.54262857E-03
 -0.70884206E-02 -0.49492208E-02 -0.32122355E-02
 -0.33760088E-02  0.14512742E-02 -0.24538154E-02
  0.75901645E-04 -0.48378905E-02  0.49551237E-02
  0.29423522E-02 -0.32480370E-02 -0.41131074E-02
  0.41381139E-02 -0.16571168E-02 -0.59773495E-03
  0.66730876E-02  0.71368874E-02  0.69164959E-02
  0.67384031E-03 -0.43283591E-02 -0.75673818E-02
 -0.49929891E-02  0.31412327E-02 -0.65959664E-02
 -0.37384529E-02 -0.31883649E-02 -0.78406201E-03
  0.29664513E-02  0.54031586E-02 -0.59929106E-03
  0.73238239E-02 -0.16035064E-02 -0.39725168E-03
 -0.38653531E-02 -0.83720628E-04  0.19617057E-03
  0.87014279E-02  0.91688172E-03 -0.51606089E-02
  0.33093461E-02 -0.83035609E-02  0.38698410E-03
 -0.76340547E-02  0.27519919E-03 -0.24632991E-04
  0.54181211E-02 -0.73160448E-03 -0.21437885E-02
 -0.19421744E-02 -0.43093053E-02 -0.22078380E-02
  0.12240087E-03  0.53726614E-02 -0.19000846E-02
 -0.27504965E-03 -0.41740928E-03  0.28511175E-02
 -0.47956251E-03 -0.47719614E-03 -0.20223643E-02
 -0.50620346E-03 -0.74685988E-02  0.23565377E-03
 -0.90915451E-03  0.21462911E-02  0.18386081E-03
  0.77503869E-03  0.20876123E-02  0.33959666E-02
 -0.93559862E-03  0.94692358E-02  0.56677807E-02
  0.50916149E-02  0.39760930E-02 -0.62202223E-02
 -0.56576640E-02  0.15450016E-02 -0.16567615E-02
 -0.10309168E-02 -0.20742597E-02 -0.27424306E-02
  0.53447173E-02  0.34017196E-02  0.32858703E-02
  0.75075184E-02  0.53787070E-02  0.84839979E-02
 -0.58926352E-02  0.90940231E-02  0.33010753E-02
 -0.75960724E-02 -0.57600964E-02 -0.18188557E-02
  0.27198930E-02  0.22781594E-02 -0.19470182E-03
 -0.16454001E-02 -0.52322510E-03  0.24405226E-03
  0.35726379E-02  0.48373857E-03  0.44596197E-02
 -0.53706539E-02 -0.56871447E-02 -0.56524303E-02
 -0.48402367E-02  0.83058962E-03 -0.45133396E-02
 -0.43641590E-02 -0.14660568E-02 -0.61479393E-02
 -0.19653163E-02 -0.22011648E-02  0.22392294E-02
  0.62708088E-02 -0.32526922E-02  0.50930926E-02
  0.45021719E-02  0.20518138E-02  0.60632696E-02
 -0.65974795E-03  0.84243787E-03 -0.41588214E-02
  0.44317023E-02 -0.42007423E-02  0.20147553E-02
  0.45308454E-02  0.51242667E-02 -0.98660881E-02
 -0.27342059E-02  0.90107379E-03  0.28964242E-02
 -0.53106824E-03 -0.92440046E-03 -0.79215536E-02
  0.83418529E-02 -0.78836601E-03 -0.39622706E-03
  0.97330451E-02 -0.55944326E-02  0.84237977E-03
 -0.35531815E-02  0.13183354E-02 -0.10597353E-01
  0.61551630E-02 -0.40720646E-02 -0.20334495E-02
 -0.48606569E-03  0.33539336E-02 -0.23502261E-02
  0.21694785E-02  0.25502202E-02  0.99521297E-03
 -0.56947525E-02  0.95986475E-03  0.41793119E-02
  0.17387877E-02 -0.21696762E-02 -0.76305824E-03
 -0.26272870E-02  0.23215296E-03 -0.20941856E-02
  0.24174958E-02 -0.52782945E-03 -0.57510165E-02
  0.56217637E-02 -0.20190880E-02  0.86357160E-03
 -0.13872358E-02 -0.35944234E-02 -0.25532437E-02
  0.39744227E-02 -0.90817946E-02  0.51425874E-02
 -0.52300888E-02  0.58248928E-03 -0.18130466E-02
 -0.57970476E-02 -0.50102696E-02  0.31281920E-02
 -0.44431360E-02  0.37827316E-02  0.13699995E-02
 -0.47018030E-02 -0.47067714E-02  0.81001045E-02
 -0.73436122E-02 -0.12775230E-02 -0.35104855E-02
  0.43178245E-03 -0.69666819E-02 -0.78977452E-02
 -0.25852665E-02 -0.12930841E-02 -0.15035730E-02
 -0.20732101E-03 -0.18322407E-04 -0.61728017E-02
  0.14825767E-02  0.98579890E-03  0.96226141E-04
  0.37774118E-02  0.48044062E-02  0.70391296E-02
  0.43898930E-02 -0.30764311E-02 -0.18920463E-02
  0.13779729E-03  0.10359993E-02  0.29563426E-03
  0.86235956E-03  0.46415073E-02  0.15086367E-02
 -0.12433837E-02 -0.39047387E-02  0.18806175E-03
  0.34632818E-02 -0.21692122E-02  0.52448310E-02
  0.63867782E-03 -0.10616464E-03 -0.34517585E-02
 -0.76396152E-03  0.48882963E-03  0.88679548E-03
 -0.12718901E-02  0.31733429E-02  0.19053412E-02
 -0.27092167E-02 -0.50721074E-03  0.35285103E-03
 -0.16490421E-02  0.16899174E-02  0.35781410E-02
  0.14632409E-02 -0.23088828E-02 -0.85443185E-03
  0.20579596E-02 -0.35064769E-02 -0.11718218E-02
  0.13469300E-02 -0.61063114E-02 -0.56402116E-03
 -0.36179270E-02  0.37360000E-03 -0.29626927E-03
 -0.12808324E-02  0.14058129E-02  0.20130038E-03
 -0.18819320E-02 -0.20298515E-02  0.49110186E-03
 -0.24032944E-02  0.81212718E-03 -0.12449607E-02
  0.27599048E-02  0.27185413E-02  0.75878726E-02
  0.46550724E-02  0.45050542E-03  0.59912439E-02
 -0.29021882E-02  0.16439449E-02  0.52003475E-03
 -0.74699515E-02 -0.58294498E-02  0.72525327E-03
 -0.23057738E-02  0.21071951E-02 -0.31150339E-03
  0.48770760E-02 -0.17075841E-02  0.41963622E-02
  0.26695037E-02 -0.15970559E-03 -0.14980437E-02
  0.19277153E-02 -0.49297528E-02 -0.65469783E-03
  0.27169569E-02  0.11818067E-02 -0.43014373E-02
  0.18832791E-02 -0.51338895E-03  0.33387193E-02
 -0.74544537E-03  0.19418188E-02  0.39255037E-02
  0.40924114E-02  0.55646619E-02 -0.78713012E-03
 -0.10563295E-02  0.21659701E-02 -0.40996191E-03
  0.15242557E-02 -0.52749903E-03 -0.10346965E-02
  0.81866503E-02 -0.35456997E-03 -0.48178070E-02
  0.16292559E-02 -0.38657129E-02  0.22108903E-02
  0.52686602E-02 -0.49206621E-02  0.47972336E-02
 -0.10697132E-02  0.49695817E-02  0.49864474E-02
 -0.54301999E-02 -0.28589736E-02  0.14182791E-02
  0.15721308E-02 -0.30441128E-02  0.17194474E-02
 -0.23550841E-02 -0.40221268E-03  0.18969500E-02
 -0.27064452E-02  0.16382500E-02 -0.65033642E-03
 -0.38326471E-02 -0.43904731E-02 -0.27363514E-03
 -0.14136196E-02  0.49023223E-02  0.17737896E-03
 -0.59379896E-02  0.62057041E-02  0.30855806E-03
 -0.22260549E-02 -0.65355248E-02 -0.58701574E-02
 -0.10907576E-02  0.76297676E-02  0.39703804E-02
 -0.70312565E-02 -0.58353028E-02 -0.10816291E-02
 -0.25159907E-02  0.12772575E-02 -0.20876185E-02
  0.36016863E-02  0.36229561E-02  0.38529412E-04
  0.73743628E-02 -0.25435184E-02 -0.16869306E-04
  0.38646123E-02  0.10662389E-01  0.27999769E-02
 -0.17649344E-02  0.56866494E-03  0.57922813E-03
 -0.88962703E-03 -0.28756502E-02 -0.19389920E-03
  0.58265778E-02  0.38036388E-02  0.26759658E-02
 -0.36906318E-02  0.40295076E-02 -0.15542061E-02
  0.70313199E-04 -0.54027697E-02  0.22655881E-02
  0.26483893E-02  0.12692107E-02  0.36300078E-03
  0.25455257E-03 -0.14823003E-02  0.71023611E-02
 -0.78755520E-02  0.40988569E-02 -0.50578057E-02
 -0.43129777E-02 -0.17327297E-02 -0.30241507E-02
 -0.31866834E-04  0.69136014E-03  0.46966711E-02
  0.33308716E-02 -0.22485763E-02  0.18077532E-02
 -0.76599862E-03 -0.18324765E-02  0.24335869E-02
  0.11541382E-03 -0.43660690E-02 -0.54081603E-03
  0.28776479E-02 -0.71388663E-02 -0.29366359E-02
  0.37447755E-02  0.20013278E-02  0.12921974E-03
 -0.56347781E-03  0.41790687E-03  0.37028282E-02
 -0.21645212E-03  0.25076542E-02 -0.11779810E-01
  0.55630498E-03  0.14148333E-02 -0.14477137E-02
 -0.41546341E-02 -0.38095224E-02  0.19719751E-02
  0.29385997E-02 -0.72705260E-02 -0.13571608E-02
  0.36545428E-02 -0.46729254E-03  0.44382643E-02
  0.36493140E-02 -0.24835627E-02  0.10643089E-02
 -0.47138043E-02  0.18343962E-05 -0.23467146E-02
  0.30246787E-02  0.29676507E-02 -0.41615897E-02
  0.19472924E-02 -0.10399913E-01  0.13312651E-02
  0.46425289E-02  0.57780110E-03 -0.33863973E-02
 -0.34504791E-02  0.85062016E-02  0.40652581E-02
 -0.65593138E-02  0.13870218E-03 -0.38485275E-02
 -0.36788968E-02 -0.29078154E-02 -0.22386549E-02
 -0.23854296E-03 -0.48398936E-02 -0.58988225E-03
 -0.61815835E-03 -0.22779346E-03  0.34629804E-02
 -0.10740923E-02  0.74792676E-03  0.26862965E-02
  0.23336720E-02 -0.97536916E-03 -0.63822610E-02
  0.42929913E-02 -0.30820466E-02  0.47961039E-03
  0.11955788E-02 -0.21007033E-02  0.32448936E-02
 -0.93510212E-02  0.40553639E-02 -0.69136331E-02
  0.94206686E-03  0.42651638E-02 -0.31369562E-02
  0.17208990E-02 -0.36066870E-02  0.60015395E-02
 -0.15680116E-02  0.60198369E-02  0.29965218E-03
  0.39985482E-02 -0.26510759E-02 -0.15700530E-02
 -0.67889907E-03  0.36220292E-02 -0.22457029E-02
 -0.17356411E-02  0.65513053E-03 -0.27080231E-03
 -0.15034388E-03  0.12204455E-02  0.20375403E-02
  0.30099568E-02 -0.14012625E-02  0.14501834E-03
  0.36158320E-02 -0.21548264E-02  0.81853381E-03
  0.11464625E-02 -0.42568710E-02  0.21943275E-02
 -0.28549216E-03  0.23220386E-02  0.35437488E-02
 -0.11066421E-02  0.10258912E-02 -0.23744457E-02
  0.10265172E-01 -0.86510028E-03 -0.31043601E-02
 -0.27399095E-02 -0.22338602E-02 -0.14288174E-02
  0.19121357E-02 -0.62747172E-03 -0.45838247E-02
 -0.54994800E-02 -0.10038924E-02 -0.61002914E-03
  0.21112525E-02  0.51902845E-02 -0.23934530E-03
  0.13178723E-02  0.13605282E-02 -0.15136579E-02
  0.27038409E-02  0.23706394E-02  0.20175147E-02
 -0.84098735E-03 -0.27637377E-03  0.44639192E-02
 -0.39941298E-02  0.24999334E-02  0.32083012E-02
  0.24830032E-02  0.10240596E-02  0.37615223E-02
 -0.28320402E-02 -0.29481051E-03 -0.67273197E-03
 -0.10154393E-02 -0.22064272E-02 -0.39026864E-02
 -0.37227051E-02 -0.38087297E-03  0.13351594E-02
  0.15363320E-03 -0.55730979E-04 -0.17821918E-02
 -0.52000354E-02  0.10141575E-03  0.27759720E-02
  0.89333183E-04  0.18796982E-02  0.49498371E-02
  0.20809275E-02  0.52986095E-02 -0.94260075E-03
  0.19911737E-02  0.22840553E-02 -0.35772048E-02
 -0.63443189E-03  0.10461513E-02  0.20798172E-02
  0.50074175E-02 -0.24094775E-02 -0.15685369E-02
  0.47991421E-02  0.25569216E-02 -0.82346149E-02
 -0.37604355E-02  0.40577012E-02  0.30460760E-02
  0.32798791E-02  0.53235758E-03 -0.80380347E-03
 -0.77750308E-02  0.99992565E-04  0.45639295E-03
 
           1
   2.00000000000000     
  0.12527503E+01  0.22091611E-03  0.00000000E+00  0.00000000E+00
  0.74321275E-02  0.99135189E+00  0.11131844E+00
  0.50157443E+00  0.47080621E+00  0.71929180E+00
  0.21340805E+00  0.43635141E+00  0.87707796E+00
  0.39646703E-01  0.19885043E-01  0.24639443E+00
  0.46642567E+00  0.44681021E-02  0.85968035E+00
  0.94335561E+00  0.50463195E+00  0.36885485E+00
  0.97779129E+00  0.51185883E+00  0.28446739E-01
  0.26989485E+00  0.22778891E+00  0.10083178E+00
  0.73647917E+00  0.97072440E+00  0.61770180E+00
  0.70660319E+00  0.24938303E+00  0.74463293E+00
  0.70782586E+00  0.52214588E+00  0.38758508E+00
  0.20497338E+00  0.25063174E+00  0.76546302E+00
  0.75478453E+00  0.26278067E+00  0.12474444E+00
  0.23409370E+00  0.75344918E+00  0.62104542E+00
  0.95494085E+00  0.95813911E+00  0.87550518E+00
  0.47533620E+00  0.46832479E+00  0.37327906E+00
  0.98528150E+00  0.37965469E-01  0.61491856E+00
  0.69267190E-03  0.45730646E+00  0.63413340E+00
  0.49532141E+00  0.32114568E-02  0.10066436E-01
  0.98769588E+00  0.50951811E+00  0.90308992E+00
  0.47429952E+00  0.96366765E+00  0.37051253E+00
  0.99081271E+00  0.47209035E-02  0.37296668E+00
  0.71965049E+00  0.25473350E+00  0.86419226E+00
  0.73062659E+00  0.45878470E+00  0.63228059E+00
  0.28347769E+00  0.99004194E+00  0.12251281E+00
  0.21905827E+00  0.27889518E+00  0.49192862E+00
  0.71475093E+00  0.76933726E+00  0.11201718E+00
  0.77160315E+00  0.20456116E+00  0.48470033E+00
  0.48428782E+00  0.23745385E-02  0.49571680E+00
  0.46305813E+00  0.23280784E+00  0.99535633E+00
  0.96521091E+00  0.39935016E+00  0.47724073E+00
  0.95682638E+00  0.73484007E+00  0.76005050E+00
  0.38742277E-01  0.77819480E+00  0.25606078E+00
  0.46936607E+00  0.22870645E+00  0.76642732E+00
  0.99302937E+00  0.75662129E+00  0.99177485E+00
  0.51086581E+00  0.25128469E+00  0.49267929E+00
  0.71608721E+00  0.77408462E+00  0.99109064E+00
  0.47433257E+00  0.21179797E+00  0.26411199E+00
  0.19472684E+00  0.74030185E+00  0.74722174E+00
  0.25756142E+00  0.72828629E+00  0.25773138E+00
  0.96507365E+00  0.26288889E+00  0.23702145E+00
  0.48602401E+00  0.47821552E+00  0.87072390E+00
  0.45185387E+00  0.99462610E+00  0.73927543E+00
  0.95251983E+00  0.51198072E+00  0.23901730E+00
  0.24438009E+00  0.20093465E+00  0.96493428E+00
  0.71980341E+00  0.72769579E+00  0.47900152E+00
  0.18656084E+00  0.77791874E+00  0.51972502E+00
  0.75355008E+00  0.26229561E+00  0.98597018E+00
  0.93426374E+00  0.98430871E+00  0.73756983E+00
  0.47436514E+00  0.46285459E+00  0.24377348E+00
  0.28433700E-01  0.47825403E+00  0.74844743E+00
  0.53817728E+00  0.75940042E+00  0.25606164E+00
  0.24153487E+00  0.51650979E+00  0.38327966E+00
  0.72538757E+00  0.74184288E+00  0.84506962E+00
  0.74224473E+00  0.21672062E+00  0.60750511E+00
  0.25394180E+00  0.69515422E+00  0.99506019E+00
  0.13184404E-01  0.22817078E-01  0.98983831E+00
  0.47363169E+00  0.74804981E+00  0.50513023E+00
  0.48146720E+00  0.47829071E+00  0.12609872E+00
  0.95693712E+00  0.70210577E+00  0.48396558E+00
  0.48017679E+00  0.78646372E+00  0.43886932E-02
  0.98909842E+00  0.99294008E+00  0.49935789E+00
  0.96782243E-02  0.25846820E+00  0.14166705E-02
  0.46724482E+00  0.49405589E+00  0.51601039E+00
  0.22693798E+00  0.22972058E+00  0.27898331E+00
  0.75549058E+00  0.51633647E+00  0.88716354E+00
  0.26998181E+00  0.73955359E+00  0.14046326E+00
  0.95438456E+00  0.23487593E+00  0.74837486E+00
  0.73919887E+00  0.75010114E+00  0.27238149E+00
  0.22785606E+00  0.25522135E+00  0.62605637E+00
  0.73375899E+00  0.22981645E+00  0.23685973E+00
  0.47152869E+00  0.74650617E+00  0.75656734E+00
  0.18754867E+00  0.48026116E+00  0.13438206E+00
  0.46623230E+00  0.97424944E+00  0.62553950E+00
  0.73091147E+00  0.74629968E-02  0.87642969E+00
  0.21663866E+00  0.74522255E+00  0.38293341E+00
  0.23634172E+00  0.68708089E+00  0.87438411E+00
  0.73992846E+00  0.96619927E+00  0.37309771E+00
  0.75795393E+00  0.99455204E+00  0.12878620E+00
  0.30367630E+00  0.51476181E+00  0.62243554E+00
  0.48147036E+00  0.50844158E+00  0.99588970E+00
  0.21492909E+00  0.67918768E-01  0.37170298E+00
  0.72817353E+00  0.71738529E+00  0.61769242E+00
  0.52208200E+00  0.14577933E-02  0.22391055E+00
  0.22527041E+00  0.21611146E-02  0.62498018E+00
  0.74422464E+00  0.54489650E+00  0.13462743E+00
  0.20966116E+00  0.98339225E+00  0.87101296E+00
  0.73937859E+00  0.21344333E+00  0.36624377E+00
  0.27193075E+00  0.97526259E+00  0.25243134E+00
  0.74947964E+00  0.51625758E+00  0.75813806E+00
  0.20333421E+00  0.99045002E+00  0.74894847E+00
  0.72066087E+00  0.46652400E+00  0.25738894E+00
  0.24875137E+00  0.95929730E+00  0.99386327E+00
  0.75075594E+00  0.47464828E+00  0.50708245E+00
  0.23440535E+00  0.20373894E-01  0.50327819E+00
  0.73088933E+00  0.50951164E+00  0.86525278E-02
  0.70300705E+00  0.98769339E+00  0.74417171E+00
  0.22431675E+00  0.47322057E+00  0.24980071E+00
  0.26689053E+00  0.49542046E+00  0.74957801E+00
  0.77960340E+00  0.99827960E+00  0.24645844E+00
  0.22220951E+00  0.52905661E+00  0.50501161E+00
  0.73816349E+00  0.18350714E-01  0.24444664E-02
  0.74040643E+00  0.96319512E+00  0.49567485E+00
  0.24244837E+00  0.46232575E+00  0.89840388E-02
  0.97899085E+00  0.24628030E+00  0.37384619E+00
  0.47914649E+00  0.74291348E+00  0.88049960E+00
  0.48955168E+00  0.23635102E+00  0.62890925E+00
  0.65501863E-02  0.74008313E+00  0.13225997E+00
  0.98365441E+00  0.22578942E+00  0.87414262E+00
  0.48338022E+00  0.73147338E+00  0.38114631E+00
  0.98277028E+00  0.75326531E+00  0.62424861E+00
  0.50111293E+00  0.21790273E+00  0.12007586E+00
  0.13811914E+00  0.36936004E+00  0.54539131E-01
  0.63104318E+00  0.87859303E+00  0.54193661E+00
  0.64131737E+00  0.10681694E+00  0.94774325E+00
  0.12059836E+00  0.62302478E+00  0.46014229E+00
  0.33601586E+00  0.37153712E+00  0.95946677E+00
  0.85308639E+00  0.87091144E+00  0.45155502E+00
  0.84410692E+00  0.11337585E+00  0.48554646E-01
  0.32342449E+00  0.62615636E+00  0.54275651E+00
  0.88070820E+00  0.95436830E-01  0.19352952E+00
  0.35985146E+00  0.59657470E+00  0.70611634E+00
  0.88488185E+00  0.91426701E+00  0.29460708E+00
  0.34402239E+00  0.40191012E+00  0.80799487E+00
  0.13075938E+00  0.58774703E+00  0.29990421E+00
  0.59648690E+00  0.73443980E-01  0.79375483E+00
  0.13587513E+00  0.34828086E+00  0.21036396E+00
  0.60610362E+00  0.88277589E+00  0.69720073E+00
  0.85017617E+00  0.60660263E+00  0.96430546E+00
  0.32438022E+00  0.12849062E+00  0.45638590E+00
  0.85034665E+00  0.37393958E+00  0.55856222E+00
  0.33679820E+00  0.86455934E+00  0.45094175E-01
  0.13689196E+00  0.11774501E+00  0.55436986E+00
  0.61687894E+00  0.61140234E+00  0.49754687E-01
  0.16027049E+00  0.85849547E+00  0.94188620E+00
  0.67043539E+00  0.36566959E+00  0.46181968E+00