Na88 Ge16 P8 S96                        
   1.00000000000000     
    13.3422163233000006    0.0000000000000000    0.0000000000000000
     0.0000000000000000   13.3422163233000006    0.0000000000000000
     0.0000000000000000    0.0000000000000000   26.6844326466999995
   Na   Ge   P    S 
    88    16     8    96
Direct
  0.0021441990816995  0.7165570136196462  0.2632974875608045
  0.4961860349516720  0.5168076960816607  0.7594376527346117
  0.5289258531554176  0.8042116993181818  0.7510406596584007
  0.0303360394479486  0.2747803869245813  0.5138969875122069
  0.5246043318687381  0.9997750400892702  0.8715093657059478
  0.2540834117498871  0.7284983741465787  0.4895874343440105
  0.2687015399769935  0.7883990581008038  0.1130852325992216
  0.1878354336844115  0.2435484214509115  0.2532192109633623
  0.9883576977147561  0.0304389081844692  0.6074290172867836
  0.7520502237551879  0.2654129299643402  0.8655604490113069
  0.7261065979055953  0.0019877771910131  0.3814296019836839
  0.2449508879187927  0.7592227916524498  0.7348289885224671
  0.6638068035606725  0.0277394459793636  0.1248627334009899
  0.2626957470271428  0.7287925988966384  0.6273480197737772
  0.9806693340405067  0.9799375516006290  0.9912720429649806
  0.5067550981684893  0.4786108095696707  0.2753034314743727
  0.0102264062235034  0.8744583006820035  0.5273857445321595
  0.1369712151977130  0.5148744651680217  0.6348595251210173
  0.9617867827406430  0.0003354018740773  0.2365923008180282
  0.0300647900066866  0.5073649712417700  0.8748515300322595
  0.4994669891602287  0.0194498757620440  0.3601535665065712
  0.2083761681235382  0.0024912501814737  0.3690172199063763
  0.5057183992609082  0.4621565766227533  0.8703574030509161
  0.7525509305838964  0.5131070616239976  0.6302468918587061
  0.0201876011704166  0.4778570966844278  0.1329028150659810
  0.2340375397831469  0.2567028360448090  0.6261416784506254
  0.4889505465075387  0.7231618595285116  0.2414273158122841
  0.2438247947645256  0.2350933445995256  0.5163485968795297
  0.4960720818934263  0.7112716125082643  0.5182673068341005
  0.9947066691720179  0.9864337058052288  0.1072729091302798
  0.2759903045336445  0.2364696849957182  0.3804742338926327
  0.7622077832573833  0.9930033820544413  0.6303263932231610
  0.0163043768589208  0.4905894690387544  0.3807745521869704
  0.4827039245016093  0.0938345978516923  0.7306917982760021
  0.9584772489170350  0.6971582095717803  0.0035127468625519
  0.7617621235014065  0.2757582313971048  0.4879747594733319
  0.4854498311743475  0.0189824649531136  0.9933255494998544
  0.9414947867969358  0.2337960535548518  0.2565987354496245
  0.0088138741290087  0.0087640066660126  0.7542952910905260
  0.4838540988029407  0.9726890573707562  0.2536312470612520
  0.9950874874232856  0.9847367255089754  0.4076963375420736
  0.4584697115726151  0.6149454260385727  0.9638028340886027
  0.5080499565671666  0.0027482006854158  0.6390235919628666
  0.9858568403492451  0.5103153259521012  0.2530402848650687
  0.1156551997741261  0.0864699938010451  0.9018700448027690
  0.7285530587161574  0.7897994670166834  0.3426623501235784
  0.7620091216426415  0.7733667098660164  0.5021453303915252
  0.2569122309027611  0.2823588979309079  0.0160953736262021
  0.7997406534057355  0.9948095423578714  0.8686968860725293
  0.7002783803126575  0.2261137274389354  0.2394311169429182
  0.0098850869153534  0.4936767026080955  0.7440202271210746
  0.4777388161556745  0.8995438764314118  0.1184992996799025
  0.5220618311074888  0.2600929275830351  0.4649033243557695
  0.6906473554050786  0.6992150247321507  0.0097326090666670
  0.7566159860194202  0.2657542058843511  0.6173754468498701
  0.2798420907004388  0.7713954389555020  0.9926756252783221
  0.7583903185763953  0.8260547191128982  0.1140009604137215
  0.4867981637238737  0.4848894887157068  0.5091492892822281
  0.2566587779539614  0.5626553540458689  0.8737506683718600
  0.4288526336766617  0.2367772301637175  0.2472157907194712
  0.7089326257955891  0.2639551622283667  0.7373602398412696
  0.0088213043419716  0.5452534348846351  0.5251112720629721
  0.7217159032378381  0.1836500010695584  0.0121153500720640
  0.5225166214779398  0.0122156665855224  0.4958665753785439
  0.7622823200466177  0.2671533906697066  0.3680574001578545
  0.7401771428532958  0.4875009890196746  0.8741790373814555
  0.5117172121619141  0.4891777295415927  0.1270403000668901
  0.9887752949617552  0.2573313816929677  0.7308001171701132
  0.7644234492903393  0.7317100088414035  0.2224638910795071
  0.3011860252890515  0.2470641280801711  0.7477902100248904
  0.2687768764790107  0.0803100112785780  0.1162673626284005
  0.0354363961640354  0.7825264607653392  0.7490543401048819
  0.4982464231959248  0.3042283155651902  0.0008753276838825
  0.6825661947839731  0.7457284736758860  0.6280218924316555
  0.7898103706742152  0.7585090356975058  0.8705269175328183
  0.2618792831421410  0.7565403512341506  0.3841964759214556
  0.3010132910225731  0.9158123887812409  0.8646660299448510
  0.7103261161874400  0.5601700032668340  0.3765603427574031
  0.2587339110874811  0.4502717756735588  0.1411108949541124
  0.5001051540373492  0.4905795134060394  0.6250684845922380
  0.9789329138567712  0.4727965110611374  0.9982861563740302
  0.2182964697911958  0.7307399781958425  0.2396347829179117
  0.7762794795876816  0.7484441423091220  0.7440383188503019
  0.9664732770562841  0.2346784875648721  0.0125906363534104
  0.2445108975300499  0.0018982503975028  0.6268709997569692
  0.7524721957239180  0.5016190434607251  0.1277264189978781
  0.2709866820567369  0.2702964227966008  0.8774345543258264
  0.2909223322107010  0.5002388922671257  0.3804707933465595
  0.2236175112326298  0.9871211861875049  0.2401000037193352
  0.7546182253607007  0.5178088455139779  0.7532781109105560
  0.2771973579526186  0.9930101009859417  0.7614781667610967
  0.7342643271820796  0.4859540201857595  0.2495468831902268
  0.2371337541907463  0.0298875951539664  0.9921268265386562
  0.7559741553114829  0.5110055576727716  0.4989221738639956
  0.2528400434976854  0.9772835694480365  0.4946784393714860
  0.7221710881232959  0.4353962335668183  0.9988654501373088
  0.7653564554498777  0.0071245889954927  0.7532028499224069
  0.2447414220031961  0.4926727253208441  0.2614473208854164
  0.2537465099359618  0.4948713210757930  0.7455955484422930
  0.7175483031654827  0.9702575986796371  0.2330165554956316
  0.2394468635210196  0.5043367958643066  0.4937873411319958
  0.7437114381737252  0.9503487379985248  0.0004552832526151
  0.7695081630174888  0.0221017063531802  0.5091123105153416
  0.2416232816503164  0.5438457547140282  0.0076770553166300
  0.0049244384785631  0.2219908081056377  0.3749030534636771
  0.5288398282403007  0.7471798067787332  0.8743734040381187
  0.5011589961391320  0.2344320730287167  0.6109986295069810
  0.9902760147275878  0.7405831210408208  0.1288387462317581
  0.9951791342279102  0.2525453786294240  0.8712191936291126
  0.5019992554632684  0.7401692130509042  0.3704743614267710
  0.0061050520909055  0.7691374405929672  0.6333800770369117
  0.4793285723523756  0.2142894406908909  0.1284366156608396
  0.1476990793765450  0.4333526726229929  0.0502505227826523
  0.6570345403907455  0.9379413751908187  0.5500511268971723
  0.6610539778770013  0.0483031438230430  0.9404876492089264
  0.1461396131220752  0.5940809132995658  0.4433016637766807
  0.3422171081687959  0.4542423088175515  0.9534744163074876
  0.8606984749094466  0.9222166820893011  0.4605469593398747
  0.8309520435156870  0.0505695331727043  0.0529930622549499
  0.3442912702365731  0.6046461217165652  0.5448146935997112
  0.8120997057109158  0.0956055182543626  0.1931379836141036
  0.3560552557451578  0.5855881280693187  0.6930346485876279
  0.8227656905460445  0.8994660921326560  0.2893967458388521
  0.3480323633870610  0.3995216411635301  0.8032075626083162
  0.1736896146150956  0.5950870068987565  0.3122773284524116
  0.6642809875502954  0.1008891997199426  0.7984246826035558
  0.1403658210595100  0.4150354082110057  0.2156907426303370
  0.6545480410127625  0.9088794932722315  0.7035297966911834
  0.8248306383663406  0.5518320931218889  0.9573488701260231
  0.3547392391661597  0.0614138345790492  0.4385753705868740
  0.8591533123511724  0.4226766813276229  0.5487155322937797
  0.3111595588524603  0.9264341411363086  0.0475163007655248
  0.1339308115070932  0.0855471598710504  0.5381305829895994
  0.5962194222670604  0.5153536488241578  0.0374843767258650
  0.1610594045111164  0.9220705665281250  0.9431361651253987
  0.6468883335332205  0.4395495152858714  0.4449117241288566
  0.6643514123739443  0.3774819087546129  0.3029583163414567
  0.1696475458053628  0.8905922605569349  0.7984444554228955
  0.1851040929279204  0.1067697928529284  0.7162483690693032
  0.6325068758897575  0.5665739047003462  0.1987463454213022
  0.8433466624442728  0.4289479275997989  0.7016375198349721
  0.3322322367171059  0.8791954634328726  0.1989247068919286
  0.3193951161301921  0.0889904222038365  0.2893533274300458
  0.8426883999281958  0.5969427355783060  0.8039276303398337
  0.1205297491698487  0.1300100044744200  0.0279186686755266
  0.6576816326649249  0.6118347439600922  0.5494399193990449
  0.6562124324560752  0.3390887114891706  0.9390900702004815
  0.1480333635588795  0.8766346557314804  0.4505996501735559
  0.3344403969319570  0.1286457643139999  0.9509886843923017
  0.8508797670869613  0.6001511864771328  0.4408198170526793
  0.8329775879703423  0.3566142695004608  0.0480529119351316
  0.3431086106900182  0.8662392191601360  0.5477301654617798
  0.1342416727153140  0.0683560560936282  0.1883152080504224
  0.6436951435131405  0.6049211404823885  0.7013069057483022
  0.1157054383526201  0.9071537611157874  0.2930752108994140
  0.6592758391021256  0.4210295229781943  0.7956075077541893
  0.8251257232719436  0.5824965140094325  0.2997015766566868
  0.3755678588299715  0.0592869815226640  0.8158983833784800
  0.8322873553209459  0.4065003839844888  0.2008799513975873
  0.3728203064869529  0.9217026324145381  0.7044214624181997
  0.8270719101101797  0.8532840752103440  0.9520008392976053
  0.3540258390091051  0.3870074352201887  0.4561549217868480
  0.8524009821975372  0.1266795881260749  0.5620654389324475
  0.3422822608572706  0.6242365198979606  0.0566551404401475
  0.1514898321398759  0.4124233029845612  0.5461473748436729
  0.6274212450974689  0.8741382666035310  0.0502131620229778
  0.1275482922266143  0.6417470016589274  0.9604786785115493
  0.6574682872397265  0.1183169351479844  0.4521543483401904
  0.3244668041927306  0.3784165636119401  0.3026491337809982
  0.8687470552179146  0.8872645159765037  0.7961117682112696
  0.8610656232280688  0.1007986753872084  0.7033259913463377
  0.3361314662357347  0.5885512201492177  0.2045400916053985
  0.1543527842280634  0.3858301863829005  0.7032952489103145
  0.6166565505306640  0.8658861259707190  0.1896451516434431
  0.6490515242294856  0.0772107759606120  0.2949906302985857
  0.1570812781219393  0.5933509819649945  0.7911454815780679
  0.9125068853984978  0.1179282885023071  0.3369520502909724
  0.6050171497071049  0.8541230557376410  0.8323141887421674
  0.5860335616244645  0.3304267104980258  0.5723855817408808
  0.0698978704821383  0.8056577131395712  0.0727369279233011
  0.4119337176555404  0.3098301848386864  0.6618241375329085
  0.9245161663829934  0.8345241158996739  0.1747557853002435
  0.0909922505900709  0.1403095741539463  0.4257903607453407
  0.4140526585574712  0.6830977285156720  0.8345714872630490
  0.0960815077989363  0.3354834047497179  0.9187328629009573
  0.4328003575559486  0.6441978799125565  0.4230277942703029
  0.1149771068236003  0.8569021200465035  0.6681021228340630
  0.5677575368752399  0.3083096278524644  0.1795634618111893
  0.0755959724094615  0.7150643188291572  0.5696489234532652
  0.4368561401575852  0.0900544160063487  0.1693175353392687
  0.9120732163096086  0.1600180007673222  0.9085866976908982
  0.4073546441340865  0.8324490970233711  0.3360098131163442
  0.8891223856515958  0.8527065989264700  0.6055896270295800
  0.5542097565086717  0.1699862454257666  0.0699290959987767
  0.0726437273465702  0.1634963131697581  0.8129698299247865
  0.5796242079009036  0.6574819489035225  0.3180957289452802
  0.9203873976664909  0.3614130363682552  0.8333194737894084
  0.6075036954078197  0.8131507217930865  0.4177220967670592
  0.9351683851537527  0.6529094202921678  0.6705935724240734
  0.3679075718345128  0.2998746477421873  0.0969258467857340
  0.4283206405579241  0.1298247269906479  0.5767740479001520
  0.8969521761542892  0.6371458395764277  0.0985813315562802
  0.0973267842078467  0.3109200950001954  0.3335348369445302
  0.6351441498837764  0.6468269571048082  0.9007987126470929
  0.9232588474344715  0.3306820086084857  0.4156371054756364
  0.4613290097517994  0.8128920017768581  0.9339189836724998
  0.5994657616144610  0.1816922052495752  0.6721269575065822
  0.0793251795595302  0.6451641594848956  0.1749913963006721
 
 -0.92388298E-02 -0.66376849E-02  0.13697132E-01
  0.31047429E-02  0.48447329E-03 -0.90004072E-03
 -0.44554278E-02  0.61303694E-02  0.35157999E-02
  0.25000717E-02  0.59251415E-02 -0.42294999E-02
  0.18154914E-02 -0.24140990E-02 -0.56136437E-02
 -0.42276095E-02  0.54565747E-02  0.14850655E-02
  0.94510479E-02 -0.26856832E-02  0.50286832E-02
 -0.57398386E-03 -0.69222600E-02 -0.59009381E-04
  0.20971778E-02  0.19123143E-02  0.12372820E-01
 -0.37691198E-02 -0.78462693E-02 -0.54350375E-02
  0.12489232E-02 -0.38232189E-02  0.51240192E-03
 -0.30034062E-02 -0.72299971E-03  0.50300708E-02
 -0.57212484E-02 -0.54500971E-02 -0.35744802E-02
  0.35103905E-02 -0.47114269E-02  0.96559826E-02
  0.65600829E-02 -0.34682710E-02  0.72768689E-03
  0.51653008E-02  0.12681998E-02  0.41207196E-02
 -0.23061108E-02 -0.81390169E-02  0.33987945E-02
 -0.18311764E-02  0.47137339E-02  0.11742320E-02
 -0.32502037E-02 -0.84758003E-02  0.45113753E-02
 -0.20831683E-02 -0.16727061E-01 -0.73872482E-02
 -0.42441637E-02 -0.75842622E-02 -0.22141217E-02
  0.11052738E-01 -0.10417188E-02 -0.86539484E-03
 -0.13447525E-02 -0.93527160E-02  0.10124237E-02
 -0.10691146E-02  0.25814169E-02 -0.12556374E-02
  0.11045214E-01 -0.59748750E-02 -0.43071587E-02
 -0.27792961E-02  0.41953656E-02  0.43725604E-02
 -0.79715426E-02 -0.68048599E-02  0.49673178E-02
 -0.17383135E-02  0.28033133E-02 -0.10555037E-02
 -0.27598242E-02  0.27874967E-02  0.83044224E-03
  0.32667456E-02  0.63588100E-03 -0.79653876E-02
 -0.50454383E-02 -0.10337513E-02 -0.32684399E-02
  0.44445005E-02  0.25221390E-02  0.15868585E-03
  0.21389113E-02 -0.98543726E-03 -0.67094462E-02
 -0.69397374E-02 -0.59089889E-03 -0.72100524E-02
  0.39187825E-02 -0.59716308E-02  0.64448349E-02
 -0.84759649E-03  0.58483520E-02 -0.16584797E-02
  0.13965274E-01  0.41270188E-02 -0.12749591E-02
  0.17500154E-02  0.26713924E-02 -0.10915028E-02
  0.49758838E-02 -0.41920098E-02  0.31191854E-02
 -0.27917505E-02  0.12226251E-01 -0.42287519E-02
 -0.74016955E-02 -0.78215373E-02 -0.67168109E-02
  0.31434502E-02  0.33248942E-02 -0.10047207E-01
  0.56169530E-02  0.99212229E-03 -0.68635203E-02
  0.69656877E-02  0.10375573E-01 -0.46858826E-02
 -0.41470774E-02  0.71983282E-02  0.54056981E-02
 -0.11748505E-02  0.11010327E-01  0.12972250E-01
 -0.30042077E-02 -0.33807045E-02  0.31531160E-02
 -0.55923725E-02 -0.64995035E-02  0.23034040E-02
  0.50866023E-02 -0.38698209E-02 -0.66520758E-02
  0.94904577E-02 -0.37723495E-02  0.23672799E-02
 -0.74220852E-02 -0.46795981E-02  0.47847435E-02
  0.40733221E-02 -0.36062948E-03  0.17692630E-02
  0.76021903E-04  0.26120046E-02  0.28558540E-02
 -0.24107607E-02  0.59536126E-02  0.68347886E-02
 -0.60008420E-02  0.32883009E-02 -0.17815154E-02
 -0.57355401E-02  0.26533345E-02  0.37527805E-02
  0.77932422E-02  0.14205161E-01  0.41586971E-02
 -0.38269837E-02  0.60635604E-02  0.69534901E-02
 -0.33981612E-02  0.33738094E-02  0.95058566E-02
  0.11623401E-02  0.81679261E-03  0.42575159E-02
  0.13530206E-02 -0.29070097E-02 -0.77704801E-02
  0.17635358E-02  0.51186890E-02  0.57734406E-02
  0.16331960E-02  0.65665659E-02 -0.76757192E-02
 -0.37233394E-02 -0.20733041E-02  0.26614727E-02
 -0.46578768E-02  0.82909856E-02 -0.16441072E-02
  0.82002462E-02  0.43623671E-02  0.61713705E-02
  0.51758893E-02  0.26404034E-02 -0.18498841E-02
  0.89658036E-02  0.77047753E-02 -0.52092820E-02
 -0.34423247E-02  0.33675551E-02  0.28866796E-02
  0.71555867E-03  0.14860371E-02 -0.15041428E-02
 -0.73027639E-02  0.33735468E-03 -0.63696916E-02
 -0.65165793E-02 -0.53054550E-02  0.87175387E-02
 -0.64969977E-02  0.68631111E-02  0.41194638E-02
 -0.27043402E-02  0.11400638E-01 -0.25912576E-02
 -0.50381923E-02 -0.10692362E-01  0.16176756E-02
 -0.15555430E-02  0.10646415E-01 -0.26399910E-02
  0.23271631E-02 -0.36787313E-03 -0.32796455E-02
 -0.90548505E-02  0.52031042E-02  0.33115825E-02
  0.73179300E-03  0.49988535E-02  0.67866680E-02
 -0.82449853E-02  0.27949733E-02 -0.82341515E-02
  0.51253649E-02 -0.10526769E-01 -0.79642317E-02
  0.22923805E-02 -0.40178663E-02  0.80467527E-02
 -0.37759377E-03 -0.91466435E-03  0.62102293E-02
  0.27441562E-02 -0.42561985E-02  0.72050428E-02
  0.75716282E-03 -0.69083437E-03 -0.40537894E-02
 -0.13769076E-02  0.75939399E-02 -0.10101580E-01
 -0.67418242E-02  0.53159170E-02  0.22414331E-02
 -0.26852665E-02  0.10033409E-01 -0.24864074E-03
 -0.11091044E-02 -0.10693327E-02 -0.49446659E-03
  0.12030514E-02 -0.26379393E-02  0.46105030E-03
 -0.10344695E-02  0.14032690E-02 -0.40309225E-02
 -0.34431625E-02  0.25821562E-02  0.69290549E-03
 -0.79436473E-03 -0.19656038E-02  0.17431378E-02
 -0.83856572E-03 -0.28791764E-03  0.10031476E-02
 -0.26049671E-02 -0.11946176E-02  0.39388207E-02
 -0.19249201E-02 -0.79040447E-03 -0.23253932E-02
 -0.19624860E-02 -0.14433062E-02  0.21447836E-02
  0.25181918E-02 -0.19245668E-02 -0.32856163E-02
 -0.75340005E-03 -0.17546131E-02  0.14664237E-03
  0.28537904E-02  0.17624896E-02 -0.91040559E-04
  0.19142765E-02 -0.28876716E-02 -0.21795879E-03
 -0.90276087E-03  0.84004511E-03 -0.24050775E-02
  0.63000623E-03  0.14341838E-02  0.33745662E-02
 -0.16037317E-02  0.21042577E-02 -0.19974786E-02
  0.14920099E-02 -0.97262197E-02  0.31156414E-02
 -0.24052799E-03  0.44672023E-04 -0.19818251E-02
 -0.56490468E-02 -0.12044222E-01 -0.13928537E-02
  0.34260183E-02 -0.95733474E-04  0.44938772E-02
  0.57711000E-02  0.41071874E-02 -0.18846856E-02
 -0.69826244E-03  0.85993798E-03  0.84450010E-03
 -0.35998084E-02  0.64666909E-02  0.71381030E-02
 -0.39062723E-02 -0.22632901E-02 -0.84428870E-02
  0.62967263E-02 -0.50827218E-03  0.45612872E-02
  0.17808275E-02 -0.35328593E-02  0.33565444E-03
  0.65698392E-02  0.36212718E-02  0.82907029E-04
 -0.72004569E-02 -0.11877040E-01  0.13262785E-02
 -0.57015217E-02 -0.59913254E-02  0.74971929E-03
 -0.14280038E-02 -0.74450215E-02 -0.62112093E-02
 -0.13153398E-02 -0.62198111E-03  0.20021684E-02
 -0.58422876E-02 -0.19315648E-02  0.39936573E-02
  0.55893023E-02  0.28597562E-02 -0.11485974E-02
 -0.50793063E-02 -0.81438104E-02 -0.10347662E-01
 -0.78057903E-02  0.76994971E-02 -0.27389704E-02
 -0.11120561E-02  0.10438691E-02  0.31482564E-02
 -0.68394146E-02  0.61269896E-02 -0.70625324E-04
  0.24540916E-02 -0.34799701E-02 -0.13105859E-02
  0.78902205E-02 -0.10652657E-01 -0.36505190E-02
 -0.23705469E-02 -0.49772155E-02  0.30803241E-02
  0.41675225E-02 -0.39005661E-02 -0.11736029E-02
 -0.86441731E-03  0.51501527E-02 -0.22702320E-03
  0.69607391E-02 -0.31724570E-02  0.26995122E-02
 -0.64814686E-02 -0.57506294E-02 -0.34111517E-02
  0.17804951E-02  0.23920297E-02 -0.10132601E-02
 -0.40031632E-02  0.16564724E-02  0.59978412E-02
  0.82079098E-03 -0.58523321E-02  0.52981272E-02
 -0.26232455E-02  0.14541193E-02  0.27845803E-02
  0.67826749E-03  0.58350666E-02  0.17658399E-03
 -0.29854276E-02  0.74653730E-03 -0.30160602E-02
  0.29161996E-03 -0.38199864E-02  0.11078231E-02
  0.40781978E-02  0.25237000E-02 -0.27438176E-03
 -0.60521720E-02 -0.15235427E-02  0.14343003E-02
  0.73048806E-02  0.10668016E-02  0.31151957E-02
  0.63538188E-02 -0.61897093E-02 -0.39170568E-02
  0.78245452E-03 -0.39821548E-03  0.39346643E-02
  0.26250072E-03  0.10681599E-02 -0.52110220E-02
  0.66940011E-03  0.21503036E-02 -0.34901926E-03
 -0.10447164E-01  0.36371211E-03  0.30334264E-03
 -0.20438341E-02 -0.17955929E-02  0.48914801E-02
 -0.21469650E-02 -0.44210795E-02  0.33821223E-02
 -0.27497446E-02  0.87907197E-02 -0.12135140E-02
  0.27312690E-02 -0.67799155E-02 -0.45454729E-02
 -0.42948896E-03 -0.17053318E-02 -0.62397948E-02
 -0.89760325E-02  0.44068274E-02 -0.69626982E-02
 -0.80281519E-03  0.17201260E-03  0.30124281E-02
 -0.85611997E-02 -0.10965915E-02 -0.18285919E-02
 -0.19980272E-02 -0.70807612E-03 -0.37655630E-02
  0.17487460E-02  0.23858426E-03  0.21206959E-02
  0.24356215E-03 -0.25867619E-02  0.62429022E-02
  0.40354376E-02  0.55054164E-03  0.93968504E-03
 -0.91356556E-02 -0.24984459E-03 -0.80611495E-03
  0.41412070E-03  0.17904029E-01  0.59089445E-02
 -0.25145785E-02  0.32792179E-02 -0.38876785E-03
  0.41790297E-02  0.20348513E-02 -0.53435589E-02
  0.33994378E-02 -0.50710124E-03 -0.12633351E-01
 -0.24998485E-03 -0.54585807E-03 -0.13493005E-02
  0.13930943E-01  0.38960649E-02 -0.81024714E-02
 -0.56495039E-03 -0.24377613E-02  0.51411248E-03
  0.30945751E-02  0.11840799E-02  0.26825097E-03
 -0.86055747E-02 -0.36927587E-02  0.10005779E-02
 -0.49012788E-02 -0.66526095E-03 -0.30403393E-02
  0.86190871E-02 -0.31248837E-02 -0.31881345E-02
  0.95671649E-02  0.35621714E-02  0.11407866E-02
 -0.22594132E-02  0.37182137E-02  0.58014534E-02
  0.25333528E-02  0.13094237E-02 -0.49575834E-02
 -0.14506247E-03  0.13398051E-02 -0.10531330E-01
  0.12837003E-01  0.50475681E-02  0.36945603E-02
 -0.84640620E-02 -0.47861527E-02  0.20886646E-02
 -0.89742722E-03 -0.84989390E-02  0.13121058E-02
  0.85375578E-03  0.52410948E-02 -0.25885631E-02
  0.20743589E-02  0.43090600E-02  0.20768383E-02
  0.36940184E-02 -0.27859240E-02  0.27915979E-02
  0.17138925E-02 -0.23061082E-02  0.62356226E-02
 -0.20441289E-02 -0.28266504E-02  0.28368873E-02
  0.30952904E-05 -0.53057696E-02  0.47781766E-02
  0.97221562E-02 -0.13936425E-02 -0.18713774E-02
 -0.13044657E-02  0.50826537E-02  0.94224281E-02
  0.30975709E-02  0.19968427E-02  0.60416853E-03
  0.44308221E-02 -0.26847161E-02 -0.25223990E-02
  0.10563766E-02 -0.10883594E-02 -0.10865416E-02
 -0.36842314E-02  0.10196215E-01 -0.53992477E-03
  0.28368523E-02  0.10040749E-02 -0.30868920E-02
  0.80407550E-02 -0.33798261E-02 -0.16841563E-02
  0.52195388E-02  0.29900486E-02  0.13056161E-02
 -0.32850900E-02  0.16150331E-03 -0.24742089E-02
  0.73208510E-03  0.12464551E-02 -0.19113491E-02
  0.22052196E-02  0.38958964E-02  0.26799742E-02
 -0.23848527E-02  0.58948785E-03 -0.47269281E-02
 -0.52304211E-02 -0.39273242E-02 -0.43892113E-03
 -0.46933392E-02 -0.32653521E-02 -0.12784345E-01
 -0.79081672E-02  0.85160303E-03 -0.67668295E-02
  0.68243552E-02 -0.33121188E-02  0.45414211E-02
  0.12661745E-01  0.11056913E-02  0.72330883E-03
 -0.46457800E-02  0.26425489E-02  0.48790842E-02
  0.64103166E-02  0.52989144E-03  0.32345332E-02
  0.30732218E-02  0.44172810E-02 -0.48961987E-02
 -0.65996768E-04  0.82115371E-03 -0.51735749E-02
  0.62699190E-02  0.12748005E-02  0.61295899E-02
  0.18570067E-02  0.42515200E-02 -0.55679752E-04
 
           1
   2.00000000000000     
  0.10245398E+01 -0.12849609E-04  0.00000000E+00  0.00000000E+00
  0.75929726E-03  0.71556202E+00  0.26432409E+00
  0.49665144E+00  0.51688032E+00  0.75937019E+00
  0.52825798E+00  0.80513064E+00  0.75130417E+00
  0.30710801E-01  0.27566857E+00  0.51357999E+00
  0.52487647E+00  0.99941317E+00  0.87108862E+00
  0.25344969E+00  0.72931632E+00  0.48969874E+00
  0.27011825E+00  0.78799647E+00  0.11346213E+00
  0.18774939E+00  0.24251077E+00  0.25321479E+00
  0.98867206E+00  0.30725564E-01  0.60835636E+00
  0.75148523E+00  0.26423677E+00  0.86515309E+00
  0.72629381E+00  0.14146762E-02  0.38146801E+00
  0.24450068E+00  0.75911441E+00  0.73520599E+00
  0.66294919E+00  0.26922476E-01  0.12459483E+00
  0.26322196E+00  0.72808636E+00  0.62807174E+00
  0.98165269E+00  0.97941766E+00  0.99132658E+00
  0.50752938E+00  0.47880091E+00  0.27561228E+00
  0.98807199E-02  0.87323826E+00  0.52764048E+00
  0.13669672E+00  0.51558105E+00  0.63494753E+00
  0.96129958E+00  0.99906488E+00  0.23693043E+00
  0.29752523E-01  0.50485758E+00  0.87429786E+00
  0.49883079E+00  0.18312994E-01  0.35998762E+00
  0.21003297E+00  0.23350964E-02  0.36895236E+00
  0.50551682E+00  0.46075460E+00  0.87043328E+00
  0.75239067E+00  0.51349402E+00  0.63015278E+00
  0.21843280E-01  0.47696146E+00  0.13257999E+00
  0.23362092E+00  0.25733172E+00  0.62646940E+00
  0.48775561E+00  0.72214181E+00  0.24179962E+00
  0.24356422E+00  0.23551356E+00  0.51626949E+00
  0.49565838E+00  0.71168946E+00  0.51832955E+00
  0.99519635E+00  0.98652902E+00  0.10667590E+00
  0.27523399E+00  0.23631473E+00  0.38022926E+00
  0.76287401E+00  0.99338145E+00  0.63033829E+00
  0.16625000E-01  0.49044175E+00  0.38027168E+00
  0.48166366E+00  0.93746022E-01  0.73015140E+00
  0.95906467E+00  0.69626306E+00  0.39957877E-02
  0.76163507E+00  0.27663490E+00  0.48785046E+00
  0.48754323E+00  0.19601106E-01  0.99322999E+00
  0.94175711E+00  0.23419650E+00  0.25651693E+00
  0.95597598E-02  0.81356238E-02  0.75452907E+00
  0.48343562E+00  0.97452177E+00  0.25331430E+00
  0.99397797E+00  0.98356428E+00  0.40719291E+00
  0.45894092E+00  0.61544383E+00  0.96304980E+00
  0.50889194E+00  0.28969199E-02  0.63850917E+00
  0.98690100E+00  0.51187063E+00  0.25268908E+00
  0.11503355E+00  0.87549024E-01  0.90227520E+00
  0.72837695E+00  0.79144992E+00  0.34363462E+00
  0.76155879E+00  0.77285994E+00  0.50238166E+00
  0.25607393E+00  0.28138462E+00  0.16268014E-01
  0.80050314E+00  0.99422946E+00  0.86819831E+00
  0.70170100E+00  0.22554825E+00  0.23960854E+00
  0.87725154E-02  0.49297523E+00  0.74437884E+00
  0.47834941E+00  0.89948982E+00  0.11863191E+00
  0.52207323E+00  0.26048447E+00  0.46511737E+00
  0.69028598E+00  0.70010747E+00  0.10244877E-01
  0.75571646E+00  0.26624712E+00  0.61724192E+00
  0.27898233E+00  0.77179317E+00  0.99295690E+00
  0.75955853E+00  0.82818407E+00  0.11431266E+00
  0.48622450E+00  0.48579842E+00  0.50967045E+00
  0.25614939E+00  0.56316109E+00  0.87446313E+00
  0.42902687E+00  0.23689967E+00  0.24753489E+00
  0.70913544E+00  0.26351940E+00  0.73677784E+00
  0.90856586E-02  0.54602073E+00  0.52554399E+00
  0.72196072E+00  0.18463433E+00  0.11540054E-01
  0.52195849E+00  0.11904878E-01  0.49606605E+00
  0.76158410E+00  0.26839621E+00  0.36793417E+00
  0.74140636E+00  0.48815491E+00  0.87464158E+00
  0.51249308E+00  0.48957353E+00  0.12690165E+00
  0.99011927E+00  0.25848633E+00  0.73040968E+00
  0.76390744E+00  0.73221481E+00  0.22268025E+00
  0.30129329E+00  0.24728689E+00  0.74767747E+00
  0.26768219E+00  0.80360581E-01  0.11578995E+00
  0.34459560E-01  0.78173117E+00  0.74970772E+00
  0.49727252E+00  0.30525710E+00  0.11840818E-02
  0.68216081E+00  0.74743743E+00  0.62782768E+00
  0.78905514E+00  0.75690625E+00  0.87064816E+00
  0.26164611E+00  0.75813625E+00  0.38399861E+00
  0.30136213E+00  0.91575724E+00  0.86442022E+00
  0.70896879E+00  0.56094995E+00  0.37680855E+00
  0.25884361E+00  0.45102110E+00  0.14161956E+00
  0.49886923E+00  0.49099848E+00  0.62445133E+00
  0.97970121E+00  0.47121855E+00  0.99768924E+00
  0.21864010E+00  0.73013770E+00  0.24023789E+00
  0.77622288E+00  0.74830703E+00  0.74450378E+00
  0.96688463E+00  0.23404048E+00  0.13130655E-01
  0.24462440E+00  0.17946942E-02  0.62656717E+00
  0.75226580E+00  0.50275738E+00  0.12696930E+00
  0.26997608E+00  0.27109328E+00  0.87760255E+00
  0.29051981E+00  0.50174290E+00  0.38045216E+00
  0.22345126E+00  0.98696089E+00  0.24006294E+00
  0.75479856E+00  0.51741342E+00  0.75331267E+00
  0.27704229E+00  0.99322045E+00  0.76117605E+00
  0.73374820E+00  0.48634109E+00  0.24959882E+00
  0.23701468E+00  0.29592951E-01  0.99225747E+00
  0.75584845E+00  0.51096240E+00  0.49899736E+00
  0.25244956E+00  0.97710450E+00  0.49497365E+00
  0.72188254E+00  0.43527775E+00  0.99869116E+00
  0.76506228E+00  0.69082372E-02  0.75336360E+00
  0.24511890E+00  0.49238423E+00  0.26120106E+00
  0.25363358E+00  0.49460830E+00  0.74560654E+00
  0.71797609E+00  0.97052180E+00  0.23300973E+00
  0.23973381E+00  0.50390393E+00  0.49377101E+00
  0.74357611E+00  0.95047466E+00  0.27502254E-03
  0.76960260E+00  0.22316691E-01  0.50936523E+00
  0.24138288E+00  0.54416118E+00  0.75273442E-02
  0.51480910E-02  0.22053285E+00  0.37513657E+00
  0.52880377E+00  0.74718650E+00  0.87422487E+00
  0.50031220E+00  0.23262664E+00  0.61089424E+00
  0.99078958E+00  0.74056877E+00  0.12917556E+00
  0.99604422E+00  0.25316105E+00  0.87107794E+00
  0.50189459E+00  0.74029812E+00  0.37053766E+00
  0.55654403E-02  0.77010680E+00  0.63391508E+00
  0.47874302E+00  0.21395017E+00  0.12780382E+00
  0.14864296E+00  0.43327648E+00  0.50592392E-01
  0.65730149E+00  0.93741180E+00  0.55007628E+00
  0.66203880E+00  0.48845973E-01  0.94049386E+00
  0.14506026E+00  0.59230054E+00  0.44340107E+00
  0.34136245E+00  0.45334421E+00  0.95353061E+00
  0.86048442E+00  0.92110067E+00  0.46008143E+00
  0.83075487E+00  0.50476298E-01  0.53143125E-01
  0.34341551E+00  0.60435658E+00  0.54511402E+00
  0.81293754E+00  0.96034196E-01  0.19305190E+00
  0.35529387E+00  0.58436737E+00  0.69225909E+00
  0.82159560E+00  0.90062025E+00  0.28919146E+00
  0.34786567E+00  0.39967812E+00  0.80344352E+00
  0.17266439E+00  0.59600544E+00  0.31227204E+00
  0.66464886E+00  0.10036755E+00  0.79832645E+00
  0.14154857E+00  0.41343857E+00  0.21541714E+00
  0.65419270E+00  0.90813341E+00  0.70376067E+00
  0.82545535E+00  0.55124740E+00  0.95726091E+00
  0.35460966E+00  0.62185843E-01  0.43855836E+00
  0.86019673E+00  0.42220113E+00  0.54891786E+00
  0.31018799E+00  0.92557212E+00  0.47260635E-01
  0.13419771E+00  0.85905725E-01  0.53805464E+00
  0.59561935E+00  0.51560195E+00  0.37933915E-01
  0.16118244E+00  0.92119330E+00  0.94353326E+00
  0.64649511E+00  0.43976749E+00  0.44512043E+00