Na88 Sn16 P8 Se96                       
   1.00000000000000     
    14.0793397336999995    0.0000000000000000    0.0000000000000000
     0.0000000000000000   14.0793397336999995    0.0000000000000000
     0.0000000000000000    0.0000000000000000   28.1586794673000007
   Na   Sn   P    Se
    88    16     8    96
Direct
  0.9892253756826075  0.0175184068922400  0.1264075526189632
  0.5039417442298076  0.5714564323843815  0.6267256492404752
  0.4957164828206089  0.4879579680965629  0.8466070687295950
  0.9798154345810249  0.0056825616150411  0.3881794058754591
  0.4403662151450018  0.9655968519500824  0.8724137378185772
  0.9972997431337828  0.5085070779572621  0.3715633581918341
  0.9900697669489882  0.4981849046034874  0.1154472328562991
  0.2307691872942411  0.2480231599134330  0.1217032474296691
  0.7401462494348999  0.0092035023385430  0.6315024802136912
  0.7402128268331932  0.2414585732052555  0.8645094271959112
  0.7258413508219701  0.7252007892992285  0.3634333720898503
  0.2404880289614049  0.2237185368561855  0.9954490075381860
  0.7636798859614546  0.2654882354222570  0.1126292723143809
  0.2637386248877849  0.7572314195438793  0.7412183964003835
  0.2306584328477415  0.0003208743928143  0.8775587482376623
  0.4747081156337520  0.4673689051102669  0.3624030461584106
  0.0926331690035464  0.9779968374882200  0.6208015581732825
  0.0141904258621112  0.4788460891039616  0.6174995451755421
  0.5188661817668679  0.9866436794917870  0.1274131944236763
  0.9738505874128478  0.4953220061710124  0.8662416572624591
  0.5235281096065475  0.0388246504491031  0.3791314162219882
  0.3116983759804687  0.2486644218304853  0.3674879881038030
  0.7649857900725424  0.7432506436510481  0.8702172181926583
  0.7637439664550983  0.2904697320529346  0.6160219706223767
  0.2396757621297049  0.7228212431215711  0.2446273750712794
  0.2560009261839140  0.2198365272150883  0.6229247986529086
  0.7358796806833749  0.7842637552936761  0.0179699881352475
  0.7282129096664693  0.2429783365395725  0.3793260902067269
  0.4833674983347516  0.7624078616965793  0.5171674352596504
  0.5109874521156211  0.4988207763422652  0.9936593016982554
  0.9926589334400415  0.6409417060922974  0.5014275539366380
  0.5226105963534340  0.7454685531051471  0.7502541631327235
  0.9894651057039024  0.7307993501108078  0.2633672009980847
  0.9666858421522069  0.2600898993232008  0.7506043779778463
  0.0177555329139322  0.0073108833611142  0.9915866277941803
  0.4829863643678369  0.2532554247403258  0.4967026383821405
  0.4826849675593354  0.7440645868320175  0.0024479597463890
  0.3833634866580296  0.2088154434292449  0.2285943144698412
  0.0021914180639844  0.7548721282202465  0.7491543398549849
  0.4821680362275292  0.7104034104410311  0.2434273634180610
  0.0366108085884803  0.0442749943197341  0.2577727128347047
  0.5085802621044713  0.4370769845658350  0.7424337268759247
  0.4868795787392396  0.0119665876875017  0.7507100586434013
  0.9802162896500048  0.4452237373950550  0.2412090158974634
  0.4768655558846784  0.2266225330449759  0.9908582366204038
  0.7285910907359914  0.7467254188240563  0.4996321788366150
  0.2637464544900959  0.7788408143817392  0.4879634675606641
  0.7613980538056453  0.2579742610209610  0.9775211865765607
  0.9806216783652908  0.9840862625499988  0.7506734832255113
  0.4878451940170614  0.4332230263693129  0.2370456032337331
  0.0382673278163046  0.5175751392005065  0.7330962426819272
  0.5291391704937718  0.9791886902669299  0.2608841773039912
  0.2396882461099672  0.2703695552594972  0.4979804274824464
  0.9973067315318911  0.7892908381109038  0.0056244221391568
  0.7289585299565120  0.2541424134216762  0.5084622897609209
  0.2498838570823827  0.7207431456513813  0.0198020829404363
  0.0065663454515978  0.2718342984396234  0.0007414606788359
  0.4947353743771836  0.5138764199244757  0.5110169287189281
  0.5140176118724685  0.4669719587487489  0.1149284240935289
  0.9931327239342380  0.9956217372665216  0.5170961125117578
  0.5067150877185336  0.9858279679797948  0.0110289762340435
  0.9975760526902232  0.2835751341529125  0.4918504735245574
  0.0046733701578704  0.5314837034301687  0.9969349899914905
  0.4990591016452167  0.9796891649776308  0.4921144588983228
  0.1316962379500407  0.2685211217269000  0.2777462119956974
  0.7556658510605445  0.7791119991718993  0.6692897121884833
  0.2378807374758640  0.7651687989084686  0.3642076079227978
  0.2325574991737579  0.2377870750169907  0.7559966727850275
  0.7663389082020126  0.7387478112590566  0.1815973577802392
  0.6590420891355854  0.2122646269272956  0.7373824888142713
  0.7628598127441917  0.2418717856159707  0.2487127360110024
  0.2611466540565204  0.7362554154089332  0.8676361733503074
  0.2190671396857969  0.5864030424994202  0.1271684043525891
  0.4797609280572032  0.0197952237013959  0.6243071323636288
  0.7365576681799814  0.9914842987771597  0.8790715491152862
  0.2359805747392475  0.5158980863479572  0.3770456102525794
  0.2563898860506117  0.4809752158397526  0.8848106593600429
  0.7474009343516299  0.9668736252209775  0.3885651129047398
  0.7625063066538910  0.9946378962770758  0.1357589065094519
  0.2792397431371890  0.5082428539162813  0.6189123134876499
  0.7590248165170903  0.5042279108878862  0.8605937562925047
  0.2621293260252000  0.9864271930587915  0.3788865987796429
  0.7595652725988805  0.5357157392332104  0.6102213605806175
  0.2648443485548038  0.9972272106342838  0.1345650959597946
  0.2439005221479943  0.7581359171200976  0.6061355427197761
  0.7540504464878094  0.5160776490164524  0.1228867627728698
  0.2585175995121237  0.2387326427731559  0.8758565850235227
  0.7323098858202037  0.4813892572806578  0.3650954347211507
  0.2828373891401685  0.9819364964179016  0.2521059574227385
  0.7748665598488355  0.5008870328651065  0.7367734604884636
  0.2332616321802114  0.9945537830981841  0.7486024711610454
  0.7218546940489927  0.4868709036833671  0.2510995896876962
  0.2526388566415112  0.9718474766093352  0.0040079733133256
  0.7426162622797388  0.4928998601203963  0.4933050077625343
  0.2444303073565103  0.0235493964337849  0.5038939916895828
  0.7614901489027095  0.5231338720248214  0.9938694468087341
  0.7495785522555354  0.9998024810195267  0.7586856714353649
  0.2487727248829028  0.4917980313067959  0.2448046851599167
  0.2722184528769166  0.4998717392280426  0.7608147904325570
  0.7794636371900724  0.9835771641806912  0.2596150750006509
  0.2320966550784936  0.5276648748765316  0.4933495763752100
  0.7619314529721884  0.0087784208160498  0.0075582310214998
  0.7517686914715321  0.0020635050726371  0.5106106088801877
  0.2634205476102177  0.4714336835694196  0.9970586841111584
  0.0121179146693430  0.2455936537545095  0.3738861728919164
  0.5139415564588250  0.7247439947286604  0.8807471415705863
  0.5172995568968499  0.2908415703293890  0.6180210772282086
  0.0012897555691230  0.7523218431927036  0.1299400137908294
  0.9981369606328782  0.2261624260753344  0.8673381804708697
  0.4780007982938851  0.7500977754387572  0.3635861063285815
  0.0160939372739757  0.7576925720918188  0.6217508105044125
  0.5030050591143166  0.2283859926364316  0.1209045881647170
  0.1507000227624561  0.3819407225235051  0.0497922830310378
  0.6362426260135225  0.9060915096874766  0.5615419631472756
  0.6309228779363794  0.0908813756929243  0.9565272093126215
  0.1350308060184365  0.6233938987343515  0.4365477974477035
  0.3592811222287023  0.3652803313781037  0.9423002487871196
  0.8418841844380667  0.8919397430735790  0.4595492950886493
  0.8528812901273721  0.1428354177817696  0.0480842513523848
  0.3415740851956209  0.6406228608195393  0.5451047194414395
  0.8793850462984467  0.0898953102607986  0.2010755634197008
  0.3886626568933286  0.6003893526802720  0.7132272443155647
  0.8739516398994489  0.8811917563154240  0.3156160872836135
  0.3522159738014275  0.3736938417220133  0.8128168621120468
  0.1125070791160604  0.5899297347851751  0.2960959248214889
  0.6333605288927170  0.0848741560542417  0.8104712964038866
  0.1559428947554203  0.4137018867255792  0.1802516986673296
  0.6368954869734724  0.9134209577971460  0.6991684992674181
  0.8542381251533777  0.6329890908069502  0.9451304935897790
  0.3454106966455651  0.1231060700057018  0.4498754077654378
  0.8457846382951406  0.4013066873373586  0.5497417461113716
  0.3537609610957358  0.8797238800224305  0.0583691624771787
  0.1340592908953791  0.1392402245526352  0.5515990597890728
  0.6574658870292738  0.6086656379873044  0.0513144490324901
  0.1478009402279086  0.8763320665877358  0.9481742003955055
  0.6405469973493225  0.3729581865437098  0.4516468909431620
  0.6237927609727885  0.3729219647274886  0.3046163258044737
  0.1432604895264711  0.8682962554647300  0.7941572686233564
  0.1148316220554449  0.0972652580568131  0.7006402711880215
  0.6208689128443540  0.5859266230909139  0.1942778086624739
  0.8934767612032319  0.4117614316151000  0.6816292943337393
  0.3759067659118555  0.8780714858877795  0.1971249300183743
  0.3816189033456622  0.0773976152809405  0.3078216923047675
  0.8801174575142310  0.5949990912798246  0.7940985664549692
  0.1525662596936020  0.0778717095296771  0.0618172971201105
  0.6409789600523336  0.6122427391801356  0.5523164384802782
  0.6539507144952698  0.4283298874718682  0.9416607159160938
  0.1475377293376837  0.9214207341179800  0.4449933962287985
  0.3433763559232933  0.0818449446170892  0.9488047592725496
  0.8328536589209201  0.6099837992378643  0.4453506921163171
  0.8690947469307326  0.4146679256284783  0.0473839571059567
  0.3600981621908771  0.9274612170289303  0.5537838069573271
  0.1967000599357073  0.1184668029358926  0.2047641799676450
  0.6576221469641497  0.6146567719092288  0.6972037535689255
  0.1624025237180839  0.8874207397313100  0.2995223157522651
  0.6773017685745059  0.3814694612596438  0.7838902516096031
  0.8344848146441416  0.5835246815493826  0.3031048686658842
  0.3424087092412222  0.0864420095182073  0.8044456513961693
  0.8249654113290126  0.3850073761188961  0.1919651389095979
  0.3516314648910995  0.9001080241723071  0.6827698994392617
  0.8526794277267982  0.9092287736455387  0.9414055939312679
  0.3620008516888662  0.4256698007785676  0.4465117751039546
  0.8608552213729976  0.1246196440666436  0.5551886616655392
  0.3624837137081538  0.5617397140136112  0.0536910688157181
  0.1216788128619010  0.4381348320926871  0.5388865337869918
  0.6524640593744363  0.9139051353557147  0.0688049525789086
  0.1817440678504681  0.5984137839078102  0.9495760774986717
  0.6455938607991107  0.1012953567708225  0.4527532067499643
  0.3274757964689099  0.3707435028241590  0.2977833121123510
  0.8644804726461381  0.8902613126417833  0.8100239369211988
  0.8243944200766730  0.1239991077849520  0.7082709946365593
  0.3543214090170812  0.6057195618787450  0.1943532006724477
  0.1914048970065176  0.4060672355033043  0.6913260370844153
  0.6590771654547622  0.8923007821323876  0.2033906218963395
  0.6691927911973364  0.0894521438467440  0.3068850098571538
  0.1617357390709258  0.6016321238728878  0.8107582981369305
  0.0871878816538239  0.1329883593499661  0.3372548554059885
  0.6139414604243069  0.6476744720639901  0.8354652582499804
  0.6192520140824452  0.3985464556060639  0.6467341925860213
  0.0892088698555888  0.8353351834729892  0.1785565735282411
  0.4407046201535281  0.2170005454324130  0.6753445262394858
  0.9184241762403526  0.6427696395318857  0.1732780169096741
  0.9500864988314036  0.3308877844034158  0.3203499711581981
  0.4315239851394763  0.8127494022473523  0.8265710274366198
  0.0754894540900458  0.1493627373147094  0.9267185392962902
  0.5576152378310855  0.6432367434484061  0.4017555236638021
  0.0847440803769792  0.8200511218808946  0.5558064843621155
  0.5918000293032152  0.3101068299992115  0.0702987180375540
  0.9102911063632987  0.6625697329427575  0.5913403048483890
  0.4199853991241613  0.1246410342637335  0.0795625337306442
  0.8914327452779067  0.3220543497168454  0.9061214151964554
  0.3995142215711785  0.8436424894803991  0.4189349569157574
  0.9410690812302387  0.8708789170323854  0.6594613834222952
  0.4053583738849914  0.3366888842156556  0.1548185771756332
  0.9100625813793219  0.1280876100511161  0.8297260369144871
  0.3755179926833929  0.6611700638805114  0.3184230156921500
  0.1059800135073871  0.3193702445726617  0.8227249109046537
  0.5695474149245850  0.8491738078043936  0.3285743044706656
  0.1080110698682113  0.6802994502144964  0.6709552509457194
  0.5912582627132689  0.1481936058255477  0.1707926935195716
  0.4045477408674948  0.3684351141158279  0.5772196336079649
  0.8982773981852439  0.8368158534166735  0.0873594269391060
  0.9034363941957502  0.1792118996781981  0.4215081184962011
  0.4112514829937008  0.6439934022913580  0.9219378271706136
  0.1282835498075365  0.3315973290692500  0.4113247628087597
  0.5889976338594914  0.8300315863952058  0.9253362518693182
  0.5796439156964721  0.1798297636632654  0.5685122352982701
  0.0714226606303018  0.6622593579585709  0.0676386532679507
 
 -0.15391268E-02 -0.46050636E-02 -0.46014849E-02
  0.39493714E-02 -0.41844312E-02 -0.62964245E-03
 -0.27862712E-02  0.38170801E-02 -0.75685890E-02
 -0.43283222E-02  0.25976766E-02 -0.38964838E-02
  0.10697571E-02  0.30200279E-04  0.23070287E-02
 -0.17168568E-02 -0.95797551E-02  0.74621284E-03
  0.27572734E-02  0.38220160E-03 -0.53547961E-02
  0.23802184E-03 -0.58371462E-03 -0.80563149E-02
 -0.41867715E-03 -0.28877601E-02  0.21028022E-02
 -0.17774009E-02 -0.35013647E-02 -0.65495126E-03
 -0.28615691E-02  0.96436871E-03  0.18131704E-02
 -0.35757789E-02 -0.29344257E-02  0.41823922E-03
  0.26169330E-02  0.22676241E-02 -0.60659618E-02
  0.11254441E-02 -0.38934802E-02 -0.19673534E-02
  0.75961547E-03 -0.13805625E-01 -0.31729604E-02
 -0.35006137E-02 -0.65641379E-02 -0.27357691E-02
  0.60752581E-02 -0.59604723E-02 -0.10329170E-02
  0.18403049E-02  0.26224789E-02  0.15820488E-02
 -0.46117174E-03  0.15176747E-02 -0.18664921E-02
 -0.34197940E-02  0.11854035E-02  0.40046152E-02
 -0.86595855E-03 -0.91976796E-03 -0.16844575E-02
 -0.46446570E-02  0.28799758E-03 -0.45044163E-02
  0.37695798E-02  0.24382036E-02 -0.23860508E-02
  0.11091894E-02  0.63097792E-02  0.45654058E-02
  0.42586410E-02  0.23917152E-02  0.12000179E-02
 -0.11053659E-01  0.63434873E-02 -0.64520704E-02
 -0.82627320E-02 -0.31457026E-02 -0.11840173E-02
  0.37963381E-03  0.14331078E-02 -0.20128729E-02
  0.33378720E-02  0.49465301E-04 -0.72946083E-03
  0.10132054E-02 -0.71307898E-04 -0.11297050E-02
 -0.12969444E-01  0.37545342E-02  0.32027764E-02
  0.51456202E-02 -0.24222360E-02 -0.22365243E-04
  0.26475489E-02  0.53331480E-02  0.87368956E-03
  0.43566878E-02  0.22084005E-02 -0.39536045E-02
 -0.27526333E-02  0.34876277E-02 -0.25716129E-02
  0.85211673E-03 -0.57752758E-02  0.47839062E-02
 -0.68174530E-02  0.74934662E-03 -0.49459247E-02
 -0.21900021E-02  0.12969089E-02  0.98613229E-02
  0.19213671E-02  0.29638751E-02  0.45539084E-03
  0.47517922E-03 -0.71596491E-02  0.88360749E-02
 -0.91447705E-03 -0.14544302E-02 -0.47828664E-02
  0.24897409E-02  0.24540416E-02  0.21686336E-02
  0.44359897E-02  0.21809055E-02  0.34258158E-02
 -0.68338810E-02  0.31754576E-02 -0.17829375E-02
 -0.28498354E-02  0.74258085E-02 -0.18934558E-02
 -0.20640889E-02 -0.69736032E-03 -0.13365188E-02
  0.24397300E-03  0.98681097E-02 -0.70300543E-02
  0.33207812E-02  0.29763466E-02  0.14583323E-02
  0.22660780E-02  0.19369784E-02  0.21511999E-02
  0.57021017E-02 -0.60631909E-02 -0.28204415E-02
  0.12997807E-02  0.59135747E-02  0.21648007E-02
 -0.30462252E-02  0.37906659E-03  0.23652148E-02
 -0.42830078E-02 -0.39624832E-02 -0.86694400E-02
 -0.27513154E-02 -0.47323675E-03 -0.13596074E-02
  0.45127881E-02 -0.24835910E-02 -0.48879586E-02
  0.24803119E-03 -0.22927978E-02  0.14113137E-02
  0.15154540E-02 -0.37460973E-02 -0.65105951E-03
 -0.85645532E-02 -0.14998120E-02 -0.66364581E-02
 -0.29538129E-02 -0.33411856E-02  0.23029069E-02
 -0.58606661E-02  0.34894241E-02 -0.39408976E-02
 -0.25024952E-02 -0.12049221E-01  0.46554629E-03
  0.19496850E-02 -0.35440628E-02 -0.27938229E-02
  0.10435187E-02 -0.50470785E-02  0.79519639E-02
 -0.57582159E-02 -0.51787704E-02 -0.59167252E-02
  0.32404590E-03 -0.42684660E-02  0.71708128E-03
 -0.13612420E-02 -0.24603054E-02  0.53012220E-02
  0.97034919E-03  0.49690654E-03 -0.66121769E-03
 -0.46638873E-03  0.55604854E-03  0.13525584E-02
  0.68299857E-03 -0.56050343E-02  0.22527493E-02
 -0.15850382E-02  0.33216526E-02 -0.17263500E-02
 -0.40288557E-02  0.26057897E-02  0.55707238E-03
  0.40593750E-02  0.55428226E-02 -0.26521916E-02
  0.13908582E-02  0.37207171E-02  0.50011289E-02
  0.52349762E-02 -0.12207925E-01  0.60693497E-02
 -0.30579983E-02  0.80933912E-03  0.21904825E-06
 -0.65592579E-03 -0.91056009E-03  0.46579827E-02
  0.68631573E-02 -0.58190914E-02  0.67595758E-03
 -0.50383471E-02 -0.46838280E-02 -0.58434226E-02
 -0.13252677E-02  0.38529172E-02  0.33487457E-02
  0.18586217E-02 -0.30834686E-02  0.12333916E-02
 -0.13758038E-02 -0.19591123E-02 -0.11724420E-01
 -0.35737187E-02  0.77220119E-02 -0.47562924E-02
 -0.28325582E-02  0.28211099E-02  0.17823908E-02
  0.32146758E-03 -0.23345995E-02  0.28777029E-02
  0.88055296E-03  0.56777425E-02 -0.31098532E-03
  0.12182830E-02  0.15156331E-02 -0.10647421E-02
  0.59528454E-02 -0.31387085E-02  0.42011230E-02
  0.25198143E-03  0.46306261E-03  0.63641633E-02
  0.13638883E-02 -0.17791329E-02 -0.90139077E-04
  0.30491894E-03  0.93744801E-04  0.31265785E-02
 -0.11058452E-02 -0.17296022E-02 -0.14503208E-02
  0.28969731E-03  0.27938001E-02  0.13161144E-02
 -0.42954822E-03  0.13092396E-02 -0.91678114E-03
  0.23787339E-02  0.11832896E-03  0.10312555E-02
  0.48378455E-03  0.44199679E-02 -0.23173904E-03
  0.18228833E-03 -0.13230967E-03  0.19426143E-02
  0.12304861E-02  0.21937837E-03 -0.33800573E-02
  0.23124227E-02 -0.21393461E-02 -0.85979481E-03
  0.32667313E-02 -0.25485509E-02 -0.13607944E-02
  0.39151658E-03 -0.43009232E-03 -0.10880633E-02
 -0.52086280E-03  0.93151161E-03  0.46670111E-03
 -0.65133980E-04 -0.11654693E-02 -0.40494539E-03
  0.13080337E-02  0.34284915E-03  0.56054906E-03
 -0.18971550E-02  0.22015411E-03 -0.10511424E-03
  0.17067843E-02 -0.22286544E-02 -0.84712447E-03
  0.16387745E-03  0.38259919E-02 -0.46953677E-02
  0.91343473E-03 -0.42174578E-02  0.41825939E-02
 -0.33823413E-02  0.18756231E-02 -0.47136965E-02
 -0.16831106E-02 -0.45463962E-02 -0.34868113E-02
 -0.33686291E-02 -0.12235176E-02  0.20874201E-02
 -0.48938717E-03  0.72626854E-02 -0.23773006E-02
 -0.25734964E-02  0.26714740E-02 -0.22698401E-02
  0.25315589E-02  0.87254780E-03 -0.29228816E-02
  0.29256171E-02  0.36738694E-03 -0.31392940E-02
  0.14935150E-02 -0.81051868E-03 -0.16639752E-02
 -0.39002871E-02  0.18414505E-02  0.28001503E-03
  0.26111286E-02  0.20162628E-02 -0.29681906E-02
  0.62248648E-03 -0.54443339E-03  0.23597436E-02
 -0.41479429E-02  0.34889114E-02  0.11512802E-02
 -0.15649760E-02 -0.13629255E-02 -0.78578174E-03
  0.89591960E-03 -0.12520551E-02  0.38954413E-03
 -0.87395776E-05  0.13095760E-02 -0.10588978E-02
 -0.16958021E-02  0.39228555E-02  0.45069703E-02
  0.17559145E-02  0.29736320E-02 -0.81114453E-03
 -0.46154091E-03  0.31631020E-03  0.25800378E-02
 -0.25499485E-02  0.85835607E-03  0.36310959E-02
 -0.73772453E-03 -0.44966096E-02  0.26711269E-02
 -0.10730005E-02  0.31220460E-02 -0.93188229E-03
 -0.43746560E-02 -0.31872381E-03 -0.39565522E-02
  0.65839700E-03 -0.19204039E-02  0.17798397E-02
 -0.26234263E-02 -0.12807693E-02  0.41488379E-02
  0.10476898E-02 -0.42703589E-02  0.12400874E-02
  0.33049856E-03 -0.75991944E-03  0.10030517E-02
 -0.92186049E-03 -0.15459050E-02  0.28154205E-02
 -0.31972383E-02 -0.80200889E-03 -0.49994981E-03
  0.27313834E-02  0.59180097E-03 -0.22156387E-02
 -0.55368831E-03  0.19106410E-02 -0.64609038E-03
  0.32610077E-03 -0.19618159E-02  0.28379364E-02
 -0.18783992E-02  0.21658124E-02  0.19506426E-02
  0.58517485E-02 -0.19661552E-02  0.24548384E-02
  0.20348100E-02  0.38479731E-03 -0.17064255E-03
  0.72923424E-03 -0.32622589E-02  0.14015887E-02
  0.14284340E-03  0.16941709E-03 -0.15646075E-02
  0.34407599E-03  0.29816796E-03 -0.41989206E-03
  0.91596392E-03  0.29137841E-02  0.38069002E-02
  0.30962361E-02  0.25108648E-02 -0.18427368E-02
 -0.34345419E-02 -0.28199092E-02  0.23860201E-02
  0.40598122E-04  0.15985042E-02 -0.27934738E-02
  0.33659079E-02  0.25951283E-02  0.15355670E-02
  0.27133640E-03 -0.58804601E-03 -0.20707753E-02
  0.53254383E-03 -0.13470700E-02 -0.20860565E-03
  0.49765033E-03  0.28515389E-02 -0.13192855E-02
 -0.80581410E-03  0.12114763E-02 -0.89935124E-03
  0.34831747E-02 -0.92437329E-03 -0.11266116E-02
 -0.24424220E-02 -0.26694176E-03 -0.27883954E-02
  0.50698530E-02 -0.33122683E-03 -0.20421406E-02
  0.12956983E-02  0.22387423E-02  0.21338773E-02
 -0.23675271E-02  0.18933202E-02 -0.13158265E-02
  0.89648833E-03 -0.44419864E-02  0.57512484E-03
  0.54249768E-03  0.12350272E-02  0.29240803E-02
  0.41175150E-03  0.95086013E-03  0.16746853E-03
 -0.19701350E-02  0.64204976E-03  0.22388429E-02
 -0.22014011E-02  0.28939259E-02  0.42267995E-03
 -0.74241549E-03  0.22908944E-03  0.48276197E-03
 -0.17065260E-03  0.20375529E-02 -0.14224873E-02
 -0.31418540E-02 -0.25552783E-02  0.71377426E-03
  0.10135357E-02 -0.20636628E-02  0.30395638E-02
  0.37782195E-02 -0.87644625E-03  0.42915307E-02
  0.41220028E-02 -0.60687554E-02 -0.12519686E-02
 -0.23002569E-02  0.68510912E-04  0.12262121E-02
 -0.36910518E-02 -0.50548960E-03 -0.42637276E-02
 -0.40467634E-03 -0.52992434E-02 -0.47947484E-02
 -0.15139315E-02  0.19595172E-02  0.32327669E-02
 -0.36887323E-03 -0.30217128E-02  0.16212226E-02
 -0.52368941E-02  0.96046136E-03 -0.17789291E-02
  0.42500312E-02  0.22013872E-02  0.98848305E-03
  0.84860739E-04 -0.15330770E-02 -0.33016826E-02
 -0.23389002E-02 -0.42293400E-03  0.17053321E-03
 -0.21710667E-02 -0.48607688E-03  0.50256381E-02
 -0.25382352E-02 -0.30810443E-02 -0.81463898E-03
 -0.71849359E-03  0.62967395E-03 -0.28023730E-03
 -0.13968494E-02 -0.19313779E-02 -0.18674804E-03
 -0.69271391E-02  0.31647035E-02  0.97723994E-03
  0.85015519E-03  0.52447316E-03 -0.15410546E-02
  0.34335259E-02  0.46839621E-03  0.16249469E-03
 -0.32189553E-04 -0.26441779E-03  0.40460331E-03
 -0.25057267E-02  0.56921887E-02  0.41242685E-03
  0.26295818E-02  0.87240686E-03  0.28085784E-02
 -0.27508361E-02  0.24896529E-02 -0.11851758E-02
 -0.10918897E-02 -0.12874326E-02  0.75228274E-03
  0.18735082E-02  0.10061764E-02  0.10392167E-02
  0.24419325E-02  0.60081583E-03  0.22917537E-02
 -0.11630885E-02  0.38058724E-02 -0.84882848E-03
  0.22754211E-02 -0.30038206E-02  0.51227155E-02
  0.14790617E-02 -0.74570322E-03 -0.21400837E-02
  0.32165461E-02  0.47755651E-03 -0.34231455E-03
  0.18079898E-02 -0.14462828E-02 -0.13784825E-02
  0.75056520E-03  0.51087149E-03  0.40496449E-02
 -0.13939636E-03  0.13170782E-02 -0.22131857E-02
 -0.12781802E-02  0.93928953E-03 -0.14902389E-03
 -0.77676951E-03  0.10642628E-02  0.23564803E-02
  0.20437390E-02 -0.13449833E-02 -0.45070622E-02
 -0.18885394E-02 -0.17470891E-02 -0.38575209E-02
  0.29562707E-02 -0.12562762E-02  0.59871640E-04
  0.19101023E-02  0.16505662E-02  0.15476251E-02
 -0.17653716E-02  0.51582657E-03  0.38860509E-03
  0.16781142E-02 -0.19630438E-02  0.17872552E-03
  0.96647471E-03  0.52255320E-02 -0.75207194E-03
 
           1
   2.00000000000000     
  0.70266513E+00  0.12386971E-02  0.00000000E+00  0.00000000E+00
  0.98900674E+00  0.16864248E-01  0.12608073E+00
  0.50450276E+00  0.57086203E+00  0.62668093E+00
  0.49532069E+00  0.48850019E+00  0.84606950E+00
  0.97920059E+00  0.60515671E-02  0.38790265E+00
  0.44051818E+00  0.96560114E+00  0.87257760E+00
  0.99705586E+00  0.50714625E+00  0.37161636E+00
  0.99046144E+00  0.49823920E+00  0.11506690E+00
  0.23080300E+00  0.24794024E+00  0.12113104E+00
  0.74008678E+00  0.87932899E-02  0.63165183E+00
  0.73996034E+00  0.24096120E+00  0.86446291E+00
  0.72543486E+00  0.72533778E+00  0.36356215E+00
  0.23998008E+00  0.22330170E+00  0.99547871E+00
  0.76405163E+00  0.26581036E+00  0.11219843E+00
  0.26389850E+00  0.75667834E+00  0.74107866E+00
  0.23076634E+00  0.99835976E+00  0.87733339E+00
  0.47421085E+00  0.46643646E+00  0.36220874E+00
  0.93496172E-01  0.97715014E+00  0.62072819E+00
  0.14451845E-01  0.47921862E+00  0.61761191E+00
  0.51880067E+00  0.98685927E+00  0.12728062E+00
  0.97336480E+00  0.49549040E+00  0.86652609E+00
  0.52340510E+00  0.38693995E-01  0.37901178E+00
  0.31103859E+00  0.24870533E+00  0.36716806E+00
  0.76552127E+00  0.74359700E+00  0.87004775E+00
  0.76390153E+00  0.29136605E+00  0.61634623E+00
  0.24028071E+00  0.72316099E+00  0.24471261E+00
  0.25443073E+00  0.22073763E+00  0.62246653E+00
  0.73470594E+00  0.78381690E+00  0.17885892E-01
  0.72826684E+00  0.24318191E+00  0.37918312E+00
  0.48384165E+00  0.76241489E+00  0.51711562E+00
  0.51113138E+00  0.49881065E+00  0.99357906E+00
  0.99081660E+00  0.64147505E+00  0.50165503E+00
  0.52334154E+00  0.74512447E+00  0.75025257E+00
  0.98984120E+00  0.73155694E+00  0.26342926E+00
  0.96730472E+00  0.26040361E+00  0.75032357E+00
  0.17364516E-01  0.78063082E-02  0.99140398E+00
  0.48310741E+00  0.25243503E+00  0.49704242E+00
  0.48171653E+00  0.74417103E+00  0.20966702E-02
  0.38305239E+00  0.20899967E+00  0.22929473E+00
  0.24643523E-02  0.75529315E+00  0.74918668E+00
  0.48223554E+00  0.70938637E+00  0.24405495E+00
  0.36480905E-01  0.44068389E-01  0.25743300E+00
  0.50893394E+00  0.43742559E+00  0.74258776E+00
  0.48750972E+00  0.12276390E-01  0.75095338E+00
  0.97924552E+00  0.44567482E+00  0.24108238E+00
  0.47646073E+00  0.22767738E+00  0.99072375E+00
  0.72829788E+00  0.74662636E+00  0.49953725E+00
  0.26378111E+00  0.78024260E+00  0.48746415E+00
  0.76186978E+00  0.25839706E+00  0.97762477E+00
  0.98094358E+00  0.98436141E+00  0.75082627E+00
  0.48865519E+00  0.43236174E+00  0.23684528E+00
  0.38451964E-01  0.51841518E+00  0.73325000E+00
  0.52870645E+00  0.97924254E+00  0.26105217E+00
  0.23907984E+00  0.26980668E+00  0.49736467E+00
  0.99691590E+00  0.78922361E+00  0.55278546E-02
  0.72959958E+00  0.25378961E+00  0.50811512E+00
  0.24991909E+00  0.72041745E+00  0.19902323E-01
  0.67816189E-02  0.27130216E+00  0.69521849E-03
  0.49351876E+00  0.51366337E+00  0.51054557E+00
  0.51359802E+00  0.46649734E+00  0.11509199E+00
  0.99230020E+00  0.99611742E+00  0.51681621E+00
  0.50635960E+00  0.98411635E+00  0.11062042E-01
  0.99785301E+00  0.28307169E+00  0.49165204E+00
  0.48216042E-02  0.53076676E+00  0.99749979E+00
  0.49824113E+00  0.97895351E+00  0.49169422E+00
  0.13174227E+00  0.26791478E+00  0.27779714E+00
  0.75547248E+00  0.77876251E+00  0.66966624E+00
  0.23801858E+00  0.76523939E+00  0.36416064E+00
  0.23249125E+00  0.23786606E+00  0.75609274E+00
  0.76643593E+00  0.73795160E+00  0.18175736E+00
  0.65881693E+00  0.21273647E+00  0.73725987E+00
  0.76228751E+00  0.24224194E+00  0.24875230E+00
  0.26172330E+00  0.73704279E+00  0.86744780E+00
  0.21926471E+00  0.58693158E+00  0.12752361E+00
  0.48050457E+00  0.18061062E-01  0.62473821E+00
  0.73612327E+00  0.99159927E+00  0.87907156E+00
  0.23588740E+00  0.51576874E+00  0.37737645E+00
  0.25736481E+00  0.48014860E+00  0.88485867E+00
  0.74668523E+00  0.96620828E+00  0.38815008E+00
  0.76231805E+00  0.99518521E+00  0.13599675E+00
  0.27950376E+00  0.50780484E+00  0.61899992E+00
  0.75882938E+00  0.50394961E+00  0.85976102E+00
  0.26162167E+00  0.98752412E+00  0.37854878E+00
  0.75916290E+00  0.53611648E+00  0.61034796E+00
  0.26489001E+00  0.99689558E+00  0.13476949E+00
  0.24402561E+00  0.75894245E+00  0.60611345E+00
  0.75422351E+00  0.51629295E+00  0.12281114E+00
  0.25936321E+00  0.23828678E+00  0.87615497E+00
  0.73234568E+00  0.48145504E+00  0.36554746E+00
  0.28303113E+00  0.98168377E+00  0.25209956E+00
  0.77490987E+00  0.50090035E+00  0.73699553E+00
  0.23310454E+00  0.99430809E+00  0.74849946E+00
  0.72189585E+00  0.48726777E+00  0.25119307E+00
  0.25257784E+00  0.97203346E+00  0.39428580E-02
  0.74295417E+00  0.49291667E+00  0.49337825E+00
  0.24449903E+00  0.24177262E-01  0.50387753E+00
  0.76151604E+00  0.52311508E+00  0.99400742E+00
  0.74975335E+00  0.99983364E+00  0.75844560E+00
  0.24910121E+00  0.49149413E+00  0.24474362E+00
  0.27268250E+00  0.49950971E+00  0.76071814E+00
  0.77951925E+00  0.98351607E+00  0.25953779E+00
  0.23202267E+00  0.52779720E+00  0.49338272E+00
  0.76192220E+00  0.86128634E-02  0.75294693E-02
  0.75195450E+00  0.21122075E-02  0.51065042E+00
  0.26315105E+00  0.47146496E+00  0.99705122E+00
  0.12360367E-01  0.24527707E+00  0.37382600E+00
  0.51396484E+00  0.72528748E+00  0.88041365E+00
  0.51742931E+00  0.29024247E+00  0.61831815E+00
  0.80928683E-03  0.75258828E+00  0.12960522E+00
  0.99789787E+00  0.22551660E+00  0.86709053E+00
  0.47752228E+00  0.74992397E+00  0.36373437E+00
  0.16024419E-01  0.75872425E+00  0.62158196E+00
  0.50263949E+00  0.22876548E+00  0.12074337E+00
  0.15105964E+00  0.38206467E+00  0.49584682E-01
  0.63665822E+00  0.90614370E+00  0.56131899E+00
  0.63113503E+00  0.90766240E-01  0.95640902E+00
  0.13447676E+00  0.62365548E+00  0.43656769E+00
  0.35965204E+00  0.36556675E+00  0.94208943E+00
  0.84197261E+00  0.89186241E+00  0.45971690E+00
  0.85229207E+00  0.14333103E+00  0.48166022E-01
  0.34135178E+00  0.64042925E+00  0.54504891E+00
  0.87951231E+00  0.89717453E-01  0.20110323E+00
  0.38866142E+00  0.60057538E+00  0.71315203E+00
  0.87371075E+00  0.88174901E+00  0.31593620E+00
  0.35246541E+00  0.37411625E+00  0.81275925E+00
  0.11244152E+00  0.58997467E+00  0.29627917E+00
  0.63299830E+00  0.84996087E-01  0.81072920E+00
  0.15583810E+00  0.41306313E+00  0.18044142E+00
  0.63674306E+00  0.91386445E+00  0.69910231E+00
  0.85361670E+00  0.63294382E+00  0.94484948E+00
  0.34550422E+00  0.12283327E+00  0.45000182E+00
  0.84541198E+00  0.40112475E+00  0.55003642E+00
  0.35390979E+00  0.87911727E+00  0.58457241E-01
  0.13410624E+00  0.13913228E+00  0.55167030E+00
  0.65733493E+00  0.60844604E+00  0.51514417E-01
  0.14734677E+00  0.87621814E+00  0.94813869E+00
  0.64093500E+00  0.37304225E+00  0.45148952E+00