Na88 Sn16 P8 S96                        
   1.00000000000000     
    13.4813327813000008    0.0000000000000000    0.0000000000000000
     0.0000000000000000   13.4813327813000008    0.0000000000000000
     0.0000000000000000    0.0000000000000000   26.9626655626000016
   Na   Sn   P    S 
    88    16     8    96
Direct
  0.0135958021719342  0.0344680704615027  0.1109825012182928
  0.0327144673346533  0.5010359047908081  0.7229784888169879
  0.5024148582800347  0.5471683473161768  0.6261003235170876
  0.9707501729342649  0.9922780477098251  0.4962207297560969
  0.2511033650709210  0.9818624592790408  0.8759213013688653
  0.7424191013566538  0.7116739337287351  0.3706162321396761
  0.0244692427223644  0.4912590323483343  0.1461587588934370
  0.9865322653975911  0.7306395928786950  0.2450433550811732
  0.7010532151907831  0.0010461314401803  0.6301709227616118
  0.7846843916498656  0.2682801223130513  0.1154807814430781
  0.0099283071056588  0.9342018970199234  0.3519218268785489
  0.2483432828694076  0.2444962692535107  0.8684933248650935
  0.3192918204735635  0.0504676020781741  0.1213058033483293
  0.1736515741644342  0.7617004653283773  0.7206815781039801
  0.9627773660512891  0.9678717085722279  0.7578569609362709
  0.2509932482149057  0.2877485087534680  0.4722710462335355
  0.2217772681011013  0.9935717513420770  0.6336998299604029
  0.9980578437821694  0.7218911375379086  0.4894813237914887
  0.5591666986021581  0.0335897536033556  0.1356959172418295
  0.2391655834503803  0.4848504106348174  0.8622589027233449
  0.5276334000894620  0.7446680621136228  0.2487334498712279
  0.0271098134354947  0.4365953813838397  0.2687673497125428
  0.7695324076081548  0.5372781666171161  0.8773613480054754
  0.7428823748566306  0.2662907988343418  0.6293727738270477
  0.3605886493768936  0.7661705331522290  0.9685669415707169
  0.9910986435735591  0.4867600359150122  0.5976812324202081
  0.7615706188760167  0.5111634408980046  0.1353269076955897
  0.7222257659038845  0.2045551705375973  0.3834268779453569
  0.7448403424975848  0.7314774094745239  0.4986710027520324
  0.0245717189551169  0.2643920842572640  0.0004856648602518
  0.2503778505965925  0.5914109298023291  0.3613103440103832
  0.5124553914707526  0.0573492219120000  0.8821917009567102
  0.4764953140571702  0.4633365610102637  0.2325145039072029
  0.4513721091199527  0.2551657164921532  0.7540864546889393
  0.7966636912704542  0.9846822481274334  0.1131218846031970
  0.2631013789348408  0.4666760170981624  0.6026213845563035
  0.5207264172791279  0.2947788608033169  0.9776608356752445
  0.2441254843705985  0.2722448395816211  0.1120554798031451
  0.5246967464206848  0.5513407394456683  0.7616241036129051
  0.7674842533179881  0.7074869701098598  0.2428217599923606
  0.9672396544491300  0.0153462257897318  0.6416387214040656
  0.7500748681053625  0.7647715172610379  0.7567582685925545
  0.7513852412222981  0.8285494308289409  0.8871633544229218
  0.2157477453092918  0.3016592839503638  0.3480996206474423
  0.7168777408673250  0.2663401289001684  0.7483269999790149
  0.7301436770581485  0.7613836281580710  0.6341053342178323
  0.4651858653690494  0.7493260953755587  0.5248639071497536
  0.5444493327935980  0.5957546910787606  0.9843634096890026
  0.7574211282659368  0.0994364085963368  0.8616728103928110
  0.5277712129887795  0.0461479759028162  0.2596960850307505
  0.9767707943680796  0.5329118324105105  0.8559072162643619
  0.4825845532716900  0.5061774286303985  0.3621145035528984
  0.2259152608607445  0.2178771373504886  0.6413610282310924
  0.0328771217200231  0.7608266326689987  0.9920351107013065
  0.7262479772567075  0.2424075727421191  0.5106837797283851
  0.0213528213648983  0.0167193568327603  0.9767398658987797
  0.2604375539146437  0.2513235364925633  0.9656517089557003
  0.4820709529280165  0.2290105213713134  0.4954442926587699
  0.7624642384311239  0.2803900725996802  0.9971685760696608
  0.9645845980727018  0.2703224895035294  0.4980772384261483
  0.5186196411729532  0.0479434415734189  0.0050467993130116
  0.0182322953528599  0.5537390758006313  0.3793332918448534
  0.0290492178750171  0.5176323088520092  0.0081323453040674
  0.5246686981181932  0.9947072586901030  0.3621580276909865
  0.7598710979946991  0.2368608624365912  0.2492714553053704
  0.7594719338147246  0.7885639574331468  0.0015389567460320
  0.2460189611184418  0.7638509451468825  0.2461436583099940
  0.4619381883423063  0.0083967306091528  0.4957179141833692
  0.0549530302868023  0.0855630973865926  0.2414682103685655
  0.0373869581947389  0.2742680952386580  0.7449283059324927
  0.3153904791696174  0.2589169823226039  0.2392437892144265
  0.4571794229634217  0.0227930598408160  0.7565048938756950
  0.2635013432680824  0.7703834180990546  0.1124629420407959
  0.4881554264535733  0.9832811439713710  0.6180042360478660
  0.0070541491728091  0.9405222000199386  0.8696058017917585
  0.2668359322257527  0.8069898224724011  0.4685969688637230
  0.4989770639864345  0.4701752546073770  0.8712489361745029
  0.7481332318080456  0.9381052613510260  0.3743519041425956
  0.7242472065343208  0.7584239385902657  0.1277614720960985
  0.4649320430343474  0.4876622480724181  0.5019173745309150
  0.4754243510676872  0.7673334839954701  0.7502454635028123
  0.2589139368740989  0.9983373927590126  0.3638366356198501
  0.7434505713584070  0.5008202928117687  0.6116730938397399
  0.2472109209251901  0.5203419004171795  0.1134104093048755
  0.2548213525392142  0.7693797246975487  0.6143576629724735
  0.4993657311298341  0.5634266512011088  0.1110514184430179
  0.2245245841004483  0.7370519560115800  0.8492965807075306
  0.8335841913635116  0.3998627070156912  0.3861208129260078
  0.2953541456701712  0.0107277316825398  0.2429852792795165
  0.7742623503009726  0.5154380546697398  0.7369343968272004
  0.2220586489934386  0.0051574788046446  0.7586554643070234
  0.7354040618215432  0.4742409560716715  0.2717757151275788
  0.2673841876252531  0.9903271484244388  0.0035466570197731
  0.7170538569067793  0.4757296626986873  0.4946512772449840
  0.2181312585038091  0.0487229333262307  0.5020394041900416
  0.7678311892781471  0.5359592568423732  0.0058099648054494
  0.7000105577654097  0.0226466477145117  0.7482864738431133
  0.2354845171688129  0.5236657887441900  0.2360065882605431
  0.2760201333164591  0.5069869372093527  0.7437834727144201
  0.7871050998572402  0.9647420519589440  0.2483825346852588
  0.2237212479351449  0.5174295038567339  0.4890141298361645
  0.7443932676163449  0.0285304450271357  0.0082051685862608
  0.7324798217946615  0.9668933203782497  0.5001433010434443
  0.2731503334083845  0.4887103587275550  0.9929710782532395
  0.9938161585622383  0.2144440158659032  0.3689959851348443
  0.5091240933690435  0.7700086256054193  0.8776709526833225
  0.4765139891925890  0.2345700429658307  0.6333262919643881
  0.9795520035502303  0.7617427933445235  0.1183067230060073
  0.0027797156048121  0.2643918397519450  0.8741342197172638
  0.4782918671726904  0.7585483006616781  0.3797066080430666
  0.9875445034850485  0.7480630646027575  0.6165618760638006
  0.5312071552938328  0.2773765799639729  0.1221189936091163
  0.1704088190617958  0.3838028941118080  0.0405380322402745
  0.6290058757313983  0.8696094823505659  0.5542423687570431
  0.6541891053124889  0.1365780351385797  0.9480949901434337
  0.1468823244734782  0.6379175894580836  0.4416824344949323
  0.3631803158070769  0.3971389526648234  0.9293130606388117
  0.8423572967463885  0.8639263198073311  0.4483054860334270
  0.8663846339846869  0.1472863341595167  0.0562881397480320
  0.3277566189709092  0.6118956756424975  0.5375460286149959
  0.8783120171358493  0.0788828770125588  0.1886109184569883
  0.3639136167646171  0.6150241056603908  0.6935340908640902
  0.8757429562750585  0.8388294573465946  0.3036382959713213
  0.3797615292158845  0.4152728528749247  0.8063188838674102
  0.1122718462867290  0.6126409613638616  0.2922394259248734
  0.5928744868379657  0.1327634251963428  0.7972737161562705
  0.1552386978469870  0.3834935495451539  0.1980748177866276
  0.6146374173028815  0.9079837092287587  0.6994851656957187
  0.8689703794383737  0.6241519018447534  0.9558436988069813
  0.3436565113578589  0.1249160344893683  0.4497595361046696
  0.8260800189309410  0.3727042727208172  0.5483710868804714
  0.3871203668876624  0.9101559264800907  0.0498807048870419
  0.1168264108369197  0.1364146617257911  0.5561581278198788
  0.6610724430234607  0.6441941170369969  0.0534254081857108
  0.1679949036183281  0.8850163600507007  0.9536241128412637
  0.6411182887466144  0.3522539740412196  0.4405460115951229
  0.6549095188549644  0.3563798392498404  0.3192203664277924
  0.1227702210594998  0.8781915367435743  0.8028631275216421
  0.1107648501021432  0.0859055449973968  0.7055830109640139
  0.6141101102011388  0.5829209609387279  0.2241783874374854
  0.8540079065736087  0.3857912141994539  0.6875390886569995
  0.4134948769630871  0.9158481570385746  0.1944644277965456
  0.3794958588406950  0.0993945261230696  0.3080439458399755
  0.8763686899354503  0.6197619090405574  0.7812956809736488
  0.1620371625190506  0.1017457227524816  0.0485627299620991
  0.6223081282609711  0.5793340725831991  0.5447378530233085
  0.6478883730348087  0.4392411674161844  0.9476246313293566
  0.1344651732199512  0.9352327385128758  0.4498550305181939
  0.3309590765593789  0.0899181111519958  0.9377847115433378
  0.8181441122155125  0.5573456125688605  0.4351838674565610
  0.8928475973457134  0.4267671360075669  0.0469465409238357
  0.3220836047582091  0.9366640158319532  0.5592785259144412
  0.2119502961655110  0.1203548054027555  0.1877185974597757
  0.6582895299610657  0.6137360146671808  0.6826232539916531
  0.1541691061920457  0.9171915256707441  0.2768305112245890
  0.6805502966966185  0.4337935608641582  0.7980595559630074
  0.8447838392637046  0.5921946561801196  0.3110778990533963
  0.3289561113564714  0.1129187203544888  0.8007364909924252
  0.8423210455066529  0.4055464987669820  0.2117963880600235
  0.3203196325951131  0.8895723626472897  0.7054786216478409
  0.8463012463827504  0.9324205449543791  0.9481383241770657
  0.3322349417875460  0.4358976757189255  0.4288856132332688
  0.8294172721889885  0.0812770522776313  0.5483016425606190
  0.3736048554322940  0.6033538954720674  0.0444824651771603
  0.1347597652844837  0.4048986960681279  0.5337178590220333
  0.6430670407596227  0.9257844890553493  0.0549749950219650
  0.1622284420981666  0.5964670897210841  0.9395836725135797
  0.6178581727972958  0.0724307307164551  0.4505555166111893
  0.3308568730939453  0.4386651652463976  0.3017604962946945
  0.8083279453983233  0.9347912563658646  0.8103828624847719
  0.8167922149587695  0.1150615423071364  0.7029739809638934
  0.3418935248378792  0.6322897964771838  0.1812000884313107
  0.2050055757659913  0.3749277241598178  0.6987346469380182
  0.6649722404637768  0.8864396374855170  0.1967977617826873
  0.6879701785119731  0.0642682351018135  0.3148944254403561
  0.1513626790862645  0.5988569488356446  0.7840046712462116
  0.1166068033056017  0.1372790416030054  0.3329854805067545
  0.4333368285249318  0.8832857198790652  0.8413625477168820
  0.5550644377060934  0.3353660595139047  0.6735951974865823
  0.0465790782813263  0.8576496679408676  0.1622837960862460
  0.3956970104511272  0.1441275697504333  0.6784847323700215
  0.8800145178621808  0.6713869289738027  0.1591085803991907
  0.9149688897253172  0.2902751839819314  0.3159738067958431
  0.5653222328514355  0.8305782843183865  0.9471648956281553
  0.0879889731465603  0.1659582172151966  0.9123106752142878
  0.5219185598213768  0.6607864151945081  0.4327265237445446
  0.0537045097090901  0.8501714474493913  0.5698197312340624
  0.6209284869626864  0.3837307378345030  0.0936634621817636
  0.8921106577958514  0.6639567824660021  0.5831909027855610
  0.4591121641197424  0.1839280736098577  0.0704030256435534
  0.9232541407800043  0.3377476338072570  0.9285949482102293
  0.4196834954776526  0.8769566373858033  0.4196647703646116
  0.9202098430759206  0.8302010210118090  0.6670007596336660
  0.4107132002256277  0.3512908359932513  0.1489863061344490
  0.9087612953409876  0.2037526576694131  0.8218129513499045
  0.3847488411674749  0.6938456114920420  0.3261775799724747
  0.0854923236999892  0.3662250744092254  0.8395996730296824
  0.5989757599597527  0.8063205389482417  0.3466362146870232
  0.0872703441643000  0.6432620093788114  0.6438820164722265
  0.5898214935037130  0.2046666333330271  0.1796186598963183
  0.3708576321544756  0.3090297216091259  0.5897669867634310
  0.9133837708954027  0.8279494016325478  0.0610628694384168
  0.9109720223286867  0.1280055726607717  0.4136663522900977
  0.4186002020462264  0.6427801324993585  0.8940446282934682
  0.0406494579023142  0.3175574089269185  0.4149456792957018
  0.6178227420441577  0.7103600852678901  0.8286012861077354
  0.5757397123639031  0.1658512027662868  0.5866544981761105
  0.0810459357960784  0.6513301012234903  0.0956043017139268
 
 -0.93342039E-03  0.40179217E-02  0.33529223E-02
 -0.52449185E-02 -0.86879992E-02 -0.18105140E-01
 -0.57678033E-02 -0.28991375E-02  0.61988127E-02
  0.39852851E-02 -0.42618017E-02 -0.17775010E-02
 -0.45923734E-02 -0.93647853E-02  0.55997755E-02
  0.32416422E-02  0.57670563E-02 -0.55093649E-02
  0.44492235E-02 -0.74143887E-02  0.38005723E-02
  0.21347290E-02  0.10484042E-01 -0.26534946E-02
 -0.12778521E-02 -0.12360759E-02 -0.42325281E-02
  0.12009673E-01  0.13616494E-03  0.13423286E-02
 -0.19194110E-03  0.65584732E-02  0.35708383E-02
 -0.80424762E-02 -0.27538728E-03  0.54552826E-02
  0.49525696E-02 -0.33224452E-02 -0.13137434E-01
 -0.58933913E-02  0.38151948E-02  0.40680756E-02
  0.18576733E-02 -0.14170252E-01 -0.24023594E-02
  0.36864425E-02 -0.69260839E-02  0.30019058E-02
  0.13249509E-02 -0.20898743E-02 -0.36904721E-02
  0.16485243E-03  0.25826293E-02 -0.27442826E-02
 -0.57084252E-02  0.31443875E-02 -0.87252946E-03
 -0.72091464E-02 -0.36188165E-02  0.68684972E-02
 -0.16221275E-02 -0.21536638E-02 -0.56153088E-02
 -0.86734611E-03 -0.32895331E-02 -0.23783884E-02
  0.22156668E-02 -0.38059655E-02  0.86725444E-02
 -0.36027100E-02 -0.51790931E-02  0.89722613E-02
  0.44830469E-02 -0.24868392E-03 -0.24673438E-02
  0.66843158E-02  0.90336372E-03 -0.40949037E-02
  0.32003911E-03  0.56583555E-02  0.55236863E-02
 -0.46349843E-02  0.36298190E-02 -0.25346350E-02
  0.60980165E-03  0.16095434E-02 -0.22132261E-02
  0.53864715E-02  0.56248524E-02  0.68598467E-02
  0.56890627E-02  0.15584519E-02 -0.53963863E-03
  0.18020115E-02  0.39504735E-02  0.34226850E-02
 -0.19291696E-02  0.19490158E-02  0.10455277E-02
  0.14716517E-02 -0.30339382E-02 -0.15919549E-02
 -0.50593809E-03 -0.66782863E-02  0.92380297E-02
 -0.13906337E-01  0.47617103E-02 -0.83688694E-03
 -0.68689205E-02  0.52877603E-02  0.17171821E-04
 -0.10534239E-01 -0.36307556E-02 -0.54830850E-03
 -0.62606761E-02 -0.51143030E-02  0.13608363E-01
  0.68236797E-02 -0.32203640E-02  0.28118657E-02
  0.13122886E-01 -0.21280009E-02 -0.42914858E-02
  0.39165995E-02  0.11837827E-02 -0.36231309E-02
 -0.13826274E-02  0.91278138E-02 -0.35647388E-02
  0.41266624E-02 -0.11954534E-01 -0.24956331E-02
  0.30139952E-02  0.38901505E-03 -0.54569837E-02
 -0.68828221E-02 -0.29619188E-02 -0.30782169E-02
  0.41851437E-02  0.83921904E-03  0.53171706E-02
 -0.14043145E-02  0.47574542E-03  0.53208197E-02
  0.52922893E-02 -0.11381860E-02  0.16601429E-02
 -0.27786561E-02  0.29138706E-02 -0.10765255E-01
  0.37075225E-03 -0.80808002E-02  0.14108481E-01
 -0.34698757E-02  0.10368190E-01 -0.91110040E-02
 -0.32569400E-02  0.65058225E-02 -0.18372476E-02
  0.75264869E-02 -0.14259737E-03 -0.11122730E-01
  0.50549782E-03 -0.15246631E-02  0.16469638E-02
 -0.18109562E-02 -0.15333669E-02  0.38069392E-03
  0.13461903E-02  0.88533806E-02 -0.74656625E-03
 -0.18011923E-02 -0.87321070E-02  0.32838384E-03
  0.94734738E-02  0.13450880E-01 -0.76529169E-02
 -0.36134723E-02 -0.32035700E-02  0.29666145E-03
  0.19265025E-02  0.17833646E-03 -0.41174489E-02
 -0.37729648E-02  0.50899219E-03  0.65392737E-03
  0.38853218E-03  0.49489384E-02 -0.58088786E-02
 -0.42478304E-02 -0.27810902E-02  0.85661786E-02
 -0.34450705E-02 -0.54164155E-02 -0.25531154E-02
 -0.44896733E-02  0.37534236E-02 -0.29478522E-02
 -0.83339623E-03  0.69043890E-02 -0.67469464E-02
  0.23558039E-02  0.26439125E-02  0.62530053E-02
 -0.12324091E-03 -0.18238270E-02 -0.59153602E-03
 -0.23368286E-02 -0.80594769E-03 -0.15104916E-02
 -0.44773441E-04  0.67096163E-02 -0.35140378E-02
 -0.49409905E-02 -0.11325001E-01 -0.59107577E-02
 -0.53646549E-02  0.21605787E-02  0.11283875E-01
  0.30593888E-02 -0.20541538E-02 -0.31431642E-02
 -0.36081726E-02 -0.99216199E-02 -0.36631610E-02
 -0.10263236E-02 -0.79772225E-03 -0.58413307E-02
  0.71075864E-03  0.11733398E-01  0.11659705E-02
 -0.70646036E-02  0.92875510E-02  0.44069527E-02
  0.79244035E-02  0.10802874E-02  0.31142683E-02
  0.49077977E-03  0.58354759E-03 -0.29887603E-02
 -0.95777652E-02  0.64279492E-03  0.80030332E-02
  0.23333124E-02 -0.14239305E-02  0.50307196E-03
 -0.30802893E-02  0.88132497E-02  0.85563535E-03
  0.15948847E-02 -0.44957272E-04  0.15100003E-02
  0.46522399E-02  0.54755554E-02 -0.68508300E-02
 -0.13841159E-02 -0.59443645E-03  0.20131166E-02
 -0.24485532E-02  0.79091803E-02  0.23529955E-03
 -0.38111050E-02  0.51579217E-03 -0.33435086E-02
 -0.68400623E-03  0.20929819E-02  0.22799294E-02
  0.92372002E-03 -0.14524095E-03  0.32129233E-02
  0.16434143E-02  0.30830790E-02  0.28160238E-02
 -0.65549648E-03  0.37733464E-03 -0.33308420E-02
  0.54937595E-02 -0.30425942E-02 -0.30546851E-02
 -0.60010720E-02 -0.52718846E-04 -0.13726563E-02
  0.42356393E-03  0.29395148E-03  0.17334246E-02
  0.31178849E-03  0.21000058E-02 -0.22225844E-02
 -0.43779738E-02 -0.30940867E-02  0.32089322E-02
  0.22983915E-02 -0.21073537E-03  0.44390259E-03
  0.32575487E-02 -0.24846874E-03  0.34940619E-02
  0.13240602E-03 -0.21566207E-02 -0.35032772E-02
 -0.37996997E-03 -0.46920989E-03  0.16038888E-03
 -0.23819066E-03  0.16665949E-03 -0.32088499E-04
  0.10746655E-02 -0.72454200E-03  0.71530633E-03
 -0.22333728E-02 -0.80076839E-03 -0.22211614E-02
 -0.19822779E-02 -0.64433258E-03  0.23439658E-02
  0.43945486E-02  0.13039183E-02  0.29571868E-02
 -0.31248356E-02  0.42381233E-03 -0.27216354E-02
  0.42587778E-02  0.33061592E-02 -0.42262021E-02
  0.79205839E-02  0.75931641E-03 -0.26663353E-02
  0.23785768E-02  0.52576985E-02 -0.25242963E-02
 -0.49610873E-02  0.40900144E-02 -0.26578310E-02
  0.20459141E-03 -0.17510360E-02  0.10134479E-02
  0.45510614E-03  0.60099829E-02 -0.50160260E-02
  0.16324641E-02 -0.48287499E-03 -0.36164753E-02
 -0.12552297E-02 -0.18343211E-02 -0.26456920E-02
 -0.36983579E-02  0.13324796E-02 -0.69913524E-03
 -0.29374287E-02 -0.17463250E-02 -0.12202939E-02
 -0.45870626E-02  0.11417136E-02  0.24773314E-02
  0.46282441E-02  0.58917358E-03  0.44835563E-02
  0.44606575E-02  0.52264534E-03  0.12279417E-02
  0.41891707E-02 -0.39225477E-02 -0.30038936E-02
  0.20875430E-02  0.40373163E-02  0.34727909E-02
  0.54468172E-02 -0.63318012E-02 -0.35914191E-02
  0.18488240E-02  0.39330519E-02  0.29503097E-02
 -0.20332816E-02 -0.33190160E-02 -0.79177697E-02
  0.38939436E-02 -0.14494059E-02  0.43677994E-02
 -0.31755440E-02  0.58742396E-02  0.27763786E-02
  0.11164282E-02  0.26565387E-02 -0.25196267E-02
  0.45533046E-02  0.44813818E-02 -0.34564264E-02
  0.26548300E-02 -0.17556555E-02  0.15283369E-02
  0.16618680E-02 -0.11924692E-02  0.15332796E-02
 -0.38622988E-02 -0.30810781E-02 -0.34207866E-02
 -0.50807456E-02  0.50058294E-03  0.40065770E-02
  0.11077835E-02  0.65801619E-02 -0.66146987E-02
 -0.54818334E-03 -0.62104348E-02  0.27440014E-02
 -0.29666512E-02  0.26212179E-03  0.32311309E-02
 -0.24366553E-02 -0.40095222E-02  0.39836528E-02
  0.14978759E-02 -0.11029949E-01 -0.13516122E-02
  0.33787881E-03  0.24550584E-02 -0.74018140E-02
 -0.42212974E-02 -0.34098774E-02  0.59823004E-02
 -0.50861921E-02  0.25250309E-03  0.35241950E-02
  0.48679340E-02  0.34939860E-02 -0.21603888E-02
 -0.13885687E-02  0.12098771E-02  0.12180708E-02
  0.41259059E-02  0.21817657E-02  0.52714442E-04
 -0.10495263E-01 -0.35681294E-02  0.31877318E-02
  0.37365425E-02  0.53215965E-02  0.41539501E-02
  0.71119187E-03  0.12422955E-03  0.22972891E-02
  0.28404853E-02  0.96668355E-03  0.83767316E-02
  0.69741612E-02 -0.39770841E-02 -0.89484452E-02
 -0.45816438E-04  0.33358931E-02  0.17483584E-02
  0.30511161E-02 -0.10656413E-02  0.15596791E-03
  0.93585365E-02 -0.17131157E-02 -0.21338238E-02
  0.68130174E-02  0.87868915E-03  0.38927129E-02
 -0.57901752E-02 -0.76296523E-02 -0.85554622E-02
  0.72421381E-02  0.17083110E-02 -0.45577633E-02
  0.76056392E-02  0.34979592E-02  0.70039369E-02
  0.58828358E-04  0.37992908E-02  0.38090751E-02
  0.24124150E-02  0.79294053E-03 -0.39139934E-02
  0.49279706E-02  0.15279902E-04  0.41385287E-02
  0.62669976E-02 -0.47764762E-03  0.17196012E-02
  0.30916484E-02 -0.98176590E-03  0.34451905E-02
 -0.37029063E-03  0.18187573E-02  0.44379990E-02
 -0.17636175E-02 -0.56528030E-02 -0.40009996E-02
  0.29390966E-02 -0.70492105E-03 -0.11269786E-01
 -0.63928917E-02 -0.64825964E-03  0.20417624E-02
 -0.57557374E-02 -0.41752569E-02  0.20594427E-02
 -0.39411708E-02  0.86943885E-02  0.10295345E-01
  0.45801046E-02 -0.72724741E-02 -0.56633405E-02
  0.79087046E-02  0.24391967E-02  0.44400283E-02
 -0.16735940E-02  0.10523859E-02  0.36113678E-02
 -0.46137216E-02 -0.10541743E-01 -0.63456144E-02
  0.70472667E-02  0.19072522E-02  0.58031056E-03
  0.70677888E-02 -0.60529396E-02  0.36319899E-02
 -0.16268230E-02 -0.27033515E-02  0.10479481E-02
 -0.20214787E-02  0.68619501E-02  0.32980484E-03
 -0.20154930E-02 -0.66277998E-02 -0.41753041E-02
 -0.52467678E-02 -0.48946655E-02  0.39200499E-02
  0.12447278E-02  0.88214275E-04 -0.82946058E-03
  0.31352645E-02  0.99176837E-03 -0.65142049E-03
 -0.64018584E-03  0.61000498E-02 -0.61795899E-02
 -0.23547266E-02  0.60139685E-02  0.44411192E-02
 -0.43907186E-03  0.11610128E-02  0.14268681E-02
  0.18941284E-02 -0.95478747E-04 -0.40554201E-02
 -0.11390461E-01 -0.34831721E-02 -0.98060026E-03
  0.14498194E-02  0.30453845E-03 -0.39707830E-02
  0.21751877E-02  0.37365401E-02  0.54982716E-02
 -0.18489919E-02 -0.73347511E-02  0.50515197E-02
 -0.54617318E-02 -0.23993343E-02 -0.29815079E-02
 -0.11886877E-01  0.49487701E-02  0.83856137E-03
 -0.69797793E-02 -0.37972609E-02 -0.34957225E-02
 -0.21529423E-02  0.13012831E-02  0.37011532E-02
  0.56555040E-02  0.53181620E-02 -0.71471146E-03
 -0.57530713E-02  0.60698089E-03 -0.30498329E-03
  0.29332388E-02 -0.21632546E-02 -0.29287591E-02
 -0.20666911E-02 -0.66695067E-02  0.54649488E-03
 -0.15226700E-02  0.77231665E-02 -0.60705837E-02
 -0.22999920E-02  0.77971644E-03  0.78038949E-02
 -0.47811753E-02 -0.45319305E-02 -0.37232583E-02
 -0.69907532E-02  0.19127640E-02  0.57843027E-02
 -0.23874617E-02 -0.72616670E-02 -0.24751269E-03
  0.62513204E-03  0.49084358E-02  0.32025321E-02
 -0.83061925E-04  0.55246226E-02  0.16701765E-02
 -0.80276795E-02  0.60218953E-02  0.39444990E-02
  0.72065301E-02 -0.38687159E-02 -0.43814616E-03
  0.19085070E-02 -0.42037356E-02 -0.15111725E-02
  0.57708924E-02  0.20685254E-03  0.48595902E-03
 -0.14127754E-02  0.31504486E-03 -0.83413473E-02
  0.48026007E-02 -0.86884495E-03  0.13808828E-02
 
           1
   2.00000000000000     
  0.12469123E+01 -0.20136856E-02  0.00000000E+00  0.00000000E+00
  0.13457326E-01  0.35064142E-01  0.11123121E+00
  0.31936366E-01  0.49974701E+00  0.72163551E+00
  0.50155919E+00  0.54673825E+00  0.62656013E+00
  0.97134140E+00  0.99164580E+00  0.49608888E+00
  0.25042207E+00  0.98047316E+00  0.87633667E+00
  0.74290001E+00  0.71252950E+00  0.37020757E+00
  0.25129300E-01  0.49015908E+00  0.14644067E+00
  0.98684896E+00  0.73219493E+00  0.24484653E+00
  0.70086364E+00  0.86275552E-03  0.62985697E+00
  0.78646607E+00  0.26830032E+00  0.11558035E+00
  0.98998320E-02  0.93517487E+00  0.35218670E+00
  0.24715016E+00  0.24445541E+00  0.86889798E+00
  0.32002655E+00  0.49974706E-01  0.12033131E+00
  0.17277727E+00  0.76226646E+00  0.72098333E+00
  0.96305296E+00  0.96576951E+00  0.75767876E+00
  0.25154014E+00  0.28672100E+00  0.47249372E+00
  0.22197383E+00  0.99326171E+00  0.63342608E+00
  0.99808230E+00  0.72227428E+00  0.48927776E+00
  0.55831983E+00  0.34056234E-01  0.13563120E+00
  0.23809608E+00  0.48431355E+00  0.86276838E+00
  0.52739275E+00  0.74434856E+00  0.24831693E+00
  0.26981140E-01  0.43610737E+00  0.26859093E+00
  0.76986111E+00  0.53671354E+00  0.87800465E+00
  0.74234790E+00  0.26552246E+00  0.63003831E+00
  0.36125372E+00  0.76613364E+00  0.96838392E+00
  0.99209028E+00  0.48689405E+00  0.59737749E+00
  0.76161810E+00  0.51200288E+00  0.13573664E+00
  0.72153815E+00  0.20509367E+00  0.38323887E+00
  0.74493081E+00  0.73171619E+00  0.49850683E+00
  0.25370820E-01  0.26522655E+00  0.99450526E-03
  0.25122184E+00  0.59164213E+00  0.36127032E+00
  0.51272273E+00  0.57935288E-01  0.88244558E+00
  0.47620912E+00  0.46362570E+00  0.23259206E+00
  0.45159043E+00  0.25471562E+00  0.75396837E+00
  0.79658863E+00  0.98369150E+00  0.11380713E+00
  0.26103833E+00  0.46738243E+00  0.60255931E+00
  0.51970739E+00  0.29556332E+00  0.97766211E+00
  0.24256270E+00  0.27170621E+00  0.11201481E+00
  0.52376795E+00  0.55058202E+00  0.76263353E+00
  0.76849657E+00  0.70700922E+00  0.24303033E+00
  0.96918648E+00  0.15030530E-01  0.64132039E+00
  0.75065591E+00  0.76494714E+00  0.75648952E+00
  0.75118012E+00  0.82990357E+00  0.88689893E+00
  0.21635995E+00  0.29988579E+00  0.34791450E+00
  0.71732488E+00  0.26639784E+00  0.74792222E+00
  0.72912259E+00  0.76094422E+00  0.63387700E+00
  0.46580675E+00  0.74945060E+00  0.52525832E+00
  0.54424100E+00  0.59582527E+00  0.98475809E+00
  0.75820626E+00  0.99267555E-01  0.86179595E+00
  0.52735899E+00  0.46580258E-01  0.25889755E+00
  0.97682580E+00  0.53171302E+00  0.85695374E+00
  0.48206979E+00  0.50771558E+00  0.36143868E+00
  0.22543208E+00  0.21884230E+00  0.64122475E+00
  0.33993701E-01  0.76080548E+00  0.99121006E+00
  0.72632297E+00  0.24218138E+00  0.51080595E+00
  0.21084160E-01  0.16491877E-01  0.97676810E+00
  0.26063727E+00  0.25263696E+00  0.96559633E+00
  0.48180374E+00  0.22771508E+00  0.49546865E+00
  0.76386966E+00  0.28238555E+00  0.99660091E+00
  0.96404853E+00  0.26984723E+00  0.49809924E+00
  0.51890544E+00  0.47969898E-01  0.47413808E-02
  0.17672564E-01  0.55381459E+00  0.37938180E+00
  0.29106858E-01  0.51836650E+00  0.77014622E-02
  0.52403852E+00  0.99429467E+00  0.36279344E+00
  0.75936001E+00  0.23605732E+00  0.24908207E+00
  0.75880588E+00  0.78912079E+00  0.13202950E-02
  0.24589532E+00  0.76487523E+00  0.24564319E+00
  0.46228768E+00  0.87889637E-02  0.49618174E+00
  0.54934747E-01  0.85292527E-01  0.24142433E+00
  0.37040282E-01  0.27414853E+00  0.74481626E+00
  0.31538384E+00  0.25991238E+00  0.23898313E+00
  0.45644641E+00  0.21112959E-01  0.75606645E+00
  0.26270548E+00  0.77070395E+00  0.11329994E+00
  0.48860930E+00  0.98297640E+00  0.61777109E+00
  0.65188649E-02  0.93905030E+00  0.86933408E+00
  0.26668367E+00  0.80687148E+00  0.46816368E+00
  0.49908251E+00  0.47191594E+00  0.87133542E+00
  0.74708517E+00  0.93948310E+00  0.37467880E+00
  0.72542282E+00  0.75858420E+00  0.12799248E+00
  0.46500485E+00  0.48774882E+00  0.50169568E+00
  0.47400346E+00  0.76742884E+00  0.75083910E+00
  0.25926009E+00  0.99812615E+00  0.36387395E+00
  0.74299360E+00  0.50212777E+00  0.61173656E+00
  0.24744753E+00  0.52033523E+00  0.11352242E+00
  0.25551153E+00  0.77019204E+00  0.61384949E+00
  0.49916039E+00  0.56333846E+00  0.11120074E+00
  0.22416133E+00  0.73822531E+00  0.84931403E+00
  0.83301880E+00  0.39993923E+00  0.38587280E+00
  0.29525267E+00  0.11038232E-01  0.24315440E+00
  0.77439939E+00  0.51541651E+00  0.73717272E+00
  0.22230245E+00  0.56148637E-02  0.75886435E+00
  0.73530682E+00  0.47429693E+00  0.27152864E+00
  0.26819920E+00  0.98987577E+00  0.33200707E-02
  0.71616358E+00  0.47572184E+00  0.49454946E+00
  0.21819410E+00  0.48766542E-01  0.50216798E+00
  0.76787744E+00  0.53627080E+00  0.56451010E-02
  0.69936107E+00  0.22187630E-01  0.74852450E+00
  0.23582549E+00  0.52363453E+00  0.23603952E+00
  0.27650340E+00  0.50695008E+00  0.74404265E+00
  0.78712474E+00  0.96442211E+00  0.24812267E+00
  0.22366488E+00  0.51735990E+00  0.48902603E+00
  0.74435793E+00  0.28555170E-01  0.82027884E-02
  0.73263925E+00  0.96678583E+00  0.50019636E+00
  0.27281901E+00  0.48859156E+00  0.99280632E+00
  0.99352208E+00  0.21434843E+00  0.36916985E+00
  0.50977604E+00  0.77020207E+00  0.87789031E+00
  0.47605041E+00  0.23463292E+00  0.63312441E+00
  0.98018381E+00  0.76223327E+00  0.11799324E+00
  0.39547602E-02  0.26450449E+00  0.87393644E+00
  0.47864474E+00  0.75932830E+00  0.37951936E+00
  0.98680851E+00  0.74866983E+00  0.61636473E+00
  0.53123751E+00  0.27711681E+00  0.12219417E+00
  0.17047634E+00  0.38469449E+00  0.40165960E-01
  0.62924806E+00  0.86953785E+00  0.55397411E+00
  0.65400289E+00  0.13630591E+00  0.94789874E+00
  0.14633366E+00  0.63811527E+00  0.44163057E+00
  0.36274454E+00  0.39687988E+00  0.92922254E+00
  0.84167679E+00  0.86409570E+00  0.44848925E+00
  0.86707125E+00  0.14737374E+00  0.56620715E-01
  0.32841837E+00  0.61197321E+00  0.53763711E+00
  0.87893349E+00  0.78300954E-01  0.18838810E+00
  0.36422331E+00  0.61562305E+00  0.69379169E+00
  0.87655101E+00  0.83789011E+00  0.30337190E+00
  0.38003581E+00  0.41585633E+00  0.80653773E+00
  0.11197020E+00  0.61214857E+00  0.29165211E+00
  0.59345217E+00  0.13254840E+00  0.79759770E+00
  0.15476760E+00  0.38436501E+00  0.19828076E+00
  0.61480304E+00  0.90837782E+00  0.69929827E+00
  0.86964588E+00  0.62481673E+00  0.95558731E+00
  0.34405036E+00  0.12465558E+00  0.44987290E+00
  0.82632656E+00  0.37252737E+00  0.54848482E+00
  0.38654738E+00  0.90969884E+00  0.49626962E-01
  0.11607267E+00  0.13648892E+00  0.55645532E+00
  0.66123679E+00  0.64517031E+00  0.52934752E-01
  0.16791358E+00  0.88409502E+00  0.95382765E+00
  0.64067818E+00  0.35229286E+00  0.44078569E+00