Na88 Ge16 P8 Se96                       
   1.00000000000000     
    13.9614333504000001    0.0000000000000000    0.0000000000000000
     0.0000000000000000   13.9614333504000001    0.0000000000000000
     0.0000000000000000    0.0000000000000000   27.9228667008000002
   Na   Ge   P    Se
    88    16     8    96
Direct
  0.9355808463324804  0.0118891993868177  0.1086947907823494
  0.5446746148925794  0.5283447523115115  0.6371596617463349
  0.5103719754796130  0.5917729680727224  0.9872271959568797
  0.0169238962579958  0.9575267505731092  0.3782602089545573
  0.2652321744167541  0.9429904295100364  0.8514281294715792
  0.0204666572882295  0.5314485653715385  0.3662302367111662
  0.9483534207920471  0.5096356993135247  0.1340756925480412
  0.3098569035313639  0.2617986003798436  0.1922966123116429
  0.5931296983697648  0.7281003186380620  0.7766726658489022
  0.7376731935159958  0.2907035993029179  0.8986638164756680
  0.7378454507779374  0.7443844831669936  0.5020861081074227
  0.2446220653531140  0.2211531044174334  0.8709943609412464
  0.6874694179971925  0.0688448773005443  0.1288876588268360
  0.2482266923431355  0.7435909667269363  0.4841397219904193
  0.9816741069777217  0.9688204577312340  0.7238534937177689
  0.4199581806819284  0.5375807305621489  0.3699287762398956
  0.2761179705665436  0.2708550417502655  0.4977691912370155
  0.6252637230698149  0.7760858048999585  0.6301765404169406
  0.4561650747163418  0.0008612309325137  0.1320980392318050
  0.9649197708244799  0.4923449344005568  0.8796082394395498
  0.5153361964944061  0.0118233119290708  0.3866571302740107
  0.2235524303955209  0.2379009130066423  0.3366446658410470
  0.7592335366346550  0.0471861314543546  0.8735142802466799
  0.7703716282773753  0.2568059623940524  0.6363370486267134
  0.2283463906452521  0.7749863038147141  0.1415531930723250
  0.2941385058673306  0.2531105179972430  0.7263148017708385
  0.7384849134636388  0.7765979970613774  0.9901222023226417
  0.6910591044092900  0.5073157941932681  0.3786006232045012
  0.4800845132351300  0.4894143935367783  0.5047646914547365
  0.4639850426538727  0.9008031385859481  0.9856998690286840
  0.0209821520631243  0.4532032381003360  0.6294379651882904
  0.1863110276965566  0.7080123686970833  0.7306777535378945
  0.0152488507806401  0.7888698654429012  0.2505349666352618
  0.5214636830600368  0.2440733959261854  0.7604895975835849
  0.9728642001369698  0.0379284850377954  0.9726723854602215
  0.4955954822570882  0.0251737220917750  0.5241124865376736
  0.4925233477623615  0.3842680194535971  0.0466453133795876
  0.7111316597470368  0.2369008392249151  0.2160282456734925
  0.8089465805902641  0.7377106596009317  0.7405740549454637
  0.7541429749939970  0.7446500333678556  0.2576070367225834
  0.0295566728014110  0.0226557150440619  0.2463102858162963
  0.4984187085638253  0.5173058962226893  0.7726853340514559
  0.4675919894231834  0.9767086897859696  0.7216058566596109
  0.9943996537348686  0.5358280967692471  0.2490895075529190
  0.2343533996324809  0.2207168917416131  0.0049222932475730
  0.4759808337163224  0.7510847560681755  0.5065993563724934
  0.9834183309011497  0.7799826380270214  0.5218001813256244
  0.7833559719912815  0.2748707310457636  0.0002097732073388
  0.2997084958433500  0.0282771862607176  0.6357638066622709
  0.5271282714043655  0.2423331963404930  0.2825293490852288
  0.9937407752393334  0.4717856848891699  0.7632372028205338
  0.5325459474363685  0.9750621143213285  0.2599573442271889
  0.2131262302558717  0.4721613975962495  0.3640839516261360
  0.0127131253834224  0.7617681803830071  0.0036456436079584
  0.7739584711831184  0.2689419295750646  0.4904069140649004
  0.2354782735037275  0.7167556409394085  0.0080760940942939
  0.0101335451446432  0.2537675028963532  0.0163964605750947
  0.5388235098419389  0.2393866610571222  0.4866755024875153
  0.5241702147168098  0.1339513703833586  0.0287746296068729
  0.0236184424002854  0.9750929680965360  0.4999617249605023
  0.5204155829091529  0.0114245797831409  0.9132964470743098
  0.0051489198234365  0.5000929855770545  0.4937822699214469
  0.0156795893794519  0.5391237932796775  0.9963215958004686
  0.6477141380952347  0.0695561570849145  0.6506372095597709
  0.9688527249564113  0.2546731871863999  0.2413689241849447
  0.7987983150363469  0.7631941533677052  0.8737530737104058
  0.2738854334495983  0.7370749108123932  0.2525669353062123
  0.7585038419553922  0.2613688295234093  0.7696067999174817
  0.7514246579561314  0.7562931446197643  0.3687712295911912
  0.9798450642739205  0.2354539932882590  0.7435541625408126
  0.7586172112243882  0.2543160911971771  0.3622775829897675
  0.2419719797103798  0.7284419356024715  0.6150839308976225
  0.2736202010379568  0.4959170193226141  0.1166958701099121
  0.8513694870553941  0.9393463634820658  0.6265291737981512
  0.0154049590334223  0.0168261311471785  0.8401931934145016
  0.2543031977927361  0.7345333381597744  0.3672349235339676
  0.3010819726203738  0.4985826264013133  0.8755595655366721
  0.7885004837245493  0.0142779689437093  0.3683703599868826
  0.7404535569149283  0.7322220051999115  0.1256674131812623
  0.2913579526056251  0.4658642778258987  0.6184303457870953
  0.7175221170133004  0.5423746013064722  0.8779332514275996
  0.2524628928119849  0.0146075216774783  0.3878188818266271
  0.8243552480059207  0.5657634832102896  0.6173374082923742
  0.2617877593530068  0.0128020140419074  0.1362477620526058
  0.0205926633238995  0.2702032687459139  0.4953049915718921
  0.6992856014986749  0.4719715506418860  0.1291182191122595
  0.2092158030080029  0.7438923241007390  0.8607390771057013
  0.5040857618538731  0.5286944488301464  0.2627387586319749
  0.3152614005767292  0.9981012013329228  0.2682157059987555
  0.7681159296664045  0.5005477692274874  0.7658412091836931
  0.2253904285821969  0.9891344015486365  0.7511080978680265
  0.7398750943568398  0.4975990328377234  0.2616861268166719
  0.2218360581259583  0.9693080078163339  0.0010780908853423
  0.7528073654640555  0.5049072307378810  0.5047091348206547
  0.2634209324107084  0.0195070743158603  0.5015410814326526
  0.7666062089844109  0.5320466257797385  0.9998985109794301
  0.7446038508410668  0.0017906648331309  0.7572869500428996
  0.2490142630095935  0.5182502539809921  0.2381814581196106
  0.2685388076349467  0.4833368109468987  0.7448771224425307
  0.7614045861994916  0.9945600826182643  0.2449341755286090
  0.2464964540851511  0.5212219911257190  0.4937913379977388
  0.7379579940722159  0.0265199752079076  0.9893778471406042
  0.7435257141864813  0.9920468214509913  0.4984461970906495
  0.2724268386527770  0.4621841852962327  0.9884264135241136
  0.9992523624633112  0.2657122017392914  0.3685818194281734
  0.4666316072022484  0.7487223968786829  0.8711224224806402
  0.5158922330526250  0.2538854434792192  0.6133399265035504
  0.9923672673260980  0.7632606513736038  0.1274998388844336
  0.9842902371735799  0.2625769430887976  0.8779284618220818
  0.4979431136653747  0.7620788850446790  0.3687821753949600
  0.9942416436792061  0.7393023671824824  0.6278126159847772
  0.5067828846487127  0.2379084272336740  0.1294832601801507
  0.1563109508503015  0.3945110723276145  0.0414267073548648
  0.6550322612511106  0.9071390508793474  0.5556059622805548
  0.6480888207047678  0.1449631898346217  0.9444728548741570
  0.1506139972793933  0.6047133325833648  0.4376946737472879
  0.3673948104345595  0.3308530039557968  0.9544700491296890
  0.8435259235086665  0.8870714911940394  0.4449740327733981
  0.8304126638352077  0.1059877591078926  0.0499649235267083
  0.3471969793974864  0.6140209500692018  0.5512879054408948
  0.8567466171966635  0.0980846602805312  0.1959328071072600
  0.3558697497620473  0.5883309406222170  0.6947987384546447
  0.8683374764235632  0.9118629505129200  0.3024171186593497
  0.3830076397324474  0.3860944260956546  0.7924753019427296
  0.1570359044045360  0.6255804589528342  0.2963106128955996
  0.6392065312236745  0.0957862448185120  0.8018120401512843
  0.1375373206124833  0.4353688848004963  0.1871572072670236
  0.6533503298008845  0.8907789972723396  0.7060956712754665
  0.8561061279910499  0.6371199571735571  0.9514077224281466
  0.3679218302707662  0.1234929138917910  0.4574872183709585
  0.8670764250041533  0.4173956225885670  0.5541198529653655
  0.3213388733202550  0.8852003130399326  0.0569103652624555
  0.1584618525018326  0.1159323001849688  0.5469702230882916
  0.6664264188887933  0.6136200218922649  0.0610462215461276
  0.1247682401251302  0.8772407723837868  0.9467440571280793
  0.6412040853521281  0.4062738521799536  0.4565294340482000
  0.6529154651510696  0.3902597385524729  0.3048659606361760
  0.1345936102044566  0.8758180924600941  0.7888798025155049
  0.1217579614844558  0.0908624655290755  0.7161678125890524
  0.6597288278686996  0.6144785089653121  0.2127676422984987
  0.8533453643200900  0.3808028437434800  0.7131415744895685
  0.3849884020412728  0.9043419567977813  0.2086118597533257
  0.3986276448135353  0.1065149280297684  0.3254055757196611
  0.8898334769135621  0.6140013006044553  0.8038249411014836
  0.1052980553659789  0.0812691320784925  0.0431986170412726
  0.6397272521592754  0.6062346632766970  0.5511403969699041
  0.6419628947543852  0.4504642840904812  0.9610459019335565
  0.1606642732139279  0.9061247953619904  0.4471886664027277
  0.3386457886331754  0.0568930226949214  0.9556131892159295
  0.8389768020714790  0.5958504315294080  0.4485711846824738
  0.8585110228016343  0.4361301070144847  0.0487733289620925
  0.3372544223693224  0.8971141914068634  0.5551982785249231
  0.2067425597570908  0.0921617988461300  0.2199273568202363
  0.6708042850028773  0.5915567720097583  0.7157441498149564
  0.2022284503747471  0.8926519898051122  0.3086000144760371
  0.6610216781317273  0.4012311776332232  0.8187083049239503
  0.8348498360710942  0.5909520121696903  0.3135772528708591
  0.3541963860420070  0.0732499020776285  0.7934975197193573
  0.8315106853177563  0.3987513088453390  0.2094180396328011
  0.2993463595188877  0.8879294654706392  0.6946683161569550
  0.8337240850366721  0.9263605497253331  0.9415164648799224
  0.3364589605522568  0.4278856522643528  0.4414120347533350
  0.8511102000049361  0.0688034355175735  0.5423716729886728
  0.3713220604131694  0.5549358667634392  0.0382219431848857
  0.1587645599279984  0.4107896419437144  0.5498529002666181
  0.6166153373701354  0.9404450572402803  0.0324124980019928
  0.1855340823065290  0.5754079169874193  0.9431445137923122
  0.6590285920338353  0.1011548619010643  0.4405978960079590
  0.3349217473225207  0.4060518020813796  0.2827354586170748
  0.8611734565114526  0.9034697006453912  0.8036495332715916
  0.8495789764771789  0.0935511003625775  0.7014641018129614
  0.3658742607517780  0.6006196469545965  0.1896564446750325
  0.1606978053207795  0.3807861074655564  0.6929727743425504
  0.7009171938413714  0.9012900804157546  0.1818582452026735
  0.6584727162581985  0.0879621205734336  0.2977938640086579
  0.1609732466343694  0.5630372772598493  0.7961382690045979
  0.0783839609752530  0.3408225126199922  0.3120466702473077
  0.5122470207046411  0.5923196742178708  0.8725577388865899
  0.6092532642295734  0.3362739439124933  0.6606526122168290
  0.0832416287555591  0.8738067400928317  0.1701300695009025
  0.4305768364046838  0.1538387917274334  0.6610573342504126
  0.9000108726570488  0.6805095114890106  0.1784737255247649
  0.9095775423104591  0.3637696325665208  0.4192994366337693
  0.3942977975825215  0.7946361174194927  0.7995752847914498
  0.0785124987293592  0.1702552893719162  0.9180978412488414
  0.5753422665698422  0.6676692951086717  0.4229795559888401
  0.0774569808193605  0.6564713102250727  0.5775629591259210
  0.5529584770467721  0.1321758141972733  0.1870268318487924
  0.0572534718199153  0.8781746529149940  0.6391361637856637
  0.3724664676153732  0.1733256021201764  0.1017131302270321
  0.9005825519406939  0.3539417570673583  0.9333389455735129
  0.4008731902608207  0.8327223867112916  0.4174070717102057
  0.9810352000632676  0.6567652226838752  0.6947907360561983
  0.6324774397475486  0.2533227237149132  0.0816940564730537
  0.8790234368160790  0.1907035317022855  0.8301883405482003
  0.4169425838143681  0.6880334205797278  0.3069054158927390
  0.0860576536038991  0.3548286127291004  0.8337331834661530
  0.6043326714365602  0.8623218980068660  0.3339939164367701
  0.8558855966359412  0.7725856632787943  0.5924805750375688
  0.4746349398108880  0.3694143687244071  0.1651886827180355
  0.4252510296862243  0.3431610289778549  0.5683006169196171
  0.9005590611988671  0.8340919469827884  0.0755915127566349
  0.9173595369322235  0.1525650997544769  0.3278029280740778
  0.3721059286809170  0.8019638402087237  0.9269679511990161
  0.1132712019942707  0.1874524814667465  0.4146261389974042
  0.6062365408829158  0.8286118687149283  0.8858610781685816
  0.6414378713834811  0.1689022192505824  0.5696807834536746
  0.0833401477784402  0.6600369218387859  0.0931437599706740
 
 -0.57931440E-02  0.26692713E-02 -0.15114642E-02
  0.14854240E-01  0.12988304E-02 -0.11551916E-01
 -0.26406199E-02  0.39087029E-02 -0.59153461E-02
  0.69492054E-02 -0.32197193E-03 -0.10509235E-01
  0.60815884E-04  0.32471200E-02 -0.17348637E-02
 -0.64977060E-02  0.66907094E-02  0.25932785E-02
  0.94751486E-02  0.55746717E-02 -0.32517009E-02
 -0.31113193E-02 -0.19706951E-02 -0.49981631E-02
 -0.52411002E-02  0.31852754E-03 -0.23338183E-02
 -0.42107794E-02 -0.38308032E-02 -0.85676888E-02
  0.16297856E-02  0.55769552E-03 -0.16882325E-02
 -0.28160588E-02  0.12571955E-01  0.21683040E-02
  0.42866602E-02  0.10451511E-02 -0.14557017E-01
 -0.59949565E-02 -0.55093421E-02  0.12915264E-01
  0.50076536E-02  0.55889854E-02  0.38151368E-02
 -0.67146925E-02  0.94071391E-02  0.46457955E-02
  0.20124573E-03  0.51905849E-02  0.27214594E-02
 -0.71816326E-03  0.37945488E-02  0.18104073E-02
 -0.23704080E-02 -0.40137161E-02 -0.37591477E-03
  0.84864958E-02  0.32355182E-02  0.67607300E-02
 -0.61665497E-02 -0.53189402E-02 -0.97571690E-03
 -0.54270658E-02  0.65032352E-02  0.45894114E-02
 -0.21052825E-02  0.74677352E-02 -0.43813471E-02
 -0.23462434E-02  0.64709969E-03 -0.25130080E-02
 -0.32415562E-02  0.10205663E-01 -0.10775145E-01
  0.23066423E-02 -0.51817007E-02 -0.51071799E-02
 -0.77156708E-02  0.15084175E-02  0.65137227E-02
 -0.45927428E-02 -0.78054030E-02  0.53127317E-02
 -0.34460062E-02 -0.86569526E-04 -0.28333227E-02
  0.30568952E-02 -0.88947316E-03 -0.66155430E-02
 -0.24217959E-02  0.32821926E-03  0.50451330E-02
  0.49180963E-02  0.42059992E-03  0.86608398E-02
 -0.22111426E-02 -0.31813571E-02  0.14578590E-01
  0.61733755E-02  0.67079803E-02 -0.48172027E-02
  0.78229779E-02 -0.50661947E-02  0.76604748E-03
 -0.44426418E-02  0.48648755E-02 -0.91095689E-02
 -0.50514630E-03  0.32708306E-02  0.27123880E-02
  0.60399538E-02 -0.46384986E-02  0.11231132E-02
  0.27854358E-02 -0.23639203E-04  0.88933748E-02
 -0.38641255E-03 -0.21722528E-02  0.39182157E-02
  0.92403431E-02 -0.29710330E-02 -0.24259146E-02
  0.38673132E-02 -0.29225760E-02  0.14591827E-01
  0.13740261E-02  0.78294912E-03  0.29265154E-02
  0.55762139E-02 -0.83763611E-02  0.74550962E-02
  0.20342183E-02  0.83381331E-02  0.14449651E-02
  0.31252446E-02  0.24255081E-02 -0.13986056E-03
  0.68224122E-02 -0.10959082E-01 -0.46551505E-02
  0.28491304E-03  0.65279491E-02 -0.16528323E-02
 -0.88958065E-03 -0.42924582E-02  0.86325541E-02
  0.10408665E-03 -0.68975952E-02  0.26929858E-02
  0.12784952E-02  0.55008130E-02  0.55512886E-02
 -0.27626254E-02 -0.33031546E-02 -0.21386127E-02
 -0.16912526E-02  0.53252733E-02  0.10928294E-01
  0.26881846E-02  0.29753515E-02  0.38819057E-02
 -0.10187561E-02 -0.26685402E-02 -0.81177123E-02
 -0.21846640E-03 -0.79209180E-03 -0.66997711E-02
 -0.42493865E-02 -0.39108519E-02 -0.45088908E-02
  0.55745934E-03  0.15071119E-02  0.41967724E-02
 -0.13651230E-01  0.43048198E-02  0.42823185E-02
  0.82746893E-02 -0.28415249E-05  0.71274492E-02
  0.54158153E-02  0.25842287E-03 -0.97289650E-02
 -0.70716463E-02  0.14966983E-02  0.10312335E-01
  0.97964642E-02  0.28786905E-02  0.23891552E-02
  0.51344107E-02 -0.34750721E-03  0.62261053E-02
 -0.26594603E-02 -0.55438059E-03  0.14631859E-02
  0.17003566E-02 -0.61645367E-02  0.43160160E-02
  0.25187926E-02 -0.52332739E-03 -0.78750014E-02
 -0.27857638E-02  0.55277518E-03 -0.53930855E-02
 -0.85339034E-02 -0.27208652E-02 -0.21132458E-02
  0.61924745E-02 -0.21725975E-03 -0.23755640E-02
 -0.12442592E-01 -0.96269741E-02  0.11963576E-02
  0.36239797E-02  0.53953996E-02 -0.18041797E-01
 -0.41710502E-03  0.15235545E-01 -0.20228416E-02
 -0.14462984E-02 -0.50861427E-02  0.74874222E-02
  0.47141316E-02  0.15590858E-02 -0.61245492E-02
 -0.21004724E-02 -0.15029866E-02 -0.76970168E-03
 -0.85828722E-02 -0.38135324E-02 -0.78431425E-02
  0.43712949E-02 -0.27891724E-03 -0.53455909E-02
 -0.94598019E-03  0.16162335E-02 -0.34594554E-02
  0.13437268E-02  0.35272625E-02 -0.15204835E-02
 -0.96782276E-02 -0.90046964E-03  0.72512821E-03
 -0.27575430E-02  0.28550085E-02  0.44536281E-02
 -0.46050193E-02 -0.67001252E-03 -0.16520793E-02
 -0.26632945E-02 -0.12059306E-02 -0.38765978E-02
 -0.25628121E-02 -0.10872942E-01  0.22219830E-02
  0.12850020E-03 -0.56097045E-02 -0.59254067E-02
  0.25732584E-03 -0.46420607E-02 -0.36255903E-02
 -0.57167456E-02 -0.66943109E-02 -0.14747894E-02
 -0.57657503E-02 -0.40304503E-02 -0.35149106E-02
  0.35571990E-02  0.47830019E-02  0.23564040E-03
  0.25354150E-03 -0.18792175E-02  0.64343632E-02
  0.49315908E-02  0.61869406E-02  0.84670886E-03
 -0.41317108E-04  0.46451218E-02  0.12447189E-02
  0.77754204E-03  0.35599368E-02 -0.16312637E-03
  0.18551075E-03  0.29308383E-02 -0.18251036E-02
  0.56851541E-03  0.63001943E-02  0.74812847E-03
  0.31312652E-02  0.74468842E-03  0.13222711E-02
  0.40944274E-02 -0.37587428E-02 -0.31429617E-02
 -0.73950748E-04  0.79068592E-03  0.14875120E-03
 -0.42038332E-02 -0.65395226E-03 -0.15061788E-02
  0.18558884E-02  0.43478503E-02 -0.48586726E-03
  0.79753556E-04 -0.24020415E-02  0.12519928E-02
 -0.40179349E-02  0.84488328E-03 -0.42123537E-02
 -0.17282682E-03 -0.22932524E-02 -0.23969620E-02
 -0.14668236E-02 -0.29419907E-02 -0.25935290E-02
  0.28284594E-02  0.71029835E-02 -0.99959236E-05
 -0.13146268E-02  0.17031565E-03 -0.58548082E-02
  0.43259888E-03  0.81157647E-02 -0.46015692E-03
  0.12075121E-02 -0.45036924E-03 -0.41352335E-02
 -0.56077036E-02 -0.84055884E-03  0.11466984E-02
  0.47618578E-03 -0.44031637E-02  0.80227756E-03
  0.34753579E-02  0.21476676E-02  0.72165670E-03
 -0.69858415E-02 -0.89419780E-03  0.16174314E-02
 -0.41744903E-02 -0.73736647E-03 -0.40427355E-02
  0.60551759E-03 -0.17339295E-02  0.58621713E-02
 -0.15128893E-02 -0.40293664E-02  0.26611861E-02
 -0.31098567E-02 -0.27973195E-02 -0.35793867E-02
 -0.90103342E-03  0.43368578E-02  0.84112801E-03
 -0.23768762E-03  0.43507740E-02  0.14900629E-02
  0.30127193E-02  0.59089263E-02 -0.59030303E-02
  0.44682710E-02 -0.30291285E-02 -0.51653417E-02
 -0.61704997E-02 -0.45785770E-02 -0.30144513E-03
 -0.88642885E-03  0.24098978E-02 -0.25984005E-02
  0.58901975E-04 -0.20565598E-02  0.22971509E-02
 -0.55859252E-02 -0.23567087E-02 -0.54685770E-02
 -0.12241556E-02 -0.43135198E-02  0.84143144E-02
  0.17627952E-02 -0.23180131E-02 -0.32838807E-02
 -0.18295447E-02  0.28784462E-02 -0.24827487E-03
  0.19183545E-02 -0.36727200E-02 -0.38942134E-02
  0.42380594E-02 -0.55602387E-03 -0.17397560E-03
  0.20380135E-02 -0.36112566E-03  0.34656694E-02
  0.19872628E-02  0.32008817E-02  0.53778184E-02
  0.67249316E-04  0.75239707E-03 -0.25765431E-02
  0.34994267E-02  0.66454016E-02 -0.73005308E-02
  0.20482581E-02 -0.26045375E-02 -0.72628364E-05
 -0.30748330E-02  0.18246033E-02  0.41507882E-02
 -0.62515608E-03 -0.23098383E-02  0.25757968E-03
  0.24271310E-02  0.37607982E-02 -0.13823396E-02
  0.71205149E-03  0.22174617E-02  0.15644837E-02
  0.12746892E-02 -0.75464444E-03  0.18302884E-02
  0.91322120E-03 -0.87393511E-03 -0.33018222E-02
 -0.35249926E-02  0.38250833E-02  0.20268214E-02
 -0.54716885E-02  0.46784459E-03  0.37447680E-02
  0.42686780E-02  0.12579407E-01  0.20485133E-02
 -0.17618326E-02 -0.77947082E-03  0.51306714E-03
 -0.13543873E-02 -0.43673030E-03  0.11980638E-02
 -0.31821023E-03  0.98949927E-04 -0.61632497E-03
  0.30393796E-03  0.67107399E-03  0.45647096E-02
  0.11398507E-02 -0.80348443E-03  0.19606989E-03
 -0.23002476E-02 -0.29246819E-02 -0.35615286E-02
 -0.83844291E-03  0.13286468E-02  0.49391369E-02
  0.51092218E-03  0.16119687E-02  0.12419686E-02
 -0.73451297E-03  0.69936536E-03 -0.45718111E-02
  0.71120399E-02  0.37021242E-03  0.12378660E-02
 -0.39250111E-02  0.78549398E-03 -0.36083610E-02
 -0.28285685E-02  0.17936938E-02 -0.19120367E-02
 -0.15955697E-02 -0.44916171E-02 -0.37570057E-02
 -0.93092195E-03 -0.40690525E-02  0.19280463E-02
 -0.37570894E-03  0.13296114E-02  0.12848695E-02
 -0.56849631E-03  0.11033123E-02 -0.50014562E-03
  0.62054216E-02 -0.82420541E-03  0.24371970E-02
 -0.17181594E-02 -0.12589153E-02 -0.36783069E-02
  0.77361890E-03 -0.26994809E-02  0.16870828E-02
 -0.49026733E-02  0.31177970E-02  0.38387481E-02
 -0.28175974E-03  0.54970675E-02  0.57488674E-03
 -0.10931703E-02 -0.42631844E-02  0.29458641E-02
 -0.28836478E-02 -0.56295626E-03 -0.27303259E-02
  0.18098778E-02  0.12920177E-02 -0.22693825E-02
 -0.61465935E-02 -0.23509049E-03 -0.14272044E-03
  0.28244084E-02 -0.12997797E-02 -0.21505366E-02
  0.38089056E-04  0.30982433E-02  0.31787665E-02
  0.34404454E-02  0.56307611E-03 -0.19457937E-02
  0.29926357E-02 -0.11196593E-02 -0.40436095E-02
 -0.21280742E-02 -0.10748150E-02 -0.45205686E-03
  0.11848097E-02  0.41700039E-03 -0.55303887E-03
  0.39106548E-02 -0.13395225E-02 -0.20540975E-02
 -0.57632814E-02 -0.23595416E-02  0.20835951E-02
  0.66561134E-02 -0.30853354E-03  0.74922293E-02
 -0.38577318E-03  0.17938914E-02 -0.18502131E-02
 -0.18560947E-02 -0.63558434E-02  0.28995757E-02
 -0.18554734E-02 -0.47375305E-02 -0.48215551E-03
 -0.32759802E-02 -0.93653013E-03 -0.98427253E-03
 -0.34883014E-02 -0.17688225E-02  0.36618580E-02
  0.55865391E-02  0.67483453E-03 -0.47547040E-03
  0.37977988E-02 -0.41004947E-03 -0.32841135E-02
  0.31925832E-03 -0.57937930E-04 -0.30290743E-02
  0.20503882E-02  0.24468081E-02  0.20454222E-02
  0.64810573E-02 -0.26647232E-02  0.47695028E-02
  0.56397047E-03 -0.42863279E-03  0.32965671E-02
 -0.32557116E-02 -0.35630573E-02  0.14590039E-03
 -0.34569178E-03 -0.13814210E-02  0.44549122E-02
 -0.65598411E-02 -0.14996784E-02 -0.21454019E-02
 -0.41251584E-02 -0.11752300E-02 -0.34792652E-02
  0.31754427E-02 -0.32400510E-03 -0.57518845E-03
  0.20435696E-02 -0.20487866E-02  0.10983660E-03
  0.24235476E-02 -0.17413380E-02  0.23100173E-02
  0.17806682E-02  0.19726893E-02  0.37307489E-02
  0.17707990E-02 -0.60173226E-02  0.24148379E-02
 -0.36040598E-02 -0.26462062E-02 -0.15510344E-02
 -0.19227659E-02  0.29160580E-02 -0.32281217E-02
  0.23849722E-02  0.46257393E-03 -0.66033826E-04
  0.13332390E-02 -0.25865571E-02  0.11829339E-02
 -0.95573650E-03 -0.71710690E-03  0.35490426E-02
  0.35579771E-02 -0.50098424E-02  0.34063418E-03
  0.34322695E-02  0.22842571E-02 -0.69837254E-03
  0.21643714E-02  0.63895012E-03  0.41064757E-02
  0.57621817E-03 -0.42314464E-03 -0.74951194E-03
  0.16769413E-02 -0.30685252E-02 -0.32511968E-02
 
           1
   2.00000000000000     
  0.59894372E+00 -0.22529190E-02  0.00000000E+00  0.00000000E+00
  0.93475097E+00  0.12271577E-01  0.10858653E+00
  0.54680251E+00  0.52853081E+00  0.63633225E+00
  0.50999370E+00  0.59233290E+00  0.98680350E+00
  0.17919382E-01  0.95748063E+00  0.37750748E+00
  0.26524089E+00  0.94345559E+00  0.85130387E+00
  0.19535849E-01  0.53240702E+00  0.36641598E+00
  0.94971075E+00  0.51043428E+00  0.13384279E+00
  0.30941120E+00  0.26151629E+00  0.19193861E+00
  0.59237890E+00  0.72814595E+00  0.77650550E+00
  0.73706999E+00  0.29015483E+00  0.89805015E+00
  0.73807892E+00  0.74446437E+00  0.50196519E+00
  0.24421866E+00  0.22295406E+00  0.87114967E+00
  0.68808349E+00  0.68994597E-01  0.12784500E+00
  0.24736790E+00  0.74280174E+00  0.48506479E+00
  0.98239146E+00  0.96962109E+00  0.72412676E+00
  0.41899629E+00  0.53892832E+00  0.37026154E+00
  0.27614680E+00  0.27159860E+00  0.49796412E+00
  0.62516084E+00  0.77662938E+00  0.63030621E+00
  0.45582551E+00  0.28625901E-03  0.13207111E+00
  0.96613548E+00  0.49280843E+00  0.88009248E+00
  0.51445283E+00  0.11061364E-01  0.38658724E+00
  0.22277499E+00  0.23883251E+00  0.33697339E+00
  0.75893195E+00  0.48255898E-01  0.87320046E+00
  0.77003552E+00  0.25689866E+00  0.63615705E+00
  0.22788203E+00  0.77644828E+00  0.14078141E+00
  0.29446894E+00  0.25236823E+00  0.72594900E+00
  0.73737963E+00  0.77681408E+00  0.99058875E+00
  0.69040119E+00  0.50619766E+00  0.37898115E+00
  0.47959087E+00  0.48940199E+00  0.50456175E+00
  0.46442295E+00  0.90067572E+00  0.98522602E+00
  0.20635226E-01  0.45325026E+00  0.62979933E+00
  0.18701555E+00  0.70807262E+00  0.73129809E+00
  0.14932101E-01  0.78841413E+00  0.25157917E+00
  0.52234803E+00  0.24503433E+00  0.76014456E+00
  0.97398486E+00  0.37202744E-01  0.97272725E+00
  0.49495907E+00  0.25870624E-01  0.52346001E+00
  0.49245098E+00  0.38473657E+00  0.46839591E-01
  0.71199689E+00  0.23623637E+00  0.21610869E+00
  0.80934560E+00  0.73770727E+00  0.74121105E+00
  0.75408762E+00  0.74433885E+00  0.25788768E+00
  0.30880368E-01  0.22230109E-01  0.24613653E+00
  0.49897271E+00  0.51688723E+00  0.77373049E+00
  0.46778882E+00  0.97682085E+00  0.72181547E+00
  0.99519846E+00  0.53462817E+00  0.24962349E+00
  0.23464481E+00  0.22191134E+00  0.50257902E-02
  0.47642853E+00  0.75143221E+00  0.50658934E+00
  0.98439565E+00  0.77841273E+00  0.52146675E+00
  0.78339679E+00  0.27580587E+00  0.91387632E-04
  0.29958106E+00  0.27662284E-01  0.63638212E+00
  0.52714318E+00  0.24134510E+00  0.28272224E+00
  0.99392392E+00  0.47257369E+00  0.76363482E+00
  0.53215020E+00  0.97458893E+00  0.25980416E+00
  0.21288396E+00  0.47292425E+00  0.36486670E+00
  0.13098213E-01  0.76219440E+00  0.39236885E-02
  0.77381253E+00  0.26855966E+00  0.48982548E+00
  0.23544698E+00  0.71664217E+00  0.75962171E-02
  0.95248130E-02  0.25320727E+00  0.16073507E-01
  0.53890337E+00  0.23960256E+00  0.48697610E+00
  0.52221465E+00  0.13456804E+00  0.29081354E-01
  0.24803806E-01  0.97509256E+00  0.50047223E+00
  0.52119141E+00  0.11461599E-01  0.91259960E+00
  0.41358940E-02  0.50030739E+00  0.49452090E+00
  0.17082950E-01  0.53953617E+00  0.99649272E+00
  0.64844965E+00  0.69506376E-01  0.65108316E+00
  0.96847175E+00  0.25459377E+00  0.24147373E+00
  0.79904189E+00  0.76231107E+00  0.87406221E+00
  0.27424625E+00  0.73699994E+00  0.25200288E+00
  0.75810478E+00  0.26144802E+00  0.76922052E+00
  0.75020216E+00  0.75590338E+00  0.36861987E+00
  0.98073215E+00  0.23542287E+00  0.74338401E+00
  0.75683479E+00  0.25293701E+00  0.36236327E+00
  0.24249112E+00  0.72921484E+00  0.61379167E+00
  0.27356045E+00  0.49809954E+00  0.11655098E+00
  0.85116230E+00  0.93861776E+00  0.62706547E+00
  0.16080267E-01  0.17049473E-01  0.83975452E+00
  0.25400230E+00  0.73431803E+00  0.36717979E+00
  0.29985246E+00  0.49803633E+00  0.87499779E+00
  0.78912668E+00  0.14238014E-01  0.36798748E+00
  0.74031804E+00  0.73245353E+00  0.12541963E+00
  0.29155044E+00  0.46636956E+00  0.61832144E+00
  0.71613569E+00  0.54224561E+00  0.87798519E+00
  0.25206787E+00  0.15016507E-01  0.38813788E+00
  0.82369557E+00  0.56566750E+00  0.61721908E+00
  0.26140624E+00  0.12629262E-01  0.13597010E+00
  0.20225536E-01  0.26864570E+00  0.49546414E+00
  0.69930401E+00  0.47116795E+00  0.12869381E+00
  0.20925267E+00  0.74322734E+00  0.86047939E+00
  0.50326683E+00  0.52773548E+00  0.26263313E+00
  0.31443545E+00  0.99752383E+00  0.26796395E+00
  0.76862550E+00  0.50123294E+00  0.76585809E+00
  0.22542675E+00  0.98886520E+00  0.75156896E+00
  0.74058155E+00  0.49848532E+00  0.26174677E+00
  0.22183014E+00  0.96997343E+00  0.11672450E-02
  0.75291875E+00  0.50541720E+00  0.50469745E+00
  0.26344751E+00  0.19926922E-01  0.50141036E+00
  0.76668765E+00  0.53294914E+00  0.99995210E+00
  0.74505241E+00  0.18973428E-02  0.75738166E+00
  0.24960080E+00  0.51771181E+00  0.23795634E+00
  0.26852821E+00  0.48345008E+00  0.74488778E+00
  0.76080238E+00  0.99446640E+00  0.24482629E+00
  0.24676231E+00  0.52184483E+00  0.49375654E+00
  0.73796942E+00  0.26175879E-01  0.98946752E+00
  0.74295014E+00  0.99216785E+00  0.49814448E+00
  0.27240208E+00  0.46185567E+00  0.98825473E+00
  0.99904224E+00  0.26529076E+00  0.36839606E+00
  0.46703679E+00  0.74973991E+00  0.87112171E+00
  0.51570391E+00  0.25390984E+00  0.61292057E+00
  0.99242924E+00  0.76442325E+00  0.12746688E+00
  0.98446322E+00  0.26251243E+00  0.87763227E+00
  0.49713980E+00  0.76195847E+00  0.36886431E+00
  0.99430986E+00  0.73867161E+00  0.62787008E+00
  0.50728074E+00  0.23821608E+00  0.12953495E+00
  0.15531022E+00  0.39438298E+00  0.41542557E-01
  0.65443426E+00  0.90703342E+00  0.55531640E+00
  0.64817556E+00  0.14471480E+00  0.94489274E+00
  0.15039727E+00  0.60413612E+00  0.43788528E+00
  0.36694932E+00  0.33045228E+00  0.95421367E+00
  0.84339685E+00  0.88769275E+00  0.44503428E+00
  0.83037861E+00  0.10661102E+00  0.50071651E-01
  0.34762856E+00  0.61486741E+00  0.55086510E+00
  0.85738670E+00  0.97650732E-01  0.19556283E+00
  0.35498581E+00  0.58767505E+00  0.69477715E+00
  0.86821049E+00  0.91220817E+00  0.30223101E+00
  0.38301608E+00  0.38579982E+00  0.79263984E+00
  0.15623571E+00  0.62524286E+00  0.29591892E+00
  0.63903117E+00  0.95168325E-01  0.80241472E+00
  0.13778984E+00  0.43503683E+00  0.18692200E+00
  0.65308824E+00  0.89119134E+00  0.70607789E+00
  0.85638094E+00  0.63659383E+00  0.95112880E+00
  0.36852894E+00  0.12341326E+00  0.45747476E+00
  0.86736837E+00  0.41734389E+00  0.55436808E+00
  0.32162355E+00  0.88565885E+00  0.57295556E-01
  0.15847149E+00  0.11604008E+00  0.54678568E+00
  0.66692772E+00  0.61457199E+00  0.60523315E-01
  0.12506166E+00  0.87686767E+00  0.94674354E+00
  0.64076361E+00  0.40653523E+00  0.45682674E+00