Na88 Sn16 P8 Se96                       
   1.00000000000000     
    14.0793397336999995    0.0000000000000000    0.0000000000000000
     0.0000000000000000   14.0793397336999995    0.0000000000000000
     0.0000000000000000    0.0000000000000000   28.1586794673000007
   Na   Sn   P    Se
    88    16     8    96
Direct
  0.7152099890128316  0.0212065020417597  0.1228808642079825
  0.5216372866260878  0.4894306180011223  0.7289477890478797
  0.4902184223687081  0.5000708476126048  0.9880521241889947
  0.0484660605655714  0.9853509579936718  0.3732942445853135
  0.5075789923716664  0.0121930915470064  0.8817050373324641
  0.9708060626617768  0.5032177915056156  0.3734925311288297
  0.2656128757523267  0.4711669769556106  0.1332012330671699
  0.2368144726899506  0.2213873754965540  0.1084456794494323
  0.7351173746990254  0.7613183440351158  0.6060909721957122
  0.7757457191650521  0.2841441536471726  0.8497842032105023
  0.7600602276712826  0.7574366341494004  0.3979108095446626
  0.2342557498201339  0.2676078657737056  0.7508817778983773
  0.7554142324039536  0.2671748309220733  0.1365765910991769
  0.2383496230296354  0.7559266699368197  0.6224003779891047
  0.0120514374672761  0.9637300369142845  0.8890227603552303
  0.5028621725412106  0.4966879664201455  0.3867264649881981
  0.7584290485664885  0.9791062764075810  0.6380278326738916
  0.0141093692448744  0.5310358809275043  0.5080097503744059
  0.4690880249541938  0.9995245713165044  0.0015400609272772
  0.0057377159087667  0.5060826650006746  0.8750729659577472
  0.5007195027079469  0.0131645881446456  0.3719915468983880
  0.2479692905554118  0.2314694193840445  0.2485564745298746
  0.7619255921195336  0.7493735533647754  0.8422833866299082
  0.7560801761154343  0.4882285894030589  0.6198765636374859
  0.2514044756714581  0.7261558587347311  0.2492864144084646
  0.2435218749982068  0.2434217112476550  0.6248137186941011
  0.7197608535747285  0.7744223405530518  0.1211229907121332
  0.7478466735493653  0.2555390041689150  0.4079042257617306
  0.5251548623118013  0.7581499591269455  0.5052544857203286
  0.2456730367587204  0.1766713355747109  0.9927633324822586
  0.9988261820967419  0.0057363699108726  0.5007224809260815
  0.2317617864182587  0.7738976020841416  0.7511964924956459
  0.0060486350308796  0.7251750536401796  0.2734332517678634
  0.7374211230676800  0.2737798313736726  0.7234244639048804
  0.9766338032257068  0.9587660531991447  0.0059898328584063
  0.5372666360001298  0.2372387139872865  0.4902740325825467
  0.5311001979801697  0.2683132966477215  0.0007432309989424
  0.5125715278914567  0.2382587187221368  0.2632288733062529
  0.7963854755848520  0.7748563573078748  0.7311453565765461
  0.4964484592326611  0.7421821720891069  0.2402964939576295
  0.0108064004456208  0.9663192465292990  0.2449765025322649
  0.4877539147003669  0.4935837809104569  0.8738469272385968
  0.4890167686903652  0.0467103674484009  0.7478731363446541
  0.9951614978777122  0.4608484341148942  0.2575940108745838
  0.0048209697241310  0.2548082752811597  0.0210824692434116
  0.9909676328929953  0.7779091380606047  0.4956888059593831
  0.2756750506702387  0.7652485487478675  0.4900139846463079
  0.7604617602598861  0.2680975444823949  0.9817164368649974
  0.0082504074159634  0.9546045097583401  0.7468172108628339
  0.4887154371676006  0.4778195039035477  0.2413632773646733
  0.0319628732423248  0.4835057675674867  0.7624670253405729
  0.4925665069664255  0.0171624959639859  0.2282972065627677
  0.2842576335529468  0.2521213718185644  0.5030685588846485
  0.7945884346548620  0.7624845162432118  0.0068863366628694
  0.7634924730940774  0.2554447895882561  0.5946629780446854
  0.2080170959857831  0.6993934210621484  0.9990082683922548
  0.9813647626006022  0.4884136193960777  0.1394413531010066
  0.5196214456978271  0.4823723420799402  0.5031116397347754
  0.4911833273839123  0.5322424010535071  0.1199483919048681
  0.9800296191971543  0.0290324869549858  0.6243715288592160
  0.5088262399585777  0.7371230618227778  0.0028026421978653
  0.9803816842391544  0.2318181933042446  0.5033687530278721
  0.0005889667362136  0.5238975114734369  0.0053860213971537
  0.4923814508724246  0.9668302659188827  0.4922464668218764
  0.0403463188783889  0.2374566514501158  0.2182740737214589
  0.5196952655790973  0.7597736547334329  0.7383562073264567
  0.2502264993096958  0.7270390567814250  0.3778028607594634
  0.9959893412032294  0.2400197186592926  0.7484367406129326
  0.7419824673157296  0.7481012567438742  0.2416832987602898
  0.5267893246211574  0.2796380642772778  0.7739219939495744
  0.7662748924988574  0.2465456698659708  0.2655473125915809
  0.2819994878380625  0.7910926559656534  0.8724742844614157
  0.2520143334951747  0.7585767464870606  0.1116257788921012
  0.4523440225575662  0.0062967064891502  0.6293606230829856
  0.7268834124901250  0.9825173849406614  0.8820454140221733
  0.2172833712250423  0.4780588511312777  0.3792825950389559
  0.2573807678700870  0.4487148382155708  0.8838662418935976
  0.7703861507122662  0.0227238657818141  0.3752702406786024
  0.3007817262857517  0.9914359157514508  0.1268750478648848
  0.2884285843293706  0.4942849904859702  0.6248753816589964
  0.7754585150851473  0.5112193400214519  0.8573249097968901
  0.2704679545514367  0.2175315320550796  0.3690017767089115
  0.0466073092470735  0.5318931900608527  0.6333549410205488
  0.0423045505073891  0.9926689721633238  0.1226761705564870
  0.2191777184333469  0.9872384186743167  0.6239069370168036
  0.7394591181634103  0.5000772839290475  0.1228805657385571
  0.1825181388696439  0.0936065310722349  0.8702934248630549
  0.7153118435023704  0.5238456037086575  0.3738122132414205
  0.2544830525262219  0.9810198223523902  0.2507379872474930
  0.7754422790086813  0.5529559484038296  0.7355126989688576
  0.2617938534493602  0.0073207696190213  0.7598629187869026
  0.7428268614722784  0.5009216701393331  0.2446493349986054
  0.2405061208864764  0.9354531461357620  0.9913542449907427
  0.7723110744767837  0.5026712117448444  0.4941585132684167
  0.2465572430799705  0.9932757310213121  0.4921859068056763
  0.7363907170667294  0.5101755292488692  0.9916691488109870
  0.7514024627476471  0.0154288521973649  0.7476433159894643
  0.2442868984974312  0.5008776216405446  0.2546247377833106
  0.2606598230835682  0.5188398407276696  0.7534928881805941
  0.7682860726470164  0.0026950925034786  0.2456037035452724
  0.2691651982195977  0.5128592399602263  0.5019182149324186
  0.7342560074075751  0.0117652623613728  0.9973993669981037
  0.7598132451420341  0.9886080135137496  0.4991838271924748
  0.2612867060989356  0.4389667372205898  0.9977045595142705
  0.0016131853206783  0.2366888032006310  0.3642907313771787
  0.5058513910926509  0.7407014533742595  0.8697471215397271
  0.5245300005233922  0.2659922193378322  0.6200437632047646
  0.9846389131798436  0.7410809047444804  0.1264406754971468
  0.9908236241451582  0.2396095193156151  0.8820960708008951
  0.5019969806364339  0.7463406286148750  0.3716966990877146
  0.9970556314308315  0.7663127973397178  0.6254492561262477
  0.4891041711152833  0.2486865018635642  0.1238550469171078
  0.1484382848864550  0.3739625463084892  0.0608437751605082
  0.6631884963258768  0.8915077106246125  0.5534631684381615
  0.6279584544115159  0.1222266620763014  0.9517056033544882
  0.1466946442801615  0.6053526946223359  0.4497375904519332
  0.3725366702682151  0.3490369364312921  0.9468281119068493
  0.8664891054018162  0.8955207252554169  0.4443328550196573
  0.8449283789416868  0.1022635980407570  0.0471303899301034
  0.3642160435745310  0.6383881532361315  0.5503318390349248
  0.8746765118064987  0.1233388899824714  0.1902476627103897
  0.3415666340060651  0.6291316179586989  0.6997245645289262
  0.8513496021190605  0.9084427814277833  0.3027453042978103
  0.3758029027749086  0.4028623718521617  0.7940105357954822
  0.1270677844840894  0.5794421457676376  0.3112211538601520
  0.6565814713323528  0.1349633108402667  0.7930866774312078
  0.1252546924444647  0.4005806964533836  0.1932625467679521
  0.6412275071300735  0.9045979323412154  0.7039210995021266
  0.8345464972463935  0.6112007833551455  0.9362917399778576
  0.3589599230178674  0.0957978755574963  0.4460745838959198
  0.8682018689009015  0.3713184118331646  0.5406162069012490
  0.3629921540164167  0.8560971477601880  0.0430020664946846
  0.1405371838031406  0.1046479254314872  0.5473197681877446
  0.6226548317097287  0.5942684068327057  0.0505611830435837
  0.1118696596180810  0.8435169825312328  0.9546141067240554
  0.6428465693996261  0.4114429381694232  0.4413263740155599
  0.6447856383957943  0.3900996531625078  0.3063858772718727
  0.1560287602795728  0.9283502580686728  0.8202270726912123
  0.1734186180496086  0.1240962670042815  0.7088713614777143
  0.6383927576945565  0.5934240147646727  0.1883073638293842
  0.8701742524941257  0.4403353545483956  0.6864483884665518
  0.3591101018319336  0.8710704291529733  0.2027106162302318
  0.3749061630837018  0.0833269690611454  0.2962615745533648
  0.8964703045816161  0.6279944193369481  0.7957201782856473
  0.1582445040885936  0.0610225280364116  0.0544767390385795
  0.6727502625113766  0.5979928030228121  0.5465381210060842
  0.6359430528097336  0.4012073958782253  0.9465437062237144
  0.1333065684630147  0.8729971896073306  0.4576056340819157
  0.3297449831671003  0.0268184367186911  0.9330511918891964
  0.8786622344426629  0.6181611553537865  0.4456931491049664
  0.8500875633232805  0.4134086748403920  0.0505181231655165
  0.3539407085882439  0.9142463971665463  0.5481196568907757
  0.1671341678847248  0.0857241767751793  0.1922965401935834
  0.6485462047148867  0.6287057329756551  0.6781241670468786
  0.1659632857581665  0.8646717120878351  0.3101312633514874
  0.6799037556409925  0.4234417007247195  0.7877688575136942
  0.8241062577405818  0.6174435242993899  0.2965114111190153
  0.3642206124323014  0.1212192210825013  0.8139288654827603
  0.8378586103466414  0.3710296788797098  0.2007052253550309
  0.3117976154853110  0.8954781527598711  0.6942906643554592
  0.8509969224267168  0.9087737328221621  0.9405262720763906
  0.3637686051831660  0.4047577236960893  0.4393588794653422
  0.8591933142497616  0.0953365250288359  0.5572408703657662
  0.3492659898118047  0.5789075156588551  0.0443339340101875
  0.1796210248447079  0.4049093519675953  0.5595051165762742
  0.6505721205939294  0.8888479063249088  0.0472263696484664
  0.1435116380893564  0.5403470698096514  0.9462788135030497
  0.6453536815219482  0.0702014365616902  0.4522412990832207
  0.3427150178642447  0.3839363351051726  0.2984913340942872
  0.8620510365250389  0.9172773888233866  0.8046863296110680
  0.8698026512993289  0.1226559700397936  0.7015218162720804
  0.3459631886025050  0.5977034633289272  0.1985520417766974
  0.1623490941832574  0.4096261519266876  0.6969079883449457
  0.6500921311469754  0.9000665677051084  0.1910642340504959
  0.6578161318106757  0.0979170302615981  0.2997139020601111
  0.1815406480746609  0.5969311367527965  0.8189763744088794
  0.0900505935718491  0.1542036835400278  0.3155772301785825
  0.5709915821977823  0.6434730275073928  0.8190420910570925
  0.6208456475215453  0.3705512581317614  0.6561777765196155
  0.0929370384921440  0.8156925247076711  0.1742181978366740
  0.4289449222021487  0.2104566387520660  0.6768713795202016
  0.8616110487290958  0.6579918836175163  0.1649525036072047
  0.9006997053287673  0.3327433818269147  0.3310584802154922
  0.4376213883273807  0.8484440172533484  0.8198106538089216
  0.0426781265033820  0.1622818298349593  0.9409245338366851
  0.5848301863564521  0.6527169619611470  0.4249064841463647
  0.0836655183928140  0.8690036311055644  0.5846007434827702
  0.5624334271372108  0.3664367184888777  0.0877899335853984
  0.9214698142726686  0.6794332418606134  0.5761676444854752
  0.4256836382080669  0.1513712485628192  0.0673150458570628
  0.9090820506225799  0.3581063007139769  0.9122329374617625
  0.4008728152193866  0.8411758052203497  0.4136958957544293
  0.8884746989020164  0.8547572905163869  0.6592572086398998
  0.3789509959003248  0.3257674964313523  0.1675759536673875
  0.9259732937694178  0.1462614475811207  0.8325358116160296
  0.4058842181183814  0.6610689468297839  0.3228402604208873
  0.1084559777386438  0.3074388728021908  0.8418315292557068
  0.6002153224661156  0.8322279367594120  0.3286624250305890
  0.0820579049531055  0.6970115536220708  0.6837720998407044
  0.5978444702454723  0.1722089478126508  0.1811752362181330
  0.4247013098322236  0.3385707028513627  0.5694700800706970
  0.8971978202133940  0.8409715521891787  0.0850452107104185
  0.9203604816153643  0.1443694542999340  0.4136863344409480
  0.4004506075353862  0.6526633691194247  0.9150522583042858
  0.1020135303302751  0.3085621758214532  0.4096743959459425
  0.6056155359874793  0.8291757975076712  0.9132686550340539
  0.6035651838345313  0.1390107820501853  0.5888556612604028
  0.0862245597285347  0.6405882416474555  0.0857454718743874
 
  0.45308621E-02  0.10851622E-02  0.79280395E-02
  0.14407818E-02  0.36230908E-02 -0.39950140E-02
  0.24834859E-02  0.67393620E-02 -0.30321017E-02
  0.20226649E-03  0.31660190E-02 -0.74736278E-02
  0.98219184E-02  0.31335688E-02 -0.97689403E-03
  0.75819899E-03 -0.19209426E-02 -0.51352278E-02
 -0.45081702E-02 -0.34962188E-02 -0.28185524E-02
 -0.45803692E-02  0.15663904E-02 -0.44540170E-02
  0.43195202E-02  0.69014122E-03 -0.14933943E-03
  0.21851037E-02 -0.35052375E-02 -0.23754428E-03
  0.71818294E-03 -0.13495645E-02  0.80414173E-02
 -0.54341621E-02  0.41376240E-02 -0.10626082E-01
 -0.19758873E-03 -0.82892209E-02 -0.50172519E-02
  0.60122557E-03  0.69809751E-02 -0.43649277E-02
 -0.32452173E-02 -0.86363187E-02 -0.99955312E-02
 -0.30856037E-02  0.82201876E-02  0.13687627E-02
 -0.20377418E-02  0.39629217E-02  0.58031452E-02
 -0.10689330E-02 -0.24157495E-02  0.64233044E-02
 -0.17654720E-02 -0.73371716E-02  0.12853906E-02
  0.53020817E-02  0.63470189E-02 -0.55808740E-02
  0.23026433E-02 -0.59875303E-02  0.36449148E-02
  0.44184501E-02 -0.54181424E-02 -0.30647026E-02
 -0.81684530E-04  0.18890284E-02 -0.35272281E-02
 -0.27340957E-02 -0.26178337E-03 -0.34397414E-02
  0.36659517E-02  0.30755505E-02  0.28269942E-02
  0.38387958E-02  0.28393305E-02 -0.39447998E-02
 -0.35133678E-02 -0.46580182E-02 -0.52003356E-02
  0.11725415E-01  0.48857025E-02  0.41650777E-03
 -0.72854929E-02  0.16739962E-02 -0.31034710E-02
 -0.41813060E-02  0.62832482E-03 -0.52981094E-02
  0.27654229E-02 -0.31813965E-02 -0.91999231E-02
 -0.64542787E-02 -0.67858958E-02  0.83296780E-03
  0.28666131E-02 -0.51262374E-02  0.55643098E-02
  0.35618775E-02 -0.16860252E-04 -0.79971252E-02
  0.43969412E-02  0.56640327E-02 -0.26670887E-02
 -0.62549857E-02 -0.32189260E-02  0.52574707E-02
  0.50452779E-02 -0.10521124E-02 -0.57822044E-02
  0.99492537E-03 -0.48614062E-02  0.39460679E-02
  0.41576268E-02 -0.30437250E-02  0.68026502E-02
 -0.30030367E-02  0.57048746E-02 -0.49900004E-02
 -0.68806038E-03 -0.12029995E-02 -0.41728485E-02
 -0.34031115E-03  0.21047151E-02  0.11247644E-02
  0.32540075E-02 -0.58827146E-02  0.51139663E-02
  0.33255915E-02 -0.85131896E-02  0.17765985E-02
 -0.53114982E-02 -0.30130897E-02  0.28671892E-02
  0.10950956E-01  0.28444755E-02 -0.25347951E-03
  0.18733745E-02 -0.80993338E-02 -0.13256533E-02
  0.29110541E-02 -0.11957948E-01 -0.25037511E-02
  0.26582119E-02  0.39371306E-02 -0.28581422E-02
 -0.44137664E-02  0.45043249E-02  0.83137958E-03
  0.21118513E-03  0.22098921E-02 -0.31663055E-02
  0.13283769E-02 -0.15513671E-01  0.27471872E-02
 -0.98898340E-03 -0.26964439E-02 -0.57299622E-03
 -0.39673873E-03 -0.72351409E-02  0.15896118E-02
 -0.16630052E-02 -0.15874125E-04  0.71795520E-02
  0.91281572E-03  0.29101751E-02 -0.46143048E-02
 -0.14415240E-02  0.43291560E-02 -0.51271082E-02
 -0.13584553E-02  0.97855119E-03 -0.31992252E-02
 -0.25400704E-02 -0.76801135E-03 -0.76637341E-03
  0.45684532E-02 -0.40263050E-02  0.32871222E-02
 -0.10390076E-02 -0.60673902E-02  0.12548271E-02
 -0.39922262E-02 -0.35550994E-02 -0.94698621E-02
 -0.64263016E-03  0.21603799E-02 -0.20562888E-02
 -0.32839423E-02 -0.16732432E-02 -0.55624375E-02
 -0.27871549E-02  0.21969201E-02  0.14577988E-02
  0.35955409E-02 -0.21843468E-02  0.23560817E-02
 -0.10226529E-02 -0.16834380E-02 -0.15989959E-02
 -0.34015222E-02  0.41314160E-02 -0.54639123E-02
  0.17201734E-02 -0.77980389E-02 -0.67354725E-03
 -0.14045584E-02 -0.74560358E-02  0.18742424E-02
 -0.17290421E-02 -0.65374170E-02  0.10354719E-01
 -0.23904253E-02  0.70117343E-03 -0.79399182E-03
 -0.15026361E-02  0.42038810E-02  0.62249525E-02
  0.16909625E-02 -0.38406436E-02  0.20728007E-02
 -0.35112860E-02  0.34660029E-02  0.45547621E-02
 -0.30560008E-02  0.31251284E-02  0.68113280E-03
  0.38016217E-03  0.77750654E-02 -0.57100719E-02
 -0.21630829E-02  0.52180418E-02  0.16156810E-02
 -0.60423683E-02 -0.39142696E-02 -0.57950413E-02
 -0.26103627E-02  0.11683569E-01 -0.42978350E-03
 -0.28517586E-02 -0.63472707E-02 -0.13844920E-02
  0.70280222E-02  0.51209012E-02  0.36870829E-02
 -0.26064654E-02  0.26347096E-02 -0.44141282E-02
 -0.49079325E-02  0.51290437E-02  0.97281833E-02
 -0.85047923E-02 -0.24175848E-03 -0.90168249E-02
 -0.63883131E-02 -0.22859385E-02 -0.22605969E-02
 -0.41223560E-03  0.94479621E-02 -0.77540138E-02
  0.24066550E-02 -0.85220086E-02  0.21443933E-02
  0.30574437E-02  0.25819040E-02  0.19307859E-02
 -0.10853654E-02 -0.10681610E-02 -0.49981310E-02
  0.20146032E-02 -0.22961253E-03  0.31235660E-03
  0.18132231E-02 -0.39309157E-02 -0.11532398E-02
 -0.97016811E-04  0.51913714E-03 -0.12896249E-03
 -0.12367121E-02 -0.16812524E-02 -0.17995888E-03
  0.75118558E-03  0.59986780E-03  0.46370669E-02
 -0.14280189E-02  0.17727949E-02 -0.23607618E-02
 -0.12727366E-02  0.18540709E-02 -0.12396944E-02
  0.20114081E-02  0.72723228E-03 -0.50430246E-03
  0.38544629E-03  0.13874912E-02  0.40110445E-02
 -0.22309303E-02  0.46425102E-02  0.10284574E-02
 -0.15970498E-02  0.23840713E-02  0.35173810E-02
 -0.10111805E-02  0.96665193E-03  0.15227516E-02
 -0.43789088E-03  0.23687000E-02 -0.13940277E-03
 -0.25058331E-03  0.38917814E-02 -0.20748534E-02
  0.54071839E-02 -0.46184102E-02  0.60440300E-03
  0.49428055E-02 -0.56537616E-03 -0.62943653E-02
 -0.26217853E-02 -0.86850214E-03  0.23224726E-02
  0.10741869E-02 -0.26095374E-02  0.19790602E-02
  0.34521494E-02 -0.17101909E-03  0.38184302E-02
 -0.46431354E-02 -0.26572040E-02  0.18721347E-02
 -0.86465362E-03 -0.29236404E-02  0.23689834E-02
  0.67917553E-02  0.97219060E-04 -0.27272369E-02
  0.82004203E-04  0.57622060E-03  0.48250049E-02
 -0.42001441E-02 -0.63472060E-03 -0.22650126E-02
  0.22235553E-02 -0.54937032E-02  0.27739993E-02
 -0.15930033E-02  0.29992211E-02 -0.34462328E-02
  0.27379032E-02  0.42248080E-04  0.47127204E-03
  0.33710556E-03  0.24389751E-02  0.75973999E-03
  0.22441110E-02  0.88963058E-04  0.25795098E-03
  0.48608839E-02 -0.64043629E-03 -0.10632555E-03
 -0.19579608E-02 -0.19847062E-02 -0.16382722E-03
  0.14563306E-03  0.46908548E-02 -0.55360057E-03
  0.70070764E-03  0.26239492E-03 -0.26140643E-02
  0.15031213E-02 -0.16769346E-02  0.21593904E-02
 -0.89511786E-03  0.14164776E-02 -0.27667895E-03
  0.41996111E-02 -0.13141565E-03  0.24565227E-02
 -0.13122318E-02  0.28744954E-02 -0.42202901E-03
 -0.32953051E-02  0.20991570E-02  0.26014113E-02
  0.18764266E-02  0.88009324E-03 -0.23277098E-02
 -0.40799706E-02  0.50732389E-02  0.13103511E-02
  0.33092953E-02 -0.83960176E-03 -0.45814918E-03
 -0.18552856E-02 -0.30822194E-03 -0.33406525E-02
 -0.31660057E-02  0.39646996E-02  0.25977287E-02
 -0.31703796E-02  0.15474806E-02  0.20007429E-02
 -0.26144025E-02  0.49687268E-02  0.18301783E-02
  0.48250167E-02  0.13068326E-02 -0.15832028E-02
 -0.12415104E-02 -0.55632996E-02  0.12526570E-03
  0.21165979E-02 -0.13077177E-02  0.17709891E-02
 -0.75097359E-03 -0.37889363E-02 -0.34427969E-02
 -0.26713220E-02  0.27939436E-02 -0.24730027E-02
  0.44068787E-02 -0.53962514E-02 -0.95287586E-03
 -0.47752267E-02 -0.74041104E-03 -0.43987937E-02
  0.28148323E-02  0.14069462E-02 -0.83438736E-03
  0.26542320E-02 -0.19079373E-02  0.24077383E-03
  0.39922732E-02  0.58548438E-03  0.51533349E-03
 -0.95036595E-03  0.12149932E-02  0.15934167E-03
  0.28141538E-02  0.30008015E-03 -0.15881104E-02
  0.20669515E-02 -0.18648180E-02  0.17894676E-02
 -0.26737276E-02 -0.40057347E-03  0.38547439E-02
  0.35258581E-03 -0.45363015E-02 -0.73292078E-03
  0.57849483E-03  0.10928413E-02 -0.73752562E-03
  0.16959887E-03  0.41023172E-02 -0.21034315E-02
 -0.44468586E-02 -0.25552396E-02  0.93350274E-03
 -0.26864858E-02  0.15891150E-02 -0.81170001E-03
 -0.11085620E-02  0.14611831E-02 -0.30629628E-02
  0.21252523E-03 -0.11962184E-04 -0.15246259E-02
 -0.22963634E-02  0.61514262E-04  0.98880496E-03
  0.15155925E-02 -0.17326131E-02  0.12479530E-02
 -0.28958220E-02 -0.22329801E-02  0.17379977E-02
 -0.39264005E-02  0.55217505E-04 -0.16566846E-02
 -0.12126923E-02 -0.36904321E-02 -0.22696821E-02
 -0.13432094E-02  0.67158171E-03 -0.32235024E-02
 -0.20983038E-02  0.22732614E-02 -0.15093963E-02
 -0.44862234E-03  0.17168768E-03  0.10696145E-02
  0.28473926E-02  0.26400177E-02 -0.13055207E-02
 -0.35656673E-02 -0.36690625E-02 -0.83296869E-03
 -0.28047850E-02 -0.64566197E-03 -0.51409852E-03
  0.97203843E-03 -0.71624284E-03  0.14399352E-02
  0.34422072E-04  0.32726598E-02 -0.10532545E-02
 -0.10000059E-02 -0.36131362E-03  0.20917024E-02
  0.12803373E-02 -0.55403691E-02  0.24781044E-02
  0.33687149E-04  0.23559651E-02  0.31148754E-02
 -0.21152538E-03  0.11662097E-02  0.21835812E-02
 -0.21636019E-03 -0.10195880E-02  0.14528488E-02
  0.83451648E-03 -0.13354629E-02 -0.30138926E-02
  0.50227412E-02  0.77114495E-04 -0.56866302E-03
  0.21452542E-02 -0.25126334E-02  0.14587477E-02
 -0.17711230E-02 -0.47847692E-02 -0.38853473E-02
  0.30990426E-02 -0.11515711E-02 -0.27202699E-02
  0.68394793E-04 -0.30873955E-03  0.35097934E-02
 -0.25008431E-02 -0.21960340E-02  0.14985741E-02
 -0.15730895E-02  0.12271190E-02  0.35144714E-02
  0.90078837E-03 -0.54918587E-03  0.30066062E-02
 -0.63044642E-03  0.47045018E-02 -0.43990975E-03
  0.64092820E-05  0.40247812E-02  0.12942587E-03
 -0.81851989E-03  0.13290587E-02 -0.55633803E-02
  0.30781475E-02 -0.24485697E-02  0.21044190E-02
  0.56264764E-03 -0.51473373E-02  0.15753766E-03
  0.42061915E-02 -0.16659655E-02  0.22076106E-02
  0.11201154E-03 -0.31473153E-02  0.19899479E-02
 -0.10380981E-02  0.14595081E-02  0.25747153E-02
  0.36426516E-02 -0.46592522E-03  0.21597476E-02
  0.15891611E-02  0.96960290E-03 -0.16973676E-02
 -0.15914714E-02  0.61606793E-03  0.19912562E-02
  0.17957365E-02  0.59371957E-04 -0.33651425E-02
 -0.31344754E-02 -0.16452546E-02 -0.23815041E-02
 -0.99944487E-03 -0.52421425E-03 -0.24584705E-02
 -0.13098934E-02 -0.27372736E-02  0.54530857E-02
 -0.21815582E-02 -0.73844094E-04 -0.20228255E-02
  0.10241098E-02 -0.37756105E-02  0.94520099E-03
  0.16629869E-02 -0.46829519E-02 -0.28304727E-03
 -0.56548822E-03 -0.37062229E-03  0.36966040E-02
  0.18504260E-02 -0.92165560E-03 -0.38004925E-02
 -0.20706611E-02  0.47619672E-02  0.45709633E-02
 -0.31609561E-03  0.56220109E-02  0.39651035E-02
 -0.16590166E-02 -0.28263347E-02 -0.19641034E-02
  0.20769991E-02  0.46542402E-02  0.28486298E-02
  0.16998270E-02  0.41261618E-02  0.27087585E-02
 
           1
   2.00000000000000     
  0.60103587E+00  0.14554315E-02  0.00000000E+00  0.00000000E+00
  0.71585361E+00  0.21360652E-01  0.12344396E+00
  0.52184195E+00  0.48994529E+00  0.72866404E+00
  0.49057121E+00  0.50102819E+00  0.98783677E+00
  0.48494793E-01  0.98580070E+00  0.37276342E+00
  0.50897422E+00  0.12638222E-01  0.88163565E+00
  0.97091377E+00  0.50294492E+00  0.37312780E+00
  0.26497248E+00  0.47067033E+00  0.13300104E+00
  0.23616382E+00  0.22160988E+00  0.10812933E+00
  0.73573097E+00  0.76141638E+00  0.60608037E+00
  0.77605612E+00  0.28364623E+00  0.84976733E+00
  0.76016225E+00  0.75724493E+00  0.39848196E+00
  0.23348382E+00  0.26819562E+00  0.75012705E+00
  0.75538616E+00  0.26599733E+00  0.13622024E+00
  0.23843503E+00  0.75691833E+00  0.62209035E+00
  0.11590447E-01  0.96250323E+00  0.88831282E+00
  0.50242386E+00  0.49785566E+00  0.38682368E+00
  0.75813958E+00  0.97966922E+00  0.63844001E+00
  0.13957525E-01  0.53069272E+00  0.50846597E+00
  0.46883724E+00  0.99848231E+00  0.16313572E-02
  0.64908878E-02  0.50698427E+00  0.87467658E+00
  0.50104660E+00  0.12314047E-01  0.37225043E+00
  0.24859694E+00  0.23069976E+00  0.24833880E+00
  0.76191399E+00  0.74964189E+00  0.84203286E+00
  0.75569179E+00  0.48819140E+00  0.61963225E+00
  0.25192523E+00  0.72659275E+00  0.24948720E+00
  0.24406718E+00  0.24382504E+00  0.62453354E+00
  0.71926177E+00  0.77376066E+00  0.12075363E+00
  0.74951229E+00  0.25623303E+00  0.40793381E+00
  0.52411994E+00  0.75838775E+00  0.50503406E+00
  0.24507907E+00  0.17676059E+00  0.99238703E+00
  0.99921902E+00  0.52844458E-02  0.50006905E+00
  0.23084494E+00  0.77293365E+00  0.75125565E+00
  0.64558435E-02  0.72444686E+00  0.27382846E+00
  0.73792710E+00  0.27377744E+00  0.72285646E+00
  0.97725840E+00  0.95957064E+00  0.58004001E-02
  0.53637810E+00  0.23678146E+00  0.49064745E+00
  0.53181689E+00  0.26816384E+00  0.33254381E-03
  0.51271286E+00  0.23756815E+00  0.26350915E+00
  0.79697608E+00  0.77442399E+00  0.73162852E+00
  0.49602187E+00  0.74299256E+00  0.23994207E+00
  0.10708660E-01  0.96614836E+00  0.24468012E+00
  0.48770557E+00  0.49388276E+00  0.87392681E+00
  0.48947901E+00  0.45874715E-01  0.74823636E+00
  0.99563391E+00  0.45963912E+00  0.25772020E+00
  0.40664602E-02  0.25438026E+00  0.21286114E-01
  0.99252324E+00  0.77831320E+00  0.49567080E+00
  0.27594117E+00  0.76409802E+00  0.48991983E+00
  0.76087528E+00  0.26639889E+00  0.98153861E+00
  0.86280120E-02  0.95516379E+00  0.74661421E+00
  0.48808845E+00  0.47845935E+00  0.24142233E+00
  0.31992873E-01  0.48381969E+00  0.76224214E+00
  0.49275521E+00  0.14958746E-01  0.22849233E+00
  0.28411715E+00  0.25173834E+00  0.50302786E+00
  0.79453208E+00  0.76145675E+00  0.69992405E-02
  0.76325624E+00  0.25544253E+00  0.59517291E+00
  0.20814676E+00  0.69980682E+00  0.99868053E+00
  0.98115999E+00  0.48902859E+00  0.13907719E+00
  0.51942847E+00  0.48251135E+00  0.50288441E+00
  0.49082251E+00  0.53213330E+00  0.11989396E+00
  0.98067858E+00  0.28460542E-01  0.62460500E+00
  0.50867865E+00  0.73626118E+00  0.28917676E-02
  0.97981458E+00  0.23131318E+00  0.50269615E+00
  0.49767976E-03  0.52420440E+00  0.52399713E-02
  0.49191496E+00  0.96659258E+00  0.49185139E+00
  0.39950398E-01  0.23776873E+00  0.21837762E+00
  0.52020602E+00  0.75946336E+00  0.73852355E+00
  0.25008123E+00  0.72679992E+00  0.37768929E+00
  0.99550615E+00  0.24060660E+00  0.74804866E+00
  0.74222682E+00  0.74699353E+00  0.24163546E+00
  0.52658980E+00  0.27857892E+00  0.77405511E+00
  0.76602928E+00  0.24561702E+00  0.26628277E+00
  0.28165992E+00  0.79119226E+00  0.87241789E+00
  0.25180088E+00  0.75917392E+00  0.11206791E+00
  0.45258423E+00  0.57511349E-02  0.62950785E+00
  0.72638463E+00  0.98300974E+00  0.88236892E+00
  0.21684926E+00  0.47850278E+00  0.37933097E+00
  0.25743477E+00  0.44981930E+00  0.88346068E+00
  0.77007888E+00  0.23465100E-01  0.37538500E+00
  0.29992340E+00  0.99087989E+00  0.12646345E+00
  0.28805778E+00  0.49594467E+00  0.62484486E+00
  0.77505342E+00  0.51031770E+00  0.85722657E+00
  0.27146630E+00  0.21825897E+00  0.36926366E+00
  0.46237055E-01  0.53226746E+00  0.63304142E+00
  0.41607368E-01  0.99339756E+00  0.12336713E+00
  0.21796959E+00  0.98720408E+00  0.62326651E+00
  0.73855164E+00  0.49975256E+00  0.12272000E+00
  0.18245958E+00  0.94948634E-01  0.86974269E+00
  0.71565371E+00  0.52263503E+00  0.37396452E+00
  0.25491737E+00  0.98138659E+00  0.25087512E+00
  0.77528810E+00  0.55280421E+00  0.73515770E+00
  0.26208003E+00  0.72881527E-02  0.75988510E+00
  0.74308443E+00  0.50036328E+00  0.24456742E+00
  0.24049234E+00  0.93552689E+00  0.99134509E+00
  0.77213540E+00  0.50243239E+00  0.49414573E+00
  0.24666395E+00  0.99336094E+00  0.49251526E+00
  0.73618786E+00  0.51042736E+00  0.99150147E+00
  0.75122167E+00  0.15692227E-01  0.74755527E+00
  0.24457262E+00  0.50098093E+00  0.25458892E+00
  0.26071458E+00  0.51903694E+00  0.75377778E+00
  0.76796916E+00  0.33545709E-02  0.24567675E+00
  0.26893833E+00  0.51319790E+00  0.50216804E+00
  0.73411237E+00  0.11902577E-01  0.99750752E+00
  0.75975104E+00  0.98894449E+00  0.49917393E+00
  0.26125111E+00  0.43951957E+00  0.99755719E+00
  0.23812872E-02  0.23603275E+00  0.36433366E+00
  0.50655353E+00  0.74062114E+00  0.86930006E+00
  0.52415757E+00  0.26586885E+00  0.62020872E+00
  0.98479150E+00  0.74071021E+00  0.12658124E+00
  0.99131401E+00  0.23958523E+00  0.88236728E+00
  0.50133741E+00  0.74596317E+00  0.37182967E+00
  0.99693281E+00  0.76589749E+00  0.62561752E+00
  0.49006895E+00  0.24870031E+00  0.12366134E+00
  0.14844993E+00  0.37404440E+00  0.61186476E-01
  0.66259186E+00  0.89141755E+00  0.55330229E+00
  0.62827432E+00  0.12144627E+00  0.95190263E+00
  0.14646835E+00  0.60577874E+00  0.44949282E+00
  0.37292560E+00  0.34904294E+00  0.94686158E+00
  0.86653699E+00  0.89586719E+00  0.44438682E+00
  0.84524716E+00  0.10227624E+00  0.47148711E-01
  0.36490654E+00  0.63829718E+00  0.55032429E+00
  0.87439838E+00  0.12305696E+00  0.19023603E+00
  0.34158732E+00  0.62979796E+00  0.69968524E+00
  0.85144914E+00  0.90848006E+00  0.30255964E+00
  0.37601642E+00  0.40262416E+00  0.79416391E+00
  0.12694063E+00  0.57964336E+00  0.31120150E+00
  0.65717803E+00  0.13494464E+00  0.79326115E+00
  0.12506829E+00  0.40098902E+00  0.19323257E+00
  0.64075940E+00  0.90489612E+00  0.70410587E+00
  0.83481305E+00  0.61132580E+00  0.93612641E+00
  0.35838035E+00  0.96518540E-01  0.44616765E+00
  0.86867196E+00  0.37119914E+00  0.54058367E+00
  0.36272861E+00  0.85605336E+00  0.42764793E-01
  0.14008745E+00  0.10521112E+00  0.54750427E+00
  0.62220447E+00  0.59448823E+00  0.50703288E-01
  0.11149828E+00  0.84422280E+00  0.95474410E+00
  0.64353197E+00  0.41162858E+00  0.44121393E+00