Na88 Ge16 P8 Se96                       
   1.00000000000000     
    13.9614333504000001    0.0000000000000000    0.0000000000000000
     0.0000000000000000   13.9614333504000001    0.0000000000000000
     0.0000000000000000    0.0000000000000000   27.9228667008000002
   Na   Ge   P    Se
    88    16     8    96
Direct
  0.0158903124495543  0.9914033632909248  0.0124453659874683
  0.4744535760683183  0.5093122930023414  0.5016688079199726
  0.5426703757259792  0.4741364130027916  0.8618557175475462
  0.7320630842766583  0.9671717440786068  0.3889242946288989
  0.2479232738630790  0.9883391043092892  0.8659385893880123
  0.7771613317887756  0.4631846619035725  0.3732125549853660
  0.0211921937410360  0.4834419909946289  0.1142133449833673
  0.3167324659233820  0.2188432722597434  0.1912807777473193
  0.7503434837873013  0.7401566612605964  0.6304599670291237
  0.7645032933953138  0.2967897238970101  0.8767115046597038
  0.7734452720939137  0.7259617870933784  0.5103629630342116
  0.2691810995575034  0.2133249917615701  0.8672223351186427
  0.7944697199445430  0.2174411245277553  0.1391234420303905
  0.2366634724452367  0.0191225670903820  0.6191234627115417
  0.9619323116210023  0.9967642808325493  0.8842136487232691
  0.1350669911226882  0.4719644566331715  0.3543906225834254
  0.9760564934478506  0.0362464951149334  0.6328290163375943
  0.0085144322028194  0.5165704765451984  0.6290410030387671
  0.7884875109861266  0.9711090416300354  0.1276908611476636
  0.9707253175290831  0.5079389995651962  0.8833053320378975
  0.2425417857733336  0.0132125260165857  0.3643449627136765
  0.0704241220286223  0.2462493148162161  0.2553826936923864
  0.6457694032523883  0.9525869773321992  0.8717545592929286
  0.5922467348869459  0.2535888086003488  0.7535820397960119
  0.2473245353952781  0.7383594933040788  0.1178176946887454
  0.2598312317460855  0.2630422788437550  0.6372079676644217
  0.7198370416915686  0.6913450365363405  0.1320063303269354
  0.7607489736009709  0.7278139987684593  0.3731538742572754
  0.4833381276364078  0.9488007353056421  0.4695007829639037
  0.5599635706518752  0.1120160899600271  0.0225259376763913
  0.0117653554879658  0.4849028488474514  0.4744343436025054
  0.4987780514867641  0.7386776061853522  0.7426766405482669
  0.9920314093565173  0.7351751390617592  0.2492408364051243
  0.5314141789606297  0.4687147980041841  0.7324010422947569
  0.0160945578233967  0.7341597940592995  0.9852334269304897
  0.2844551317493950  0.7651998371800908  0.4807112256886007
  0.4799618548337066  0.7067642680822120  0.0022730889482946
  0.5547512938053095  0.2909955563357781  0.2341060410619490
  0.9852842662845690  0.7765340096298584  0.7614380493630190
  0.4933614835022447  0.7514013141547315  0.2400729949555722
  0.9938513568300095  0.9944493009315415  0.3801422929149778
  0.4777110214844172  0.4973604085833675  0.6148147466345332
  0.5218367810261959  0.0080761733270460  0.7590194176410807
  0.9570033934502664  0.4755608902860353  0.2294928755909295
  0.2841103347061116  0.2236410527763059  0.0062540666977326
  0.0117127994198201  0.7101748214673282  0.4892873529766490
  0.2713197531837764  0.7762420739250065  0.6093216830675497
  0.7780233826945042  0.2660627063027008  0.9893341187544465
  0.0123699526654434  0.0677484902498974  0.7683342945436208
  0.4487191315192746  0.5207246520825448  0.2477377193841213
  0.0409697354601196  0.4949684839866234  0.7508293138326966
  0.4987416189682357  0.0098356536585110  0.2399136717952075
  0.2356658248666862  0.2736649994362728  0.4954490861037367
  0.7459556524636369  0.7391026293285649  0.0050866462221523
  0.7459507995097809  0.2378403131118774  0.4743918086242396
  0.2278062599991984  0.7246943651862767  0.0046132069004086
  0.0394183355774931  0.2164871839876070  0.0084078598980444
  0.7627951179130161  0.2676246622007503  0.6379578229487520
  0.5015610513954437  0.4403487120066743  0.9952736547131835
  0.0213882473026332  0.9930391252428038  0.5130834976685974
  0.5006347476638681  0.9627011821332602  0.1141749881708790
  0.9789405335544922  0.2443571498858644  0.5027170049600981
  0.0005246235774530  0.4958815329552093  0.0039246563883976
  0.5102749268963331  0.2323270443631325  0.4986724486777145
  0.9993890741792872  0.9700993573051310  0.2517213480349053
  0.7633556547987657  0.7479478542759076  0.7665123277222359
  0.2648221722022900  0.7373489409496075  0.2456536482493731
  0.8841541168874995  0.2945026741432355  0.7725459126677091
  0.7271421171486011  0.7431614258182623  0.2480919106687823
  0.2674017075818684  0.2758201035154808  0.7486023107460800
  0.7941884168603275  0.2282370327863510  0.2780647276250545
  0.2383891492434733  0.7729401440552983  0.7407119388719540
  0.2836890103496423  0.4485422836056575  0.1142002266306656
  0.7280582457973294  0.0199728242640923  0.6395991512515424
  0.4964489276561054  0.9339863220974339  0.9747753600424564
  0.2270494654034924  0.7252445120669657  0.3567057299468870
  0.2549599813550537  0.4715768593887833  0.8620880403998957
  0.5054182916972928  0.0300195817916610  0.3644580065833960
  0.0223013392411891  0.0624651361309938  0.1292568256380577
  0.2153199042684949  0.5405961364019897  0.6202233529133248
  0.7451460343227572  0.5816037130495572  0.8862146127630153
  0.2538165310013249  0.2660602032311962  0.3710059153636511
  0.7785420804234666  0.5174700407326904  0.6108525656177217
  0.2606070075949330  0.0024810972356574  0.1280632079180959
  0.4805865846929791  0.0167864730318029  0.6111636806644505
  0.6573480308858902  0.4601565988195085  0.1210439299241250
  0.2531806553351438  0.7298955073580330  0.8794203116115152
  0.4580436671400446  0.4743520851419869  0.3685596584838431
  0.2548230304261827  0.9875023543249781  0.2505313617186212
  0.8060985175567312  0.5022736115768290  0.7433508150048700
  0.2432779434550856  0.0071075304904015  0.7404752035447597
  0.7186015121085365  0.4854493381842834  0.2466677958165507
  0.2707541122843600  0.9744298051563502  0.0070740905868317
  0.7466927087104496  0.4897716725536698  0.4942142990417209
  0.2438987631759448  0.0185599371615480  0.4866998413693596
  0.7667884773327420  0.5207141651316417  0.0034927918813127
  0.7638134476252770  0.0052619216821461  0.7614401563777748
  0.2054299808062189  0.4994708173623303  0.2412851731869282
  0.3058341683350078  0.5063654333505180  0.7477287596709907
  0.7667994292620327  0.9815666218137393  0.2489335303818099
  0.2322272362778273  0.5238278109055668  0.5054361573264236
  0.7714498072969409  0.0078105927688079  0.9961731763255380
  0.7439868228278892  0.9866791993099353  0.5157106299397135
  0.2315909491543605  0.4811251143413878  0.9904099126538063
  0.9917721802583518  0.2354310212202061  0.3771423155811556
  0.5182718766988920  0.7169575149207250  0.8735907160128346
  0.5069490353903269  0.2697575253218867  0.6252874407754108
  0.9999327061003941  0.7414318383468046  0.1261276372987184
  0.0057182654542522  0.2389800951285930  0.8822461933350709
  0.4966991483772907  0.7428106050285288  0.3715936231866061
  0.9994561143070252  0.7613649345316766  0.6333463971294055
  0.5092259768902938  0.2379329836192149  0.1181600296727249
  0.1359853705495911  0.3811154475952024  0.0444187797832307
  0.6430761341878458  0.8901464941877714  0.5686286400854665
  0.6859270660351756  0.1129713196590219  0.9444863175753382
  0.1628169566870565  0.6317595901638123  0.4442973248796825
  0.3351529008474645  0.3755399012608434  0.9402205274517480
  0.8367058352770916  0.8832601589874614  0.4656516831344255
  0.8676089953632339  0.1111134093930514  0.0501168495097678
  0.3400194787594000  0.6235892670441269  0.5524819043466822
  0.8755706505299189  0.0877972359272545  0.2071209931089208
  0.3963473329443236  0.5884628339138214  0.6936806705394563
  0.8594828754114346  0.8820157847487485  0.3008145507851561
  0.3835244703993784  0.3959924373896961  0.7997812484953597
  0.1259291378815250  0.6037472878192248  0.2911643007229986
  0.6581789095416248  0.0962335776917561  0.8127736141333858
  0.1178854986706255  0.3920080987811603  0.1888394589752714
  0.6668703926303644  0.9027731931597990  0.7134511392521077
  0.8647134512560515  0.6173754344725594  0.9583104553331721
  0.3431119483408909  0.1225944875537547  0.4401567900298323
  0.8510007825204140  0.3939135883836752  0.5449870246849133
  0.3579149889737605  0.8628919055812154  0.0493862152412933
  0.1534656929403151  0.1320348821962994  0.5455609926116408
  0.6465905615734202  0.5956538611173162  0.0530297840965086
  0.1589032699931023  0.8903436355207883  0.9554844278340671
  0.6335196620315291  0.3902449567616527  0.4516932688904858
  0.6227435108361982  0.3851999085733061  0.3066741719288870
  0.1308673948354671  0.9126663392412132  0.7833466929539338
  0.1483771158948191  0.1133607147445189  0.6984951898266474
  0.6097199887700587  0.5927602088983450  0.2036636157915254
  0.8919123601405415  0.4073253222512531  0.6916100892752948
  0.3524700237840145  0.8870193840097852  0.2051825133799624
  0.3325804143721703  0.1141441521130767  0.2949279214175299
  0.9055274160267136  0.5925400274596490  0.7993164791026867
  0.1716345488089798  0.0695996601934140  0.0564346078576749
  0.6502797180723594  0.5930520055284191  0.5408602651526047
  0.6726851485979825  0.4305592507858812  0.9454111915114622
  0.1491384620807932  0.9169208855314768  0.4442675961552680
  0.3601895687558225  0.0599416949776522  0.9475285490081065
  0.8439982236045650  0.5888105865810419  0.4433698146452562
  0.8478408101623949  0.4206121101542618  0.0611554701577472
  0.3358606561396016  0.9243847674571849  0.5417403644371447
  0.1667809321308289  0.0932378875773287  0.1991079869624661
  0.7005628280477676  0.5962692939637105  0.6976625123080619
  0.1580234651312725  0.8788962698693148  0.2994118546104304
  0.7114056494961236  0.3947417831747757  0.7935042188613060
  0.8347982934332783  0.5816925320459984  0.2847746318834495
  0.3535384708013233  0.0878909760368974  0.7953575431459342
  0.7971772243142697  0.3729624130748925  0.2025538149765576
  0.3506392032002306  0.9101805169436975  0.6897206058668757
  0.8647464873914684  0.9063347613875474  0.9580184833139027
  0.3180245765649030  0.4233725267159690  0.4530903582568518
  0.8432594923592170  0.1096734654161576  0.5500801542238408
  0.3418013157749946  0.5673217267327816  0.0375353728177875
  0.1300260482561575  0.4135624894947352  0.5532118004891038
  0.6500846888297911  0.9325791977216568  0.0459643238152197
  0.1345219564109158  0.5818273777899866  0.9352527623784538
  0.6317535081299788  0.0620738750903908  0.4649090978979691
  0.3058131912159132  0.3934529838854913  0.2859169168465626
  0.8606550925727620  0.9070762567179366  0.8090072547482230
  0.8381017418591697  0.1345634499941673  0.7189458068656374
  0.3071695499305664  0.5864468512228599  0.1859527742099601
  0.1868845862877352  0.4234323590422115  0.6987382372797988
  0.6552407240181154  0.8882966743386551  0.2025989616558491
  0.6631120612817202  0.0823857006375498  0.3009080363014077
  0.2041350374383853  0.6126376473621205  0.7937087273128604
  0.0859952269099099  0.1492985521005869  0.3336744677602314
  0.6099428639392999  0.6493756080056859  0.8199553020933193
  0.6086977373720792  0.3897102889042344  0.6593463262017423
  0.0936161640766826  0.8364097743530946  0.1676240368146405
  0.4289351946333956  0.1834789058738348  0.6805585069823213
  0.9121403970465906  0.6331013029339719  0.1692369669676056
  0.9249795797807502  0.3519255623348647  0.3315813742413927
  0.4398724229310328  0.8382821306602745  0.8361726936703719
  0.1089758997733611  0.1292305512319371  0.9216769780731552
  0.5523270766098005  0.6576137617766946  0.4322129665350097
  0.0889528231979708  0.8631918159896690  0.5901084335049472
  0.5763857205034427  0.3002737773342496  0.0536091380530420
  0.9041476507135212  0.6750964879710534  0.5832170741074969
  0.4062498010631811  0.1338761188859588  0.0911444726726729
  0.9369787840107224  0.3369693851990170  0.9383999317651448
  0.3868229715218156  0.8497962303691426  0.3882424166590899
  0.8941534828524067  0.8390547822752896  0.6793084808246549
  0.4472552895102572  0.3608561226636139  0.1569531064863494
  0.8890226524308669  0.1589407060388204  0.8458008595505645
  0.4174407810796522  0.6419250098823200  0.3211901633783089
  0.0828956818113734  0.3261119354851326  0.8241926239949560
  0.6014379668015631  0.8344296975132938  0.3314184412468333
  0.1020486980575600  0.6685544230096996  0.6766878878814792
  0.6065156256696854  0.1396731702172279  0.1575139064175038
  0.4007657072099016  0.3353018914321427  0.5720095075158635
  0.8933670416856078  0.8263935054199674  0.0856406020414704
  0.8964598485633720  0.1446808692229616  0.4181277887573235
  0.4177830764641365  0.6101408923930883  0.9084260368787321
  0.0869320618963282  0.3146624869292473  0.4253090262701780
  0.6247423624995787  0.7783947843117149  0.9273737735094170
  0.6040697495107705  0.1719987577125195  0.5861959674559244
  0.0974587301749598  0.6700097060853339  0.0753233263937609
 
  0.37692729E-02  0.37621199E-02 -0.16490890E-02
 -0.44586718E-02 -0.36110558E-02  0.18904748E-02
  0.42226042E-02  0.40098156E-03  0.36271736E-03
  0.24857936E-02  0.14596045E-02  0.77435074E-02
  0.85332221E-02  0.41433907E-02  0.16017373E-02
  0.49344998E-02 -0.15970183E-03 -0.35061315E-02
 -0.51786591E-02  0.15820391E-02  0.13511219E-02
  0.17357636E-02 -0.22031118E-02  0.50369503E-03
 -0.49973834E-02 -0.35328045E-02  0.87634947E-02
 -0.18111866E-02  0.10048582E-02 -0.72696975E-03
  0.10189162E-02 -0.22217502E-02 -0.32026782E-02
  0.18989198E-02 -0.62716408E-02  0.14877949E-02
 -0.88747183E-03 -0.50040890E-02 -0.19030713E-02
 -0.90879709E-03 -0.75689834E-02  0.24349894E-03
 -0.22906121E-02 -0.49438609E-02 -0.17893661E-02
 -0.78849859E-02 -0.78410521E-03 -0.10638824E-01
 -0.21059844E-02  0.32868991E-02  0.68508100E-02
 -0.28940535E-02 -0.40176689E-02  0.92516889E-03
 -0.18643231E-02  0.19650307E-02  0.33941629E-02
 -0.63825430E-02 -0.29678364E-02 -0.59716639E-03
 -0.15065021E-03  0.26082513E-02 -0.38145524E-02
 -0.75255551E-02  0.54301370E-02  0.10136553E-02
 -0.34367293E-02  0.10118025E-02  0.33594052E-02
  0.22083111E-02 -0.96628838E-03 -0.18718309E-02
  0.42911878E-02  0.19770409E-02  0.91761436E-03
  0.13577978E-02  0.15062881E-05  0.68904703E-03
  0.20078614E-02  0.28700143E-02 -0.44214951E-02
  0.54934584E-02  0.26583166E-02  0.15071854E-02
  0.54867431E-03  0.33883268E-04 -0.41361819E-02
 -0.20256226E-02 -0.88517292E-03  0.10295576E-01
 -0.22518270E-02  0.15666623E-02  0.24063311E-02
  0.76250299E-02 -0.13424846E-02 -0.67840461E-02
  0.38003611E-02  0.13702417E-02  0.40190663E-03
  0.86011865E-03  0.33372134E-02 -0.63936940E-03
  0.26580542E-02  0.17882196E-02  0.24963580E-04
  0.64923236E-02  0.99881133E-03 -0.41884145E-02
  0.40066809E-02  0.43535188E-02  0.22907284E-02
  0.26679135E-03 -0.15946816E-02  0.42479262E-02
  0.60595356E-02  0.15365335E-02 -0.64216592E-03
  0.38290422E-03  0.83401344E-03  0.36845098E-02
  0.80695369E-03 -0.44746974E-03 -0.24103016E-02
 -0.32421455E-02 -0.31711987E-02 -0.17897048E-02
 -0.15327258E-03 -0.14808341E-02  0.53838956E-02
 -0.16354187E-02 -0.40835591E-02 -0.23350485E-03
  0.36260477E-02  0.12297786E-03  0.49177048E-02
  0.22947348E-02  0.90163459E-03  0.14411302E-02
 -0.25303699E-02  0.28076498E-02 -0.33182990E-02
  0.47526609E-02 -0.27242784E-03  0.23910361E-02
  0.39081226E-03  0.26944940E-02 -0.21966854E-03
 -0.49320720E-02  0.68376880E-02 -0.47151876E-02
 -0.12186169E-02 -0.11340737E-02  0.37375336E-02
  0.12195972E-02  0.94821990E-02 -0.46575367E-02
 -0.43188524E-03 -0.33509475E-02  0.39193441E-02
 -0.31423843E-02  0.46091161E-02  0.53105565E-02
 -0.34039194E-02  0.45237854E-04  0.79270527E-04
 -0.55244530E-03  0.39453399E-02 -0.19335082E-02
  0.26932884E-02 -0.74918204E-02 -0.37301263E-02
  0.71393474E-02 -0.15838596E-02  0.33092013E-02
  0.39462400E-02  0.28026058E-02  0.28400634E-02
  0.40678477E-02  0.11317103E-02 -0.40239713E-02
  0.36601085E-02  0.17206041E-02 -0.44010168E-02
  0.76063433E-02 -0.11246885E-02 -0.36412013E-02
 -0.24407090E-02  0.56096191E-02 -0.28408913E-02
 -0.57691155E-03  0.52332699E-02  0.20918434E-03
  0.65904824E-03 -0.82090778E-02  0.54210438E-02
 -0.54854555E-02 -0.44198178E-02 -0.64965947E-02
  0.16639432E-02 -0.79262775E-02 -0.38797847E-02
 -0.70707822E-02 -0.57869167E-03  0.34051039E-03
  0.36918740E-02  0.11593022E-02 -0.15044976E-02
  0.25503048E-02  0.27175569E-02  0.49827080E-02
  0.35547072E-02  0.21980480E-02  0.32420056E-02
 -0.44306080E-02 -0.14576832E-02  0.49643600E-02
 -0.90042346E-02 -0.45601987E-02  0.77890564E-02
 -0.19094892E-02  0.37803196E-02 -0.39426068E-02
  0.75056377E-02 -0.34821725E-02 -0.64597799E-02
 -0.52567810E-02  0.71821847E-03 -0.39349201E-02
  0.23173128E-02 -0.16958540E-02  0.65537394E-02
 -0.16344118E-02 -0.75693752E-02 -0.65869092E-02
  0.65341079E-03 -0.47937018E-02 -0.14688836E-01
  0.37503850E-02 -0.89478622E-03 -0.60635104E-02
 -0.38640581E-04  0.39398491E-03 -0.14236579E-02
 -0.64542783E-02  0.18496766E-02  0.12210280E-02
 -0.94359182E-03 -0.15748293E-02 -0.63775169E-02
  0.32602579E-02 -0.15690966E-02  0.55853065E-02
 -0.10939863E-01 -0.49597892E-02  0.28344048E-02
  0.31617727E-02 -0.64904466E-02 -0.46397298E-02
  0.94712737E-03 -0.72204533E-02 -0.53935117E-02
 -0.10880922E-02 -0.40667794E-02 -0.32831250E-02
 -0.29398264E-02  0.36548459E-02  0.68991934E-03
  0.37429420E-02 -0.10571092E-02 -0.35710104E-02
 -0.14912392E-02  0.46777782E-02  0.12027480E-02
  0.20359868E-02 -0.19491685E-02  0.54584398E-03
 -0.53615749E-03  0.52912030E-03  0.33063454E-02
 -0.17583901E-02 -0.27960605E-02 -0.11656449E-02
 -0.10583125E-02 -0.27945361E-02  0.16755298E-02
 -0.68628282E-04  0.17427527E-02  0.21738198E-02
 -0.38221003E-03 -0.21585527E-02  0.61048208E-03
  0.22329693E-02 -0.14439919E-02 -0.65121764E-03
 -0.32300674E-02 -0.12268236E-02  0.17795851E-02
 -0.15633209E-02 -0.92464861E-03  0.26054939E-02
  0.29120771E-02  0.17108124E-02  0.37968973E-02
  0.21477998E-04 -0.10229863E-02 -0.29245045E-03
  0.43740946E-03  0.19043085E-02  0.14787283E-02
 -0.14996671E-02 -0.21673609E-02  0.72198747E-03
  0.40258101E-02  0.19503094E-02  0.23855359E-02
 -0.77197039E-02  0.22117925E-02  0.19208195E-03
 -0.24307772E-02 -0.47415546E-02  0.23767502E-02
  0.16472225E-03 -0.17857870E-02  0.92217007E-03
 -0.10322270E-02  0.37974733E-02 -0.55817922E-03
  0.16976344E-02  0.11282249E-02 -0.49509846E-02
  0.32145720E-02 -0.31857548E-02 -0.45242697E-02
 -0.88994519E-04 -0.15932175E-02 -0.12510518E-02
 -0.10889288E-02 -0.28082459E-02 -0.26618453E-02
 -0.39065914E-03  0.14398187E-02  0.22496573E-02
 -0.13971119E-02 -0.15126740E-02 -0.31177235E-02
  0.32419902E-02  0.21555288E-02 -0.22220682E-02
  0.11588264E-03  0.49604599E-02 -0.20799899E-02
 -0.32678764E-02  0.16617666E-02  0.23043219E-02
  0.31007046E-03 -0.15762590E-02 -0.21369223E-03
  0.21827313E-02 -0.10556352E-02  0.19782417E-02
  0.55189350E-03  0.10317526E-02  0.11413403E-02
  0.26935060E-03  0.25060690E-02 -0.36448344E-02
  0.31117589E-03  0.14686900E-02  0.27456998E-02
  0.15321727E-02  0.96451207E-03  0.62962295E-03
 -0.82779758E-03  0.25087450E-03 -0.31171706E-02
 -0.87609954E-03  0.17685355E-02 -0.69778296E-03
  0.34339054E-02 -0.39009910E-03 -0.48150684E-02
  0.40445461E-02 -0.16877932E-02 -0.22365581E-02
  0.22922646E-03  0.43089948E-02 -0.21085836E-02
 -0.13026524E-02 -0.30050181E-02 -0.25463285E-02
 -0.78275324E-03 -0.35201728E-02 -0.12961385E-02
 -0.10162591E-02 -0.13472305E-02  0.85476081E-03
 -0.34623878E-02  0.20977491E-02 -0.41252799E-02
 -0.77179506E-04  0.18561334E-02  0.12388396E-02
  0.73343240E-03  0.39918845E-04 -0.19523441E-02
  0.17646949E-02 -0.27548135E-02 -0.23662548E-02
  0.68184389E-03  0.11016934E-02 -0.15326557E-02
  0.12628950E-02 -0.14901603E-02  0.28025703E-03
 -0.11354221E-02  0.84968099E-03 -0.38059211E-02
  0.93443420E-03  0.16685378E-02 -0.77749990E-03
 -0.29126882E-03  0.39338081E-02  0.43638192E-03
 -0.44265598E-03 -0.13616434E-02  0.33180387E-02
 -0.15018251E-02  0.64045219E-02 -0.22810321E-02
  0.79687204E-03 -0.98855613E-03  0.25823035E-02
 -0.35947380E-03 -0.28449891E-02  0.24225999E-02
 -0.17200234E-02  0.52370426E-02 -0.37185176E-03
 -0.44626657E-02 -0.21012197E-02  0.16853876E-03
 -0.35740022E-02 -0.36915332E-02  0.24111427E-03
 -0.30165458E-05  0.20778265E-02  0.28324581E-02
  0.27806224E-02  0.10492150E-02 -0.33853696E-03
 -0.31052752E-02 -0.52739746E-02 -0.15214145E-02
  0.33929037E-02  0.77366318E-03  0.33323702E-02
  0.26717920E-02  0.37770903E-02 -0.25054953E-02
  0.90626245E-04 -0.14504640E-02 -0.11210528E-02
  0.49997188E-02  0.18151724E-02  0.21346299E-02
  0.41620646E-02  0.36562038E-03 -0.23346684E-02
 -0.31461815E-02  0.10153698E-02  0.18816638E-02
 -0.10880160E-02 -0.52858802E-03 -0.22979964E-02
 -0.14160686E-02  0.17187756E-02  0.13288139E-02
 -0.32794884E-02 -0.58194024E-03  0.15662597E-02
  0.35607316E-02  0.69993357E-03  0.22033934E-03
  0.39505290E-03  0.32341689E-03  0.16083407E-02
  0.21987822E-02  0.33845693E-04 -0.62208736E-04
  0.69513271E-03 -0.93881950E-04  0.72561921E-03
  0.35702133E-02 -0.37499297E-03  0.27724766E-02
  0.83640374E-03  0.36063912E-02 -0.26149545E-02
  0.86080546E-03  0.10813758E-02  0.38312617E-02
  0.81190585E-03  0.30075282E-02 -0.10239060E-02
 -0.60825986E-02 -0.49886439E-03 -0.81736825E-03
  0.49598734E-03  0.23947233E-03 -0.18450538E-02
  0.47995417E-03  0.25363764E-02  0.76240094E-03
  0.29782895E-02 -0.33540103E-02  0.90007498E-04
  0.94121949E-03  0.42301560E-03  0.41223588E-02
 -0.66236878E-03  0.12974113E-02  0.22805560E-02
  0.13783692E-02  0.32369906E-03  0.34891701E-02
  0.26582266E-02 -0.21540151E-02  0.36710039E-02
 -0.14818403E-02  0.22831629E-02  0.15430872E-02
 -0.26607833E-04  0.28881409E-02 -0.17976989E-02
 -0.55740999E-02 -0.14299260E-02  0.20643311E-02
 -0.30263839E-03 -0.18380321E-02  0.29224506E-02
  0.11690963E-02 -0.11401342E-02 -0.16269085E-02
  0.27581841E-02  0.92962703E-03  0.26515994E-02
 -0.25280410E-02 -0.23981883E-02  0.33696901E-02
 -0.44101742E-02 -0.23711298E-02 -0.61406646E-03
 -0.55974959E-03  0.31453969E-02  0.98180287E-03
 -0.86796361E-04 -0.60975799E-03 -0.24245485E-02
  0.51487779E-04 -0.96635624E-03 -0.27107946E-04
 -0.41915579E-03  0.42626025E-02 -0.34122748E-02
  0.71011313E-03 -0.73831750E-03 -0.27902066E-03
 -0.89388719E-03 -0.23190543E-02 -0.30962342E-02
 -0.97186871E-03 -0.40237414E-03 -0.16180145E-02
  0.19098247E-02  0.48697479E-03 -0.23390004E-02
 -0.21359683E-02  0.16456431E-02  0.12427087E-02
 -0.12380410E-02 -0.13045830E-02 -0.97676237E-03
 -0.19403142E-02 -0.21530593E-02 -0.18136783E-02
 -0.11441025E-02 -0.27763418E-02  0.10198859E-03
  0.56433508E-03  0.17403345E-02  0.17262507E-02
  0.62062382E-02 -0.13431370E-02  0.30994785E-02
  0.98884101E-03 -0.49521319E-03  0.30762536E-02
 -0.24992561E-03  0.29320220E-03 -0.16268238E-02
 -0.54319604E-03 -0.29014524E-02  0.10371244E-02
 -0.17555238E-02  0.61227370E-03  0.10973593E-02
 -0.15563434E-02 -0.35458239E-03 -0.10044060E-02
  0.87276370E-05 -0.16162526E-02 -0.29429003E-02
  0.20095085E-03 -0.13411405E-02  0.25842790E-03
 -0.52600070E-02  0.11392131E-02 -0.34023210E-02
  0.61417687E-03 -0.10774042E-02  0.10431500E-02
  0.10917229E-02 -0.17582585E-02  0.24296782E-02
 
           1
   2.00000000000000     
  0.57437274E+00 -0.23533079E-03  0.00000000E+00  0.00000000E+00
  0.16430267E-01  0.99194229E+00  0.12327249E-01
  0.47381486E+00  0.50879500E+00  0.50180421E+00
  0.54327527E+00  0.47419385E+00  0.86188170E+00
  0.73241918E+00  0.96738083E+00  0.38947893E+00
  0.24914567E+00  0.98893265E+00  0.86605332E+00
  0.77786821E+00  0.46316178E+00  0.37296143E+00
  0.20450342E-01  0.48366862E+00  0.11431012E+00
  0.31698112E+00  0.21852767E+00  0.19131686E+00
  0.74962760E+00  0.73965058E+00  0.63108766E+00
  0.76424384E+00  0.29693367E+00  0.87665943E+00
  0.77359123E+00  0.72564352E+00  0.51013357E+00
  0.26945312E+00  0.21242657E+00  0.86732890E+00
  0.79434259E+00  0.21672428E+00  0.13898713E+00
  0.23653329E+00  0.18038297E-01  0.61914090E+00
  0.96160418E+00  0.99605606E+00  0.88408548E+00
  0.13393745E+00  0.47185213E+00  0.35362861E+00
  0.97575481E+00  0.36717349E-01  0.63331971E+00
  0.80998539E-02  0.51599494E+00  0.62910727E+00
  0.78822044E+00  0.97139054E+00  0.12793397E+00
  0.96981101E+00  0.50751385E+00  0.88326256E+00
  0.24252020E+00  0.13586163E-01  0.36407174E+00
  0.69346073E-01  0.24702719E+00  0.25545530E+00
  0.64527709E+00  0.95273192E+00  0.87199518E+00
  0.59256308E+00  0.25345039E+00  0.75344797E+00
  0.24793926E+00  0.73864271E+00  0.11788342E+00
  0.26002574E+00  0.26304249E+00  0.63725732E+00
  0.72012467E+00  0.69175617E+00  0.13168964E+00
  0.76153592E+00  0.72819481E+00  0.37326183E+00
  0.48341673E+00  0.94880559E+00  0.46920453E+00
  0.55967340E+00  0.11188929E+00  0.23263367E-01
  0.11442777E-01  0.48512728E+00  0.47460670E+00
  0.49987035E+00  0.73848529E+00  0.74219073E+00
  0.99257582E+00  0.73537143E+00  0.24926962E+00
  0.53153739E+00  0.46919286E+00  0.73235525E+00
  0.16475329E-01  0.73441596E+00  0.98523521E+00
  0.28538517E+00  0.76534292E+00  0.48041123E+00
  0.48053582E+00  0.70738792E+00  0.24371644E-02
  0.55478951E+00  0.29076712E+00  0.23441030E+00
  0.98615231E+00  0.77675412E+00  0.76139205E+00
  0.49341634E+00  0.75152079E+00  0.24033690E+00
  0.99396695E+00  0.99438520E+00  0.37996965E+00
  0.47724658E+00  0.49690613E+00  0.61468656E+00
  0.52181482E+00  0.78640412E-02  0.75940504E+00
  0.95676912E+00  0.47497591E+00  0.22947615E+00
  0.28462977E+00  0.22365867E+00  0.66063016E-02
  0.12041524E-01  0.71030398E+00  0.48939058E+00
  0.27095727E+00  0.77664427E+00  0.60908401E+00
  0.77870421E+00  0.26602368E+00  0.98950538E+00
  0.12425937E-01  0.68134481E-01  0.76831856E+00
  0.44801260E+00  0.52170416E+00  0.24739999E+00
  0.40795166E-01  0.49480603E+00  0.75109702E+00
  0.49891633E+00  0.11193995E-01  0.23958007E+00
  0.23560396E+00  0.27318497E+00  0.49572981E+00
  0.74550550E+00  0.73976289E+00  0.54670195E-02
  0.74546318E+00  0.23784679E+00  0.47439749E+00
  0.22772712E+00  0.72525954E+00  0.44747177E-02
  0.39804154E-01  0.21541397E+00  0.81406863E-02
  0.76381784E+00  0.26739777E+00  0.63819485E+00
  0.50212636E+00  0.44075019E+00  0.99547708E+00
  0.21970974E-01  0.99320124E+00  0.51279528E+00
  0.50115906E+00  0.96294766E+00  0.11385976E+00
  0.98003016E+00  0.24419604E+00  0.50245620E+00
  0.17498769E-03  0.49668512E+00  0.37211750E-02
  0.51019228E+00  0.23307672E+00  0.49868743E+00
  0.99948348E+00  0.96892339E+00  0.25210964E+00
  0.76256985E+00  0.74731471E+00  0.76604700E+00
  0.26506053E+00  0.73621349E+00  0.24537576E+00
  0.88314121E+00  0.29441978E+00  0.77257030E+00
  0.72767098E+00  0.74332750E+00  0.24798415E+00
  0.26776704E+00  0.27620940E+00  0.74895920E+00
  0.79469763E+00  0.22855191E+00  0.27829694E+00
  0.23775446E+00  0.77273133E+00  0.74106752E+00
  0.28239914E+00  0.44788903E+00  0.11475812E+00
  0.72778471E+00  0.20514362E-01  0.63931676E+00
  0.49752412E+00  0.93348749E+00  0.97431267E+00
  0.22629642E+00  0.72534740E+00  0.35642389E+00
  0.25529194E+00  0.47133393E+00  0.86255746E+00
  0.50518416E+00  0.28935255E-01  0.36398621E+00
  0.22394941E-01  0.61778430E-01  0.12820472E+00
  0.21585715E+00  0.54046796E+00  0.61978905E+00
  0.74514050E+00  0.58166015E+00  0.88611264E+00
  0.25289194E+00  0.26632517E+00  0.37109337E+00
  0.77840691E+00  0.51724444E+00  0.61039577E+00
  0.26107405E+00  0.22563214E-02  0.12846326E+00
  0.47901943E+00  0.16075974E-01  0.61136670E+00
  0.65780096E+00  0.45922683E+00  0.12071161E+00
  0.25331633E+00  0.72886116E+00  0.87903400E+00
  0.45788780E+00  0.47376951E+00  0.36832450E+00
  0.25440190E+00  0.98802592E+00  0.25058078E+00
  0.80663470E+00  0.50212218E+00  0.74309504E+00
  0.24306432E+00  0.77776305E-02  0.74056135E+00
  0.71889317E+00  0.48517012E+00  0.24670689E+00
  0.27067731E+00  0.97450560E+00  0.73109105E-02
  0.74644082E+00  0.48937113E+00  0.49413081E+00
  0.24374716E+00  0.18159615E-01  0.48681985E+00
  0.76677865E+00  0.52096382E+00  0.36484936E-02
  0.76375870E+00  0.49527052E-02  0.76148388E+00
  0.20574986E+00  0.49926396E+00  0.24123853E+00
  0.30537146E+00  0.50618969E+00  0.74785622E+00
  0.76657548E+00  0.98143416E+00  0.24912015E+00
  0.23264440E+00  0.52407289E+00  0.50570811E+00
  0.77145288E+00  0.76640482E-02  0.99615223E+00
  0.74404948E+00  0.98695199E+00  0.51581655E+00
  0.23137612E+00  0.48081464E+00  0.99046163E+00
  0.99234888E+00  0.23571041E+00  0.37731318E+00
  0.51716602E+00  0.71727436E+00  0.87360447E+00
  0.50660082E+00  0.26907829E+00  0.62545768E+00
  0.99995630E+00  0.74117602E+00  0.12619369E+00
  0.55703971E-02  0.23952409E+00  0.88220621E+00
  0.49694234E+00  0.74297223E+00  0.37123900E+00
  0.99991661E+00  0.76090857E+00  0.63302234E+00
  0.50921323E+00  0.23770475E+00  0.11807042E+00
  0.13582938E+00  0.38071316E+00  0.44228123E-01
  0.64302017E+00  0.89035275E+00  0.56878977E+00
  0.68572693E+00  0.11275463E+00  0.94426301E+00
  0.16328138E+00  0.63206837E+00  0.44413817E+00
  0.33516950E+00  0.37625050E+00  0.94007155E+00
  0.83623771E+00  0.88349821E+00  0.46581673E+00
  0.86765341E+00  0.11088761E+00  0.50101544E-01
  0.34033216E+00  0.62343805E+00  0.55262360E+00
  0.87564971E+00  0.87945036E-01  0.20720274E+00
  0.39638592E+00  0.58882183E+00  0.69341961E+00
  0.85952745E+00  0.88222618E+00  0.30101121E+00
  0.38374396E+00  0.39613061E+00  0.79982635E+00
  0.12581055E+00  0.60378323E+00  0.29094103E+00
  0.65805341E+00  0.96486924E-01  0.81272363E+00
  0.11837741E+00  0.39195222E+00  0.18849458E+00
  0.66744978E+00  0.90253141E+00  0.71329094E+00
  0.86474629E+00  0.61799271E+00  0.95815943E+00
  0.34292534E+00  0.12216401E+00  0.43997441E+00
  0.85088865E+00  0.39340932E+00  0.54489419E+00
  0.35776941E+00  0.86269891E+00  0.49447438E-01
  0.15296970E+00  0.13233539E+00  0.54526552E+00
  0.64657951E+00  0.59591976E+00  0.53118517E-01
  0.15900834E+00  0.89034935E+00  0.95534459E+00
  0.63377246E+00  0.38985032E+00  0.45152378E+00