Na88 Sn16 P8 S96                        
   1.00000000000000     
    13.4813327813000008    0.0000000000000000    0.0000000000000000
     0.0000000000000000   13.4813327813000008    0.0000000000000000
     0.0000000000000000    0.0000000000000000   26.9626655626000016
   Na   Sn   P    S 
    88    16     8    96
Direct
  0.0112008584013084  0.0428664818517156  0.1275377604892487
  0.5014696109916706  0.0696782046884939  0.3814692123746901
  0.7498055023704352  0.7483105828908159  0.8809336442806057
  0.7702996470091362  0.2198086040709330  0.4018805246823014
  0.2454941017836007  0.2937097564975802  0.8772223393312121
  0.2438502972917150  0.7564746946736175  0.7557080229375840
  0.7512876650226528  0.7288370694196100  0.1532613906387099
  0.2597337883544379  0.1733203131960815  0.1079879988465793
  0.9705408792000884  0.2883133852876502  0.7494446081856739
  0.7224488402126928  0.0079161600683590  0.1184465579854062
  0.7028696015567936  0.7549450229530533  0.4782948342384651
  0.4974202617540769  0.0433669539567488  0.7204889790877903
  0.4878261826865973  0.0616297802397960  0.0263865782851930
  0.5202192192085914  0.4845126701797808  0.5193453360076741
  0.7017098621210219  0.0077228297220723  0.8808253861709705
  0.7572128953053515  0.9765048872428483  0.3721112765091885
  0.9963394471864573  0.2261038527649045  0.2552297523667889
  0.0030665674056826  0.0239826112055648  0.6199380274343681
  0.2645560584308752  0.7453696126679749  0.2511030044036040
  0.0144483847860799  0.7694349585776511  0.7863044305365777
  0.4728908309251212  0.9842425255154833  0.1222130210526885
  0.2210867857541088  0.7480493517101167  0.3860268063922126
  0.2417692391734419  0.9893009740486945  0.6287797114178161
  0.4895032434018199  0.5563089033467074  0.6320582829882956
  0.4687214203051331  0.7737023002440810  0.0180910132001047
  0.7530434956670597  0.2814209854244262  0.6158183798243175
  0.9932795631397381  0.5675503183728879  0.0101010610417491
  0.0147806779004825  0.5262452469803955  0.5029980153094159
  0.9873779840541957  0.7110688499668549  0.2869832733530302
  0.6913287713886307  0.7109571913909261  0.9974687726980282
  0.5167087326625447  0.9171058036784686  0.4779020897403390
  0.2209362899661583  0.8076647409675578  0.8811092622142015
  0.2577523018916841  0.0162348890362974  0.3692345667446980
  0.7460429540763416  0.4852294496827659  0.8757869395638656
  0.9641941821002942  0.8578919284658719  0.0255941790413333
  0.2692479479937528  0.2909676738728937  0.3668042675689823
  0.7676751636183915  0.7503597465290364  0.7412978241774042
  0.5100044077857550  0.2229636903033494  0.2534893158744093
  0.7689278896120723  0.5531547996845083  0.6300762943861464
  0.4865208238789230  0.4974897939898170  0.9027026942593838
  0.9936184375544946  0.9276752735187654  0.2266007098928253
  0.6934336159108840  0.2691866814685879  0.7456156232355208
  0.4595097644433527  0.0366284733630494  0.8874853047822848
  0.8142920845191939  0.2354488419227992  0.1177932250037109
  0.5063290351378991  0.4774791947128293  0.2498347765319647
  0.0075654163154688  0.0129023572201041  0.5024493049878263
  0.2461712168941422  0.7552942499845161  0.6032155704724467
  0.7513927867556004  0.2299589498729246  0.2541997432176729
  0.2362658981894953  0.2391069348560189  0.6143710794098236
  0.5504113051958716  0.5020065416319720  0.3697536610507506
  0.2473031629646655  0.4714682172179866  0.6304183703146287
  0.4885620365261796  0.7562723389500818  0.2355383272291263
  0.9961235608191205  0.9942289787212036  0.7379673090350090
  0.9988367418375886  0.5469611613821762  0.7410160243872923
  0.8027302435698395  0.4772028604611138  0.3845889212737383
  0.4906038259357851  0.9862673177908219  0.6119410408578966
  0.9840144986745033  0.2022183062123384  0.9822437263152664
  0.2143194409140553  0.2672668686170522  0.4786110837730830
  0.5048979550565174  0.3577750003734929  0.0091291511842341
  0.2576587565836639  0.2466076459521971  0.7570710837506334
  0.9775995570817807  0.4679276606065289  0.1166796471232855
  0.7075728821997558  0.7554620804577156  0.6240197087685385
  0.1917265000780014  0.2954445487081673  0.0127697320001347
  0.3584867186811051  0.7355798204374157  0.4885306755281727
  0.2709039081422515  0.7535707686056349  0.1178065216292085
  0.1929908815542580  0.0684895151150198  0.8756655424317892
  0.5181000118768304  0.5135770049357439  0.1340359624451978
  0.0027200904521947  0.4855886409030423  0.6222014713739343
  0.7094481063496475  0.7142112817108246  0.3039865880222913
  0.7605240159297205  0.2320367008551562  0.0034226091858303
  0.0192032755380249  0.5686321608868601  0.8837062604309025
  0.9776098960680153  0.0004118032785472  0.8824478660939761
  0.1853342061502145  0.5573915180534336  0.1366803838664060
  0.4910775722798291  0.2491503089606078  0.5149635915364085
  0.7200815132029977  0.2365658088849221  0.8791084422706011
  0.5097455466790850  0.7840938822673995  0.7657012188957631
  0.2497540061384741  0.2639876932892261  0.2395644866029013
  0.4893680211124525  0.0064495168043517  0.2429816426803592
  0.0101565794039693  0.4666148860975957  0.2773480285377320
  0.9516726122261744  0.3220372364029593  0.5048309673954791
  0.2607233927409610  0.5486553030595492  0.8744498205611192
  0.0210225404232663  0.9864091680814923  0.3803488176261632
  0.0014801478961925  0.7955881150525231  0.5075092066586691
  0.2568360814602945  0.7699820604598870  0.9947876958949423
  0.7618967016598334  0.0153544892191523  0.6292595414385151
  0.7567847183160435  0.4429525241442322  0.1204003680882877
  0.4773586125928435  0.4975127022908226  0.7434635893710072
  0.2526895788335778  0.4985379000026276  0.3795165993269226
  0.2524770405285366  0.9944703795575701  0.2532215373392466
  0.7335291742334430  0.5092857744748315  0.7558730430402915
  0.2612526877584588  0.9939482498533030  0.7585992353719559
  0.7356571000790878  0.4967827271472091  0.2549600696188368
  0.2089311389993893  0.0292787213182603  0.0116741492265720
  0.7610669290885597  0.5244062247385823  0.5065592285583955
  0.2534191795928179  0.0215340179825858  0.4977734743111339
  0.7449165001046681  0.4622402285719054  0.9964540664485783
  0.7501139338607326  0.0035696852809266  0.7546272286683423
  0.2520053162053683  0.5132305676736428  0.2452854151845336
  0.2280264034512855  0.5021477408889513  0.7591918588688793
  0.7449035862708460  0.9856455394895810  0.2366736978772835
  0.2314082540316975  0.4990052269773429  0.5108709176088743
  0.7405638861615238  0.9487577870548541  0.0115592889649649
  0.7534655793916204  0.0379426380907030  0.5058220186418655
  0.2408014911621526  0.5276033888666852  0.0040217369090674
  0.9987585903799319  0.2594604109334019  0.3750116388760155
  0.4870791972486104  0.7750789561392485  0.8948936341787626
  0.4881068916327720  0.2739741597976419  0.6333790320771849
  0.9779138937761299  0.7126668760087367  0.1273259305768132
  0.9949937915820791  0.2840343645437791  0.8729301329814830
  0.4812606814817929  0.7703130962221243  0.3732052233210453
  0.0004122084213752  0.7578703109749725  0.6354158769555374
  0.4793646739732493  0.2698756014828244  0.1273358149470132
  0.1172319503219133  0.4630430811712601  0.0542785548179467
  0.6498658003222638  0.9265644220383852  0.5573717849659152
  0.6358263884627501  0.0648209856772811  0.9626269478249181
  0.1500850140590081  0.6346782810258772  0.4687288761982204
  0.3257438385150332  0.4140517436096682  0.9557393500005842
  0.8273922733589096  0.9107462332590980  0.4614801721290112
  0.8614893467751052  0.0551429401073067  0.0499693593412202
  0.3440016109070475  0.6056629604358433  0.5621454890615430
  0.8431003228578007  0.1117513996354963  0.1901205806548713
  0.3211822406957598  0.6125258617566602  0.7029666705591670
  0.8478201400695863  0.8984101788417439  0.2955135262196014
  0.3386548791205340  0.4029591955429678  0.8100924682020839
  0.1429280821618295  0.5875189530007959  0.3014622399061497
  0.6284899238623197  0.1062415660317945  0.7998826504078378
  0.1247022708791629  0.3853863508286755  0.2007985665606435
  0.6591673003549725  0.8987906622445445  0.7060953698755135
  0.8489873394669237  0.5769521929492527  0.9529959927044467
  0.3271034571266161  0.1258450568137101  0.4378183268935043
  0.8543059848531843  0.4249200649984399  0.5702192124414195
  0.3239572107438231  0.9311984520130165  0.0606814346070870
  0.1410195449537675  0.0813566837834211  0.5554550096423788
  0.6071399354164767  0.5486687150880993  0.0397664926756490
  0.0992479544681873  0.9461024529422771  0.9474461723143087
  0.6919165954413306  0.3851529217704011  0.4582851760720019
  0.6376713313925310  0.3934306436210635  0.3103014869776397
  0.1257594172475493  0.9096964927616642  0.7997419315173072
  0.1618948114368186  0.1089503346700356  0.7076578803067769
  0.6288052905885193  0.6176851684756143  0.2238460329488648
  0.8425652017574512  0.4104396995998374  0.6989881591270969
  0.3471260163800104  0.8835235383455808  0.2037676575908840
  0.3472942031371350  0.1183571359910722  0.3001856596199550
  0.8296534082448753  0.6269849771377989  0.7998733807857709
  0.0999821661202365  0.1299055221822173  0.0608655192085574
  0.6392771256519405  0.6274810517454713  0.5589920076824281
  0.6619908567403057  0.3554185130506727  0.9447017400236903
  0.1358126382404110  0.8995930195478216  0.4512575804982356
  0.3228938758101620  0.1398725460567905  0.9674674194534896
  0.8739635868959253  0.6131962931217462  0.4571142038215061
  0.8737792265156071  0.3483040604976647  0.0490415000757807
  0.3489716546860467  0.9058157978174307  0.5441590800135854
  0.1520692803669426  0.0947272052000690  0.2021644167894887
  0.6266338902174183  0.6289067953181146  0.7000139593247726
  0.1640020974990097  0.8781992054978042  0.2998598444395489
  0.6081196802729846  0.4166701328016078  0.8007755951365592
  0.8497372274930695  0.5820404090482173  0.3105090719034224
  0.3623563822620037  0.0918683100173606  0.8104793915704196
  0.8398881631315533  0.3957644664047024  0.2068869531462906
  0.3590160756137961  0.8846745548799272  0.6965158857703273
  0.8279000918146973  0.8727564489200270  0.9489592035678193
  0.3610829058001119  0.4061151680928538  0.4626510153580672
  0.8604727418663276  0.1448791848595181  0.5452173233020483
  0.3624772389427815  0.6214731291055335  0.0557030847424153
  0.1361882435017528  0.3795276703111899  0.5552210964656278
  0.6145701461068082  0.8815285360294324  0.0696476102279578
  0.1371563016453356  0.6414451322518341  0.9498855318388456
  0.6287415864177565  0.1227990753240109  0.4517235835925902
  0.3547597712736950  0.4081964080130433  0.2950290006748058
  0.8487494176246766  0.8880114066782482  0.8069761968204200
  0.8579162294121429  0.1083621008229193  0.7085615659073016
  0.3603151531339150  0.6194783649317034  0.1913628465861340
  0.1271608417508359  0.4081998590102383  0.7003347640451021
  0.6309613721016327  0.8859806500310602  0.1923091568499571
  0.6379230557256952  0.0983877470317732  0.2860991145077623
  0.1252599260877406  0.6154395182996092  0.8028062857767518
  0.1074279912661486  0.1743490847117724  0.3362028712336275
  0.5696201393502943  0.8639684867936520  0.8559891151494804
  0.5920986270149802  0.1921431839253200  0.6699901574191618
  0.8709933816605443  0.6267160370788862  0.0938054871935826
  0.3924126790623014  0.3565743589976408  0.6815750127995680
  0.9094348553994566  0.8484708966382811  0.1267875519572686
  0.9213230909188589  0.3227858851397610  0.3216126970646690
  0.5666544595386233  0.6744079593385899  0.9321409574589787
  0.9269751506241976  0.3994428960647287  0.8416962140220908
  0.3858188461472808  0.6794241197462444  0.3344488302633973
  0.9195010056109787  0.6870098194524686  0.6883340199734704
  0.5696795723191943  0.1747630703661457  0.0868278539735090
  0.1026372476321266  0.8285746669709652  0.6721442016847899
  0.3895010837974293  0.3614462168505124  0.0908621567503420
  0.0854674650802207  0.3467076323169988  0.9333500304673649
  0.4079030146615914  0.8945749364366582  0.4017364490872197
  0.8987012655246102  0.8433599200877795  0.6001035953948631
  0.5849159816218105  0.3508941527068356  0.1676245316067778
  0.0780870342816155  0.2004972677331861  0.8250770428132918
  0.5757977443160923  0.8349851208930475  0.3252812921873082
  0.8949746887826145  0.1712496501256028  0.8921858972999239
  0.5703162322790667  0.7009716230858888  0.4273694152002701
  0.0717784478006288  0.6689017008741701  0.5818257361238525
  0.4028602884461540  0.1766269987239847  0.1716101679139766
  0.5660824391033411  0.3746495088348201  0.5935976344036146
  0.0469545533632624  0.6680555553685680  0.1909450570554964
  0.9285635974293915  0.1665817873065714  0.4220663074483301
  0.4051632952735831  0.8586060133205148  0.9399753776724435
  0.0656192191450677  0.3590919486148891  0.4157961175239265
  0.3950194341678640  0.6970867857065532  0.8447058777344779
  0.4016426348659144  0.1753524957603204  0.5989303689313616
  0.0913410118020881  0.7105747884381483  0.0754744927531781
 
 -0.50314052E-02  0.15578160E-02 -0.50747835E-02
  0.50179162E-02  0.60105836E-02 -0.12363784E-02
  0.37248458E-02 -0.10824320E-01 -0.27658925E-02
 -0.41482109E-02  0.15275389E-02 -0.49831892E-02
  0.71255485E-02 -0.39250471E-02  0.30253403E-02
  0.31274367E-02  0.38185885E-02  0.52356781E-02
  0.65897227E-03 -0.40426585E-02 -0.81682889E-02
  0.42676695E-02 -0.90131456E-02  0.37585421E-02
  0.94585143E-02 -0.58466915E-02 -0.19434601E-02
  0.69814135E-02 -0.76233845E-03  0.36017344E-02
 -0.22605882E-02 -0.31257376E-02 -0.39911952E-02
 -0.13892296E-02  0.45418192E-02 -0.20041842E-04
 -0.44827654E-02  0.19903004E-02  0.91793913E-02
  0.33864209E-02  0.82429294E-02 -0.55210400E-02
 -0.25689437E-03  0.24438067E-02 -0.99961504E-03
 -0.42754311E-02  0.20518319E-02  0.55706253E-02
  0.18293486E-02  0.32919009E-02  0.26555832E-02
 -0.20688669E-03  0.67614977E-02  0.60208783E-02
 -0.83611493E-02 -0.75834978E-02  0.11544878E-01
  0.16548571E-02  0.28394574E-02 -0.68850097E-02
 -0.39869294E-02  0.13300661E-03  0.77927303E-02
  0.39756341E-02 -0.41062231E-02  0.16619925E-02
  0.23088555E-02 -0.32674102E-03  0.10096817E-02
  0.10712873E-02  0.39737403E-02 -0.80165894E-03
 -0.46735380E-02 -0.87651426E-02 -0.43431524E-03
 -0.15449100E-01 -0.35657990E-02 -0.77074975E-02
  0.42294773E-03  0.21486758E-02 -0.10345251E-01
  0.10530968E-01  0.54173193E-02 -0.16464988E-03
 -0.98415527E-02 -0.97644770E-02  0.15805688E-02
  0.32538510E-02  0.68710563E-02  0.62398890E-02
  0.60468053E-02 -0.28132147E-02  0.65359799E-03
  0.97492577E-02  0.42904019E-02 -0.10688046E-01
  0.69442450E-02  0.19263737E-02 -0.96658178E-03
 -0.12013378E-02  0.41772128E-02 -0.69602033E-02
  0.24295899E-02 -0.21799369E-02 -0.30240414E-02
  0.52207672E-02 -0.11900208E-02  0.54582747E-02
  0.28225579E-03  0.49230182E-02 -0.99804931E-02
  0.65689976E-03  0.10713415E-01  0.10184591E-02
  0.18948620E-02  0.34281208E-03  0.99253709E-02
  0.82902288E-02 -0.27081807E-02  0.16592521E-02
  0.79039871E-02 -0.11769273E-02  0.56284227E-02
  0.18410603E-03  0.35330618E-02  0.53238113E-02
  0.10522353E-01  0.38595621E-02  0.17094813E-03
 -0.35497629E-02  0.76585626E-02  0.13673441E-01
 -0.47497723E-02  0.76928852E-02 -0.24793513E-02
  0.16341343E-02  0.12725699E-01  0.35892917E-02
 -0.73546407E-02  0.98946106E-02  0.31809106E-02
  0.80847414E-03 -0.21888174E-03 -0.48364020E-02
  0.30619674E-02  0.93221762E-03 -0.36105986E-03
 -0.22507396E-03 -0.69208553E-03 -0.57348051E-02
  0.16066356E-01 -0.43103555E-02  0.11247756E-02
  0.16994605E-02  0.84201245E-02  0.31057856E-02
 -0.30787775E-02 -0.11209213E-02 -0.16078486E-02
 -0.35742713E-02 -0.18163297E-02  0.21862761E-02
 -0.52970060E-02 -0.20588160E-02 -0.17829949E-02
 -0.18516601E-02  0.70986766E-02  0.41561201E-04
  0.21374712E-02 -0.60044824E-02 -0.36169620E-02
 -0.42846791E-02  0.14491315E-02  0.19003994E-02
 -0.44929540E-02 -0.39873404E-02  0.17365910E-02
 -0.38160457E-03 -0.12827484E-03 -0.24863157E-02
 -0.25763193E-03  0.62869539E-03  0.27188223E-02
  0.47132910E-02  0.50400625E-02  0.47125642E-02
  0.19885888E-02 -0.81626962E-02  0.11513656E-03
 -0.45775913E-02  0.70077881E-02  0.17057368E-02
 -0.32938465E-02 -0.11031808E-04  0.67202616E-02
 -0.93871378E-02  0.90965730E-02  0.99058216E-04
  0.27077088E-02  0.61257524E-03 -0.44482154E-02
 -0.28501936E-02 -0.84130240E-02 -0.39760190E-02
  0.42008932E-02  0.78198585E-04  0.18363410E-02
 -0.25328369E-02 -0.27904367E-02 -0.21961894E-02
 -0.78065534E-02  0.22113196E-02 -0.54363952E-02
 -0.26119335E-02 -0.11010830E-02  0.11011333E-01
  0.20701434E-02  0.31341706E-02 -0.14058912E-02
 -0.80281753E-02 -0.33262238E-03  0.10619540E-01
 -0.26503466E-02 -0.27301798E-02 -0.20903392E-02
 -0.18531832E-02  0.22711912E-02  0.22947028E-02
  0.37433262E-02 -0.78138734E-02  0.90700875E-02
  0.69643538E-02 -0.34904436E-02 -0.13754975E-02
 -0.14195554E-02  0.66050994E-02 -0.71039082E-03
  0.22429102E-02 -0.26199146E-02 -0.11952432E-01
  0.52462496E-02 -0.93470246E-03 -0.53291366E-02
  0.93177556E-03  0.48003211E-03  0.10342380E-01
 -0.25588862E-02 -0.10950673E-02 -0.93707107E-02
  0.15283819E-02 -0.69291185E-02 -0.67415252E-02
  0.13236459E-02  0.16536091E-01  0.12226012E-02
  0.16642021E-03 -0.35822753E-02 -0.10280430E-02
  0.20814165E-02 -0.72759538E-02  0.48843126E-02
 -0.13985016E-02 -0.27597690E-02 -0.72941907E-02
  0.30430262E-02  0.99903004E-03 -0.47396096E-02
  0.52450051E-02 -0.66488826E-02  0.45623864E-03
  0.91116530E-03 -0.13562985E-02 -0.21858180E-02
  0.23203213E-02 -0.27435051E-03  0.29953424E-03
 -0.11930931E-03  0.39190959E-03  0.35813424E-02
 -0.88488262E-03 -0.24819772E-03  0.63809033E-02
 -0.63281324E-03 -0.39327165E-02  0.75273973E-03
  0.46752730E-03 -0.69765655E-03  0.24137368E-02
 -0.13419903E-02  0.62280189E-02 -0.12889766E-02
  0.33224934E-02 -0.26559385E-02 -0.13391270E-02
  0.49762788E-02 -0.22915970E-02 -0.16010840E-02
  0.38893095E-02 -0.44800231E-02 -0.93509583E-03
 -0.44256783E-02  0.36071934E-02  0.20351729E-02
 -0.79006748E-03  0.49849953E-03 -0.76221248E-03
 -0.27868978E-02  0.17275956E-02  0.19368003E-02
 -0.22113212E-02 -0.23752530E-02 -0.12896223E-02
  0.68910262E-03 -0.12626590E-02  0.25669258E-02
 -0.27051601E-02 -0.74753718E-02 -0.35353266E-02
  0.38665548E-02  0.10673080E-01  0.15578746E-02
 -0.93450664E-02  0.15243086E-02 -0.53485374E-02
 -0.36042936E-02  0.23438803E-02  0.34884844E-03
  0.41501172E-02 -0.71269941E-02 -0.17038242E-02
 -0.40066410E-03 -0.63055403E-02  0.84222236E-03
 -0.25450941E-02 -0.46132158E-02 -0.19138595E-02
  0.11727970E-02  0.38186878E-02  0.88347033E-02
  0.36662344E-02  0.12891885E-01  0.51793916E-03
 -0.32382843E-02 -0.85254356E-02  0.96678974E-02
  0.53587680E-02  0.33991923E-02 -0.34502564E-02
 -0.34272093E-02  0.24030828E-04  0.36487044E-02
 -0.21909053E-02  0.29751783E-02 -0.29591181E-02
  0.58933293E-02 -0.59893698E-02  0.12328026E-03
  0.92158422E-03 -0.45860926E-02 -0.26451146E-02
 -0.12808657E-02  0.50422173E-02 -0.86784595E-02
 -0.41710063E-02  0.54881570E-02 -0.45400850E-02
 -0.28412041E-02 -0.14192608E-02 -0.86124358E-03
  0.25832473E-02  0.71402743E-02 -0.18019478E-02
 -0.24419770E-02  0.24314430E-02 -0.43468011E-03
 -0.95614841E-03  0.74732450E-02 -0.39568460E-02
 -0.15191866E-02 -0.20200928E-02  0.13348672E-03
  0.79897326E-03 -0.24250135E-02 -0.84586435E-03
 -0.24104310E-02  0.15422875E-02  0.23115229E-02
 -0.94143814E-02 -0.49151439E-02 -0.91977874E-02
  0.27787407E-02 -0.19124610E-03  0.64842438E-02
 -0.66270209E-02  0.46105900E-02 -0.40153838E-02
 -0.76146591E-02 -0.13747917E-02  0.15885747E-02
 -0.49021522E-02  0.42508578E-02  0.20770811E-02
 -0.60752517E-02  0.33671361E-03 -0.54441441E-02
 -0.37274648E-02 -0.14761428E-02  0.46340845E-02
  0.48446180E-02 -0.53583719E-02 -0.55892727E-02
 -0.33913205E-02 -0.49962684E-02 -0.16582060E-02
  0.71259160E-03 -0.71562751E-02  0.45324362E-03
 -0.33182577E-02  0.11342626E-01 -0.31624989E-02
 -0.16916446E-02 -0.12819125E-02  0.28022571E-02
  0.73553815E-02 -0.44328554E-04  0.28691298E-02
  0.66703523E-02 -0.59599545E-03  0.72047927E-03
  0.80058695E-02  0.18125871E-02 -0.11135697E-02
  0.31621753E-02 -0.79843936E-02 -0.27542023E-02
  0.38340085E-02  0.23124805E-02 -0.11217321E-02
 -0.61631641E-03  0.21613918E-02  0.27833079E-03
  0.14361896E-02  0.54111095E-02 -0.10857640E-02
 -0.23139917E-02 -0.48896485E-02 -0.90363654E-02
  0.35850632E-02 -0.58269000E-02  0.98542957E-02
 -0.10354359E-01  0.76268814E-02  0.17472935E-02
  0.44513274E-02  0.95421972E-02 -0.24211303E-02
  0.42835344E-02 -0.84438823E-02  0.10523468E-02
  0.59333165E-02 -0.35154832E-02 -0.39744077E-03
  0.20837350E-02 -0.38637685E-02 -0.70327715E-02
 -0.22862839E-02 -0.14060588E-02 -0.35457593E-02
 -0.33757253E-03  0.35399710E-02 -0.25660825E-02
  0.18487194E-02 -0.24398342E-02 -0.11656727E-01
  0.23730205E-02 -0.41081056E-02 -0.16146273E-02
 -0.61589896E-02  0.12811843E-02  0.45720726E-02
 -0.37020357E-02  0.16274227E-03  0.56237597E-02
  0.60563551E-02 -0.40267724E-02  0.87801375E-02
  0.87755980E-04  0.46787340E-02 -0.13096312E-02
 -0.10729869E-01 -0.20716443E-03  0.88392819E-02
 -0.36421902E-02  0.48316172E-02  0.11100414E-02
 -0.66315797E-02  0.18950036E-02  0.19103530E-02
 -0.94809749E-02  0.47939311E-02  0.78353220E-02
 -0.30809195E-02 -0.37390982E-02  0.77462247E-02
 -0.23557569E-02  0.50754423E-02 -0.20407374E-02
  0.26551135E-02 -0.12374880E-01 -0.15684514E-01
  0.55463341E-02 -0.44152652E-02 -0.13040924E-02
  0.56631682E-02 -0.11373153E-02  0.28358663E-02
 -0.49241815E-02  0.33476690E-02  0.42225354E-02
 -0.80361254E-03  0.17750045E-02  0.10134506E-02
  0.44061797E-03 -0.29239527E-02  0.49874762E-03
  0.35044184E-02  0.41369702E-02 -0.77526740E-03
  0.46467069E-02  0.82268717E-02 -0.42757914E-03
  0.36443503E-02 -0.54978597E-02 -0.22716757E-02
  0.76228599E-03  0.46901628E-02 -0.42673765E-02
 -0.83753889E-02 -0.85148552E-03 -0.21873479E-02
 -0.33337934E-02 -0.11598678E-02  0.57641123E-02
 -0.21748657E-02  0.24991663E-02  0.77142005E-02
  0.14668414E-02  0.62012772E-02  0.13350139E-02
  0.19312700E-02  0.16533038E-02  0.32789839E-02
  0.87024842E-02  0.20980985E-02  0.98800545E-02
 -0.11213314E-02  0.60370876E-02 -0.23062828E-02
 -0.79825198E-02  0.46105968E-02  0.28684554E-02
 -0.28926725E-03 -0.40569655E-02 -0.70006713E-02
  0.54261581E-02 -0.37474310E-03 -0.33993162E-02
  0.77651736E-03 -0.83555748E-02  0.38033828E-02
  0.13015172E-02 -0.40136944E-02  0.17078382E-02
 -0.84094011E-02 -0.20323547E-02  0.51788415E-02
 -0.25884178E-02  0.24311673E-02 -0.59140029E-02
 -0.15213912E-02 -0.42912063E-02 -0.10706698E-01
 -0.83277193E-02 -0.14111707E-02  0.91584662E-02
 -0.12717823E-01  0.23004442E-02 -0.18304106E-02
 -0.26696564E-02 -0.20375114E-02 -0.22759128E-03
  0.16028272E-02 -0.20960861E-02  0.89581253E-03
  0.23195180E-02 -0.35459559E-02  0.50686638E-02
 -0.52206261E-02 -0.90283413E-02  0.27565128E-03
  0.58638951E-02  0.71202850E-02 -0.62606399E-02
  0.61968028E-03  0.29932033E-02 -0.81364788E-02
 -0.27564405E-02 -0.14360153E-02  0.42801873E-02
 -0.54114185E-03  0.96302538E-03 -0.39194015E-02
 -0.25435758E-02  0.27271200E-02 -0.86900160E-02
  0.50429176E-02  0.71152275E-02 -0.36183966E-02
  0.16853650E-02 -0.11050025E-02  0.34683121E-02
 -0.30470983E-02 -0.15999170E-02 -0.30908881E-02
 
           1
   2.00000000000000     
  0.11331950E+01  0.20735009E-02  0.00000000E+00  0.00000000E+00
  0.10454433E-01  0.43097589E-01  0.12716133E+00
  0.50221404E+00  0.70569895E-01  0.38137750E+00
  0.75035810E+00  0.74670476E+00  0.88072848E+00
  0.76968425E+00  0.22003522E+00  0.40151089E+00
  0.24655120E+00  0.29312746E+00  0.87744675E+00
  0.24431426E+00  0.75704119E+00  0.75609639E+00
  0.75138543E+00  0.72823733E+00  0.15265549E+00
  0.26036691E+00  0.17198318E+00  0.10826679E+00
  0.97194408E+00  0.28744601E+00  0.74930045E+00
  0.72348456E+00  0.78030647E-02  0.11871372E+00
  0.70253424E+00  0.75448131E+00  0.47799878E+00
  0.49721416E+00  0.44040748E-01  0.72048749E+00
  0.48716115E+00  0.61925048E-01  0.27067475E-01
  0.52072161E+00  0.48573554E+00  0.51893580E+00
  0.70167175E+00  0.80853765E-02  0.88075124E+00
  0.75657862E+00  0.97680928E+00  0.37252449E+00
  0.99661084E+00  0.22659222E+00  0.25542673E+00
  0.30358751E-02  0.24985702E-01  0.62038464E+00
  0.26331565E+00  0.74424458E+00  0.25195936E+00
  0.14693888E-01  0.76985620E+00  0.78579372E+00
  0.47229936E+00  0.98426226E+00  0.12279106E+00
  0.22167658E+00  0.74744018E+00  0.38615009E+00
  0.24211177E+00  0.98925250E+00  0.62885461E+00
  0.48966217E+00  0.55689842E+00  0.63199882E+00
  0.46802809E+00  0.77240196E+00  0.18058797E-01
  0.75075157E+00  0.28089199E+00  0.61524666E+00
  0.99334231E+00  0.56786908E+00  0.93336851E-02
  0.16342982E-01  0.52704892E+00  0.50298580E+00
  0.98591796E+00  0.70962026E+00  0.28710051E+00
  0.69181149E+00  0.71197654E+00  0.99793163E+00
  0.51760580E+00  0.91668845E+00  0.47795057E+00
  0.22238262E+00  0.80830124E+00  0.88031646E+00
  0.25878250E+00  0.16520673E-01  0.36916287E+00
  0.74586473E+00  0.48584915E+00  0.87527066E+00
  0.96455462E+00  0.85756853E+00  0.25369866E-01
  0.27002247E+00  0.29079113E+00  0.36720914E+00
  0.76771704E+00  0.75109009E+00  0.74055750E+00
  0.51010186E+00  0.22455306E+00  0.25356486E+00
  0.76920900E+00  0.55320566E+00  0.63081253E+00
  0.48775071E+00  0.49708803E+00  0.90282577E+00
  0.99479102E+00  0.92750067E+00  0.22701821E+00
  0.69346093E+00  0.26971082E+00  0.74601053E+00
  0.46107079E+00  0.37201052E-01  0.88749799E+00
  0.81376547E+00  0.23658501E+00  0.11880747E+00
  0.50562439E+00  0.47862046E+00  0.24965087E+00
  0.78078455E-02  0.14790257E-01  0.50271555E+00
  0.24508013E+00  0.75676215E+00  0.60345152E+00
  0.75151273E+00  0.22992648E+00  0.25384100E+00
  0.23672015E+00  0.23924523E+00  0.61434430E+00
  0.55037791E+00  0.50190387E+00  0.36932827E+00
  0.24968666E+00  0.47082876E+00  0.63050180E+00
  0.48881416E+00  0.75752149E+00  0.23576870E+00
  0.99566681E+00  0.99406269E+00  0.73784804E+00
  0.99830649E+00  0.54669170E+00  0.74117820E+00
  0.80194442E+00  0.47689743E+00  0.38445666E+00
  0.49032913E+00  0.98732043E+00  0.61194412E+00
  0.98433160E+00  0.20132752E+00  0.98197543E+00
  0.21368379E+00  0.26748185E+00  0.47875205E+00
  0.50423141E+00  0.35718347E+00  0.92579657E-02
  0.25760214E+00  0.24658862E+00  0.75688666E+00
  0.97756134E+00  0.46802093E+00  0.11688132E+00
  0.70827211E+00  0.75620979E+00  0.62436927E+00
  0.19202151E+00  0.29423359E+00  0.12778272E-01
  0.35780762E+00  0.73661945E+00  0.48865720E+00
  0.27041526E+00  0.75356913E+00  0.11830501E+00
  0.19159827E+00  0.69839022E-01  0.87567289E+00
  0.51850171E+00  0.51366788E+00  0.13370601E+00
  0.22972549E-02  0.48434054E+00  0.62190654E+00
  0.71007132E+00  0.71422288E+00  0.30412280E+00
  0.76014826E+00  0.23162273E+00  0.32597032E-02
  0.18045148E-01  0.56896022E+00  0.88330301E+00
  0.97722241E+00  0.24845400E-03  0.88326465E+00
  0.18564132E+00  0.55785648E+00  0.13657610E+00
  0.48988657E+00  0.24910096E+00  0.51575131E+00
  0.71968833E+00  0.23616078E+00  0.87895339E+00
  0.50947062E+00  0.78443082E+00  0.76587143E+00
  0.25030934E+00  0.26282848E+00  0.24023728E+00
  0.49040121E+00  0.59316980E-02  0.24287961E+00
  0.99459837E-02  0.46759477E+00  0.27729533E+00
  0.95200536E+00  0.32164856E+00  0.50394438E+00
  0.26150169E+00  0.54851664E+00  0.87405452E+00
  0.21160772E-01  0.98648038E+00  0.38111598E+00
  0.11005287E-02  0.79542566E+00  0.50681412E+00
  0.25706282E+00  0.76895410E+00  0.99428763E+00
  0.76209307E+00  0.17807673E-01  0.62935023E+00
  0.75680941E+00  0.44242108E+00  0.12032411E+00
  0.47766740E+00  0.49643329E+00  0.74382589E+00
  0.25248211E+00  0.49812848E+00  0.37897554E+00
  0.25292848E+00  0.99461859E+00  0.25286997E+00
  0.73430729E+00  0.50829939E+00  0.75590689E+00
  0.26138786E+00  0.99374704E+00  0.75843710E+00
  0.73600133E+00  0.49674203E+00  0.25498229E+00
  0.20891344E+00  0.29336862E-01  0.11939801E-01
  0.76093565E+00  0.52436940E+00  0.50703254E+00
  0.25332530E+00  0.20950587E-01  0.49782931E+00
  0.74498586E+00  0.46213673E+00  0.99663311E+00
  0.74991485E+00  0.44936323E-02  0.75453162E+00
  0.25249822E+00  0.51283655E+00  0.24518608E+00
  0.22876465E+00  0.50180777E+00  0.75907310E+00
  0.74548058E+00  0.98498091E+00  0.23660434E+00
  0.23075169E+00  0.49954037E+00  0.51102188E+00
  0.74044668E+00  0.94883174E+00  0.11502751E-01
  0.75305213E+00  0.38198933E-01  0.50596568E+00
  0.24047343E+00  0.52725101E+00  0.39260771E-02
  0.99886082E+00  0.25927309E+00  0.37520204E+00
  0.48667788E+00  0.77396996E+00  0.89463140E+00
  0.48868051E+00  0.27555755E+00  0.63349459E+00
  0.97652752E+00  0.71289301E+00  0.12692919E+00
  0.99445908E+00  0.28438209E+00  0.87295601E+00
  0.48187636E+00  0.76925578E+00  0.37307884E+00
  0.35276859E-03  0.75693486E+00  0.63547835E+00
  0.47898710E+00  0.26919122E+00  0.12719385E+00
  0.11740594E+00  0.46360960E+00  0.54933883E-01
  0.65040970E+00  0.92847698E+00  0.55741020E+00
  0.63534598E+00  0.63556209E-01  0.96334408E+00
  0.15088000E+00  0.63518256E+00  0.46847295E+00
  0.32523540E+00  0.41405531E+00  0.95601000E+00
  0.82706725E+00  0.91118761E+00  0.46126067E+00
  0.86236364E+00  0.54254397E-01  0.49978504E-01
  0.34413833E+00  0.60498260E+00  0.56194928E+00
  0.84291030E+00  0.11249943E+00  0.18947684E+00
  0.32056346E+00  0.61334005E+00  0.70262990E+00
  0.84739864E+00  0.89819963E+00  0.29544964E+00
  0.33903811E+00  0.40401848E+00  0.80995881E+00
  0.14256581E+00  0.58787967E+00  0.30143000E+00
  0.62834808E+00  0.10735025E+00  0.79958914E+00
  0.12447689E+00  0.38508666E+00  0.20080847E+00
  0.65928583E+00  0.89843090E+00  0.70603263E+00
  0.84862974E+00  0.57718100E+00  0.95316745E+00
  0.32570680E+00  0.12511588E+00  0.43713607E+00
  0.85471822E+00  0.42489169E+00  0.57070019E+00
  0.32297407E+00  0.93188245E+00  0.60383587E-01
  0.13988989E+00  0.81152729E-01  0.55557284E+00
  0.60641269E+00  0.54929934E+00  0.39920564E-01
  0.98346671E-01  0.94615241E+00  0.94704234E+00
  0.69136361E+00  0.38493393E+00  0.45862892E+00