Na88 Ge16 P8 S96                        
   1.00000000000000     
    13.3422163233000006    0.0000000000000000    0.0000000000000000
     0.0000000000000000   13.3422163233000006    0.0000000000000000
     0.0000000000000000    0.0000000000000000   26.6844326466999995
   Na   Ge   P    S 
    88    16     8    96
Direct
  0.9942476065242227  0.9709557057945080  0.2278689063349891
  0.4716592758140721  0.4935124472291251  0.7241691737573233
  0.4726284116771782  0.4855452760686222  0.8670381062321085
  0.9921531054582904  0.9843343341590207  0.4952348362746752
  0.4864284884311095  0.0201072385993007  0.8675652337252262
  0.2331118000834964  0.4651524600679218  0.3747771648975559
  0.0017800618658005  0.4739764919284853  0.0159877556511478
  0.2080098748569641  0.2422497649876854  0.2661751792481143
  0.7306941230622084  0.9466551344116581  0.6298051275213716
  0.7642578949530031  0.2394772234821785  0.7856743862915953
  0.7297296278798755  0.9138607117501755  0.3673779430321032
  0.2358515378933906  0.7625163059044904  0.8899010131865376
  0.7558250441730811  0.2275419487138648  0.1258018742203575
  0.2546271536508644  0.7872820177458225  0.6076508764684830
  0.0091262301120960  0.0321673790159550  0.9121658481188750
  0.5026570155167033  0.4632408363056907  0.3673836497346833
  0.0035754739723421  0.0195340593478684  0.6163106683346598
  0.9959923796508057  0.4696994824453992  0.6237835192230126
  0.2178075514974667  0.9367313066248553  0.1159279279151069
  0.9924632609538454  0.5032664702961179  0.8800261477950341
  0.4872032436885895  0.0116368996924333  0.3591598356038511
  0.2336014223056303  0.0057108034601260  0.3510787461948930
  0.7354639631930582  0.5266138295988251  0.8670711633024779
  0.6511607913854380  0.4752186254934692  0.6217500748821163
  0.1663418750463770  0.5392001459951093  0.1086455016479349
  0.2489204548249949  0.2859620195102944  0.6413378318985911
  0.7316244655700034  0.7321474131708205  0.1206677650817895
  0.7706393667740004  0.2392150996788949  0.4896674590321755
  0.5828305333788135  0.7080141552499966  0.5136340385839466
  0.5220037607157968  0.9543934447250042  0.1265289259177319
  0.0268741900427912  0.4531186721177851  0.5027773358959238
  0.4696424190963597  0.9653114739677000  0.6040414849316885
  0.0087924968234523  0.7663831018776189  0.2988408317132094
  0.4822276208803702  0.9889621141128599  0.7558098812669034
  0.9819475873905786  0.7231360480694485  0.9809728441835449
  0.4722092004278235  0.1938316534603379  0.4858238463543074
  0.4933501519080657  0.0158650075115408  0.0018830781688906
  0.7271552360547130  0.2206044011159729  0.2377842248384040
  0.9970238016455742  0.7494257087574522  0.7753319039594693
  0.4377627834011114  0.7476429674167155  0.2368054476811824
  0.9645057456693475  0.9844300627868828  0.3813186525970640
  0.5189383387418088  0.7383517188375537  0.0141731804461075
  0.4870010036002061  0.7444795279241304  0.7362794747971789
  0.9549782008112309  0.5602714171698265  0.2171530232197441
  0.2512666682145941  0.2085299605030572  0.9745767875085213
  0.8138960980294694  0.7276183522711883  0.5121522685495885
  0.3604291926901363  0.7052444682551992  0.4656697920212232
  0.7538909495189524  0.2709819258686681  0.9343778548116781
  0.9806581708206239  0.9957107537464411  0.7275292837310736
  0.4881225996416216  0.4950304765008093  0.2539969538456994
  0.9966969905040770  0.4970717794012133  0.7467768188887978
  0.5041806538992832  0.9948053863732241  0.2375824481928991
  0.2134757365662981  0.2491780557928197  0.5175021265979590
  0.7611827774935226  0.7353874065355508  0.9923883047139779
  0.7527302407105936  0.2387559233028750  0.6263874740446768
  0.2214918871083627  0.7419623978375416  0.0054124002851471
  0.9990338498935109  0.9724687304230306  0.0394764107148360
  0.5030010720246778  0.3872420291243397  0.5266343105037125
  0.4994617975528701  0.5023126584282531  0.9994187212684547
  0.0029006692710331  0.5140735047194975  0.3571544440780725
  0.4661953782299023  0.2687863559964652  0.7491519445351827
  0.0563880263211825  0.7460470334906769  0.4893981920952265
  0.9874234276769766  0.2455454584673634  0.0256702831731375
  0.4993465808809557  0.9414613191814418  0.4671729459483759
  0.4350038019199051  0.2486508019458082  0.2560717386958946
  0.7846043786896015  0.7417264879631983  0.8739587696419223
  0.1742736066546362  0.7642194613888555  0.1992872168392706
  0.9843086637252559  0.2253180963332620  0.7355782508867682
  0.7697029884785646  0.7088161884395936  0.2391553715907977
  0.1889398988814673  0.2498153241228905  0.7730610851531183
  0.9569130666577814  0.2564445628525870  0.2662899018757879
  0.2223231126938797  0.7407342562071881  0.7508152823056234
  0.4672697468346452  0.4639377194330639  0.1256359342901679
  0.7418763280713211  0.7163770574202680  0.6234797611264161
  0.7585050966398719  0.0252606725841467  0.8685250650901909
  0.2502908507735350  0.2272361551175928  0.3909362906957576
  0.2625526704378923  0.0272930676591705  0.8530449944096742
  0.7591362642513072  0.1847075060061366  0.3794995715157496
  0.8322804678681337  0.9750836200959373  0.1260615091749194
  0.3399108649512170  0.4857777489251162  0.6158162061881658
  0.5080122930319071  0.2681078503129084  0.9861681254401555
  0.2444469576849690  0.7015964062867681  0.3605953560986551
  0.7406182938406984  0.7491233081241385  0.7432601719828897
  0.1950437083368116  0.2488395694610335  0.1305743969357248
  0.2259615611212925  0.9870562903865554  0.6126267552783814
  0.7361821075053523  0.4935732283939537  0.1221188012743573
  0.1971307381031060  0.3936515660362885  0.8681442207202423
  0.7578422149371593  0.5496313923112698  0.3843587826500934
  0.2499136148236652  0.9922657673351284  0.2316792113252834
  0.7383080573978897  0.4912574816203325  0.7348379414694778
  0.2456428280746042  0.9828423808885001  0.7346890187403285
  0.7438166224928631  0.4834769815673864  0.2512798364883502
  0.2288540756821948  0.9795190368601785  0.9846402901379054
  0.8010260171134184  0.4828794327356848  0.5009921934778218
  0.2403400338189135  0.9885345404925914  0.4906874765229181
  0.7508759532233749  0.4878559389338658  0.9997631114295320
  0.7249334461150884  0.9754371855305005  0.7547203293160074
  0.2242121276588173  0.4900170226599485  0.2572406292825883
  0.2370163307458379  0.5080271368854377  0.7467951183812982
  0.7553378447361039  0.0084869046677946  0.2500080468349302
  0.2776341390483505  0.4884304713081665  0.5074564809247942
  0.7512742446531073  0.0056208820591080  0.9997131947188692
  0.7344076065817999  0.9809128145245757  0.5025704795432021
  0.2510870481937394  0.4677595252684406  0.9990460549107475
  0.9961922074577402  0.2528000511371312  0.3855901834998977
  0.4966467169937075  0.7441066390889164  0.8737139245464159
  0.4936328681338881  0.2180667066258720  0.6210860685636765
  0.9922740647539703  0.7410674826667270  0.1181387780347321
  0.0118905911091625  0.2397816796624082  0.8707276401608705
  0.4956864555648823  0.7705059230342214  0.3578903128073150
  0.0071385159673227  0.7594369385493618  0.6324627600980390
  0.4748721067093715  0.2390909930332248  0.1243674104689809
  0.1756600278080793  0.3542154477917376  0.0500377444564769
  0.6506396598346849  0.8611232015528223  0.5534683474830182
  0.6541608980216779  0.1091089994629691  0.9565856181817283
  0.2011501862067165  0.6005155103486913  0.4531405181266310
  0.3486085707588833  0.3709872101615087  0.9475207444036967
  0.8402353382764165  0.8953640387607580  0.4546370272766150
  0.8536728279039622  0.1067043569140768  0.0526526861572346
  0.4081511256138217  0.5761714092906410  0.5332602574855524
  0.8595812512600293  0.1104323360721732  0.1973261505198934
  0.3325330073938034  0.6013415564430903  0.6954663960670533
  0.8452064894783976  0.9129850060287522  0.2961868663918697
  0.3460064424221895  0.4020629281794285  0.7884060216616587
  0.1328579349535435  0.5836666961335487  0.3028624259808032
  0.6397922245916603  0.0797044428559971  0.8051990591238695
  0.1118574709734247  0.4025504144255665  0.2193291515182711
  0.6214606496485869  0.8842982774006948  0.7070881769343031
  0.8668949535778780  0.5873659428288702  0.9536420149955679
  0.3157808768473316  0.0854725504089147  0.4390654071903075
  0.8649979577440672  0.3644769697467161  0.5537408888206310
  0.3463614804648902  0.8993913016701788  0.0346690184426834
  0.1392544188886535  0.0683847609244307  0.5377015279680847
  0.6683423922509401  0.5966473199939654  0.0444099265224151
  0.1056840617362222  0.8910224343074162  0.9434325178351878
  0.6759330996117696  0.4018495935633514  0.4524612332009451
  0.6454910160691304  0.4222622262076033  0.3054955161149571
  0.1563319237155219  0.9150298289965557  0.8006130331576164
  0.1418362994194661  0.1112100902648089  0.6897312843414870
  0.6296461127238324  0.5596773774997703  0.1999885727851268
  0.8345620530833735  0.3794070487485478  0.6863189559285444
  0.3417534238484415  0.9064701354691068  0.1865409831398309
  0.3324386711644723  0.0930155143884261  0.2797524747422264
  0.8303382210131589  0.5850755486041448  0.7889111547673215
  0.1676993866444427  0.0919662627077480  0.0278586068802357
  0.6901965477605931  0.5783006416915754  0.5425337835738639
  0.6405093322009926  0.4395586466169276  0.9430105518610590
  0.1433286328160416  0.9055886538063382  0.4344306934114665
  0.3488620141081801  0.0675130047525331  0.9378078558252939
  0.9055292331863123  0.5823369574301487  0.4603226952338803
  0.8233072953755270  0.3680504031965909  0.0416333972225515
  0.3469552335400676  0.8991695082978070  0.5344187259986201
  0.1418306008936605  0.0689298399757791  0.1810072352444560
  0.6466938798854470  0.6061430016667223  0.6952205303419787
  0.1527839123251537  0.8876595650273226  0.2806297885624601
  0.6500931886842377  0.3977347814125862  0.7846729093202506
  0.8561285703119293  0.6048383981848146  0.2977062570806567
  0.3338623140772228  0.1150805693824041  0.7656559867136001
  0.8484187112281574  0.3856254619972884  0.2111431641158042
  0.3606938731464244  0.8836509839118113  0.6921980102457521
  0.8538266951975314  0.9156044299822204  0.9434397477743045
  0.3471763315670054  0.3748927484271610  0.4624658855969859
  0.8416104010663878  0.0537394548129631  0.5519562463891430
  0.3469135995803680  0.5760238718515546  0.0468648249355390
  0.1777210752181278  0.4094742904677742  0.5669150514506160
  0.6362366468419867  0.9162013356181692  0.0454158339226753
  0.1391687447282033  0.5701049568362208  0.9601819618420454
  0.6391618150360227  0.0733883473847674  0.4521584270126703
  0.3335671463375056  0.3855057977748727  0.3058889727401122
  0.8396595033038883  0.8907595248401394  0.7977069341279496
  0.7992333990102130  0.0840259902361111  0.7036452721203095
  0.3100792258441770  0.5977916703230847  0.2091725586392219
  0.1490868534237563  0.4095423187839439  0.6985552056098217
  0.6894104490083299  0.8967370539520447  0.1933237280002355
  0.6508551605268759  0.0825547667702781  0.2981647645737739
  0.1457404175207290  0.5762240469962630  0.8034746611835758
  0.0782263972195782  0.1651071839789348  0.3294722625763692
  0.5707844398659657  0.6425366042678297  0.8247485446962931
  0.6026586014813138  0.2640551929774581  0.5688942516954953
  0.1386689827640686  0.7487142843164145  0.1023541695790336
  0.4246137467847054  0.3378449490110688  0.6574741451773380
  0.9612411098960957  0.8025457398468832  0.1872775159671080
  0.8843509753575685  0.3426361479246671  0.3554507246319429
  0.4135003101287916  0.8364540766508524  0.8301382694079605
  0.1539653259644076  0.1739616241878390  0.8816957072045525
  0.5947406342619368  0.7493229284226848  0.4087602030057337
  0.0980919438597924  0.6552041766552117  0.5968998608800812
  0.5694589142747915  0.3374825269649074  0.0800449603725841
  0.9295710701073951  0.8266207760054376  0.5797236244364743
  0.3861492719766164  0.1440207197603228  0.0726049519431886
  0.9605366144354937  0.3226242840913570  0.9290803369248432
  0.3829808339485360  0.8627423994141177  0.3879140272622806
  0.1065741902573920  0.8545604759636952  0.6699223365528473
  0.3738737066149581  0.3122959771384292  0.1648908352959477
  0.9168591819175332  0.1384722163480297  0.8403242436214449
  0.4312587758740368  0.6378207614824579  0.3303599984507180
  0.0432264026266817  0.3445484164176168  0.8134791788807711
  0.5822992839382544  0.8426548730140595  0.3077919797732516
  0.9268702495592740  0.6914392728335145  0.6871049057253976
  0.5755286547647924  0.1509492251682099  0.1665178180721961
  0.3730072560998794  0.1581838533088305  0.5794993773133492
  0.9109318943197886  0.8277509159513631  0.0686357770248045
  0.9286368679374323  0.1614160511685968  0.4385067748849416
  0.4122211189303360  0.6570437263229341  0.9223219898402640
  0.0971196063570490  0.3401564703576913  0.4189712524849467
  0.6211977975770843  0.7937925413096217  0.9169085835950596
  0.5908967752337642  0.1436654283128927  0.6709317750716584
  0.9341895316073040  0.6022860081941503  0.1133063866101279
 
 -0.68372640E-02 -0.32968847E-02 -0.22577071E-02
  0.54564677E-02  0.28102285E-02  0.18779720E-02
 -0.11596779E-02  0.61094789E-03 -0.15504648E-02
 -0.61062492E-02  0.36091070E-02 -0.40011454E-03
  0.97548012E-02  0.89336750E-03 -0.11706127E-01
 -0.76918985E-03  0.60420322E-02 -0.15684384E-01
  0.96711401E-02  0.86103618E-02  0.15775075E-02
 -0.53449634E-02 -0.14840771E-02 -0.96485295E-04
  0.87156255E-02  0.39859031E-02  0.98948241E-02
 -0.68502543E-02  0.46165160E-02 -0.86151707E-02
  0.72118839E-02  0.14103767E-02  0.15626562E-01
  0.10836773E-01 -0.93688041E-02 -0.52933271E-02
 -0.88453490E-02  0.10413385E-01 -0.52870242E-02
 -0.18830269E-02 -0.15058557E-02 -0.32979566E-02
 -0.53811227E-02 -0.32620843E-02 -0.20108295E-03
  0.73027488E-02  0.37155635E-03 -0.56309679E-02
 -0.49006239E-02  0.35516861E-02  0.82126646E-02
  0.43668550E-03 -0.11889519E-03 -0.19819129E-04
  0.81787223E-02 -0.10243509E-02  0.28680773E-02
 -0.38348037E-02  0.34488907E-02 -0.53741442E-04
  0.19816474E-02 -0.36393469E-02 -0.99462336E-02
 -0.63324279E-02  0.23823443E-02 -0.60485180E-02
  0.16432907E-02  0.14125269E-02  0.73475913E-02
 -0.47677142E-02  0.41724736E-02 -0.37392873E-02
 -0.47806268E-03  0.72602545E-02  0.16877094E-01
 -0.17209537E-02  0.18392519E-02 -0.52880616E-02
 -0.15498173E-02 -0.13017017E-01 -0.37264628E-02
 -0.13817303E-02 -0.12933654E-02  0.62816014E-02
 -0.38352941E-02  0.22171698E-02  0.13659578E-02
 -0.63516698E-02  0.58743182E-02  0.45967747E-02
  0.56185970E-05  0.14738115E-02  0.40977977E-02
 -0.10073912E-01 -0.21357584E-02 -0.30671712E-02
  0.72861856E-02  0.48236582E-02 -0.53160487E-03
 -0.57840446E-02 -0.82229177E-03 -0.48771517E-02
 -0.29821994E-02  0.64932074E-02 -0.43928940E-02
  0.10525241E-02 -0.70043063E-03 -0.73996688E-02
 -0.39942284E-02 -0.24802646E-02 -0.12830176E-02
  0.61200658E-02 -0.22246070E-02  0.30622245E-02
  0.17043643E-02 -0.82096380E-02 -0.22494053E-02
  0.13039091E-02 -0.10744789E-02 -0.27395218E-02
 -0.56462310E-02 -0.96647175E-03  0.56042027E-02
  0.24427432E-02 -0.64650124E-03 -0.36215902E-02
 -0.29574083E-02  0.69821345E-02  0.23894507E-02
 -0.36252335E-02  0.71402577E-02  0.66375996E-02
 -0.33275882E-02  0.89347366E-02 -0.27602246E-02
 -0.47971456E-03  0.38749126E-03 -0.41400004E-02
  0.24776954E-02 -0.74515365E-03  0.14803926E-02
  0.64120132E-02 -0.70069546E-02 -0.10153046E-02
  0.75801812E-02 -0.60362354E-03 -0.80416940E-03
 -0.56858362E-02  0.42702763E-02  0.13342263E-02
 -0.32233188E-02  0.63433520E-02 -0.97942509E-03
  0.50273006E-02  0.65341724E-02 -0.13622857E-02
 -0.54736593E-02 -0.40320167E-02 -0.27150423E-02
 -0.15401756E-03 -0.94312757E-02 -0.56014840E-02
 -0.58858119E-02 -0.78799910E-02 -0.59193166E-02
 -0.67573793E-02 -0.24397284E-03 -0.10694471E-01
  0.29512066E-02 -0.60486073E-02 -0.45332326E-03
 -0.18362028E-02  0.26068766E-03 -0.36772800E-02
 -0.78277981E-03 -0.11311436E-01 -0.46601550E-03
  0.30560019E-02  0.78640692E-03 -0.44481913E-02
 -0.10143649E-01  0.64136297E-02 -0.54523621E-02
 -0.24300813E-02  0.66350655E-02 -0.24087143E-02
  0.27032154E-02 -0.45929186E-03  0.38205570E-04
  0.43355995E-02 -0.35774581E-02 -0.37417223E-02
  0.19260636E-02  0.17854197E-02 -0.63746944E-02
 -0.60894987E-02 -0.73683930E-03 -0.20954264E-03
 -0.52216464E-02 -0.19982076E-02 -0.75769587E-02
 -0.97587830E-02 -0.99417889E-02 -0.83018684E-03
  0.55134561E-02 -0.22291623E-02 -0.13951577E-02
 -0.32741718E-02 -0.49573021E-03 -0.65931564E-02
 -0.14630671E-02 -0.33954402E-02  0.14134134E-02
  0.82694564E-02 -0.70718791E-02 -0.63577634E-03
 -0.10174661E-01  0.76863147E-02 -0.34121306E-02
 -0.53200522E-02  0.16352794E-03  0.19691772E-02
 -0.62890833E-03 -0.49896570E-02  0.18594528E-03
 -0.75568450E-03 -0.33332274E-02  0.58507763E-02
 -0.83162847E-03  0.74574053E-02 -0.82134775E-02
  0.41643843E-02  0.36706235E-02 -0.51003120E-02
  0.42478472E-02 -0.69564807E-02  0.54275327E-02
 -0.94759148E-03 -0.54546697E-03 -0.82047594E-02
  0.38286909E-02 -0.11533115E-01  0.40511262E-02
  0.46424012E-03 -0.35221059E-02  0.14913749E-03
  0.28798312E-03 -0.27094303E-02  0.24812036E-02
  0.22496972E-02  0.44078976E-03 -0.39776008E-03
  0.35328686E-02 -0.55778041E-02 -0.80617511E-02
 -0.83595175E-02 -0.15098879E-02  0.20487090E-02
 -0.23785187E-02  0.22527638E-02 -0.35194922E-02
  0.54938840E-02 -0.27161079E-02 -0.65378306E-03
  0.21080886E-02  0.42249901E-02  0.10987730E-02
  0.19826614E-02  0.70721333E-02 -0.85703452E-03
  0.54710113E-02 -0.21444734E-03  0.65160002E-03
  0.49766464E-02  0.28502558E-02  0.13530717E-03
  0.81439420E-03  0.14194579E-02  0.17568560E-03
  0.42529733E-03  0.41081499E-03  0.41554164E-02
 -0.41093607E-02  0.26586941E-02 -0.41665936E-02
 -0.45058551E-03  0.44121066E-02 -0.17886236E-02
  0.89888790E-03  0.40330037E-03  0.14251313E-02
  0.11468415E-02 -0.29052193E-02  0.13573134E-02
  0.16498659E-02  0.20858946E-02  0.81595742E-02
  0.44206383E-02 -0.82351672E-02  0.24185439E-02
  0.35063001E-02 -0.50893224E-02  0.16889743E-02
 -0.43972552E-02  0.16157136E-03  0.29892562E-02
  0.28398566E-02  0.10343816E-02 -0.44990635E-02
 -0.21448048E-02 -0.44476388E-03  0.13503421E-02
  0.22020679E-02 -0.25142342E-02  0.11458446E-02
  0.53051983E-02  0.69943411E-03  0.42362725E-04
  0.72743911E-03 -0.22694638E-02 -0.87692894E-02
 -0.15186524E-02  0.10414958E-01 -0.85487445E-02
 -0.34592132E-02  0.13491442E-02  0.52510354E-02
 -0.49299834E-02  0.21906180E-02 -0.50143214E-02
 -0.18261308E-02 -0.50095588E-02  0.60282932E-03
 -0.24945942E-02  0.97415082E-03 -0.11627279E-01
  0.54354032E-02 -0.12581682E-02  0.29317577E-02
 -0.72687598E-02 -0.30739326E-02  0.58489864E-02
  0.30369895E-02 -0.50842916E-02 -0.60636650E-02
  0.15014230E-02  0.34548964E-03  0.25518238E-02
 -0.55678623E-02 -0.39460774E-02 -0.36234140E-02
  0.42579941E-02  0.74528213E-02 -0.70544729E-03
  0.41540457E-02  0.15887364E-02  0.33340108E-02
 -0.22823369E-02 -0.37341863E-02  0.51021329E-02
 -0.30082670E-02 -0.39799541E-02 -0.51851834E-02
 -0.11626457E-01 -0.53129979E-02 -0.47260810E-04
  0.11100418E-03  0.23531848E-02 -0.25557945E-02
  0.99816190E-03  0.14954140E-03 -0.29712764E-02
 -0.27349032E-02 -0.59169368E-02 -0.63541838E-02
 -0.50208435E-02  0.83030938E-02  0.12813017E-02
 -0.29997133E-02 -0.36481980E-02  0.28797603E-02
  0.58608577E-02  0.27089768E-03  0.53925926E-02
 -0.27381203E-03  0.42743920E-02 -0.11510123E-02
  0.48978138E-03 -0.63481834E-03  0.49932728E-03
 -0.21012278E-02 -0.14024111E-02 -0.34660349E-02
  0.87780808E-02 -0.26460601E-02  0.14865484E-03
 -0.58211510E-03 -0.60885641E-02 -0.62334461E-02
  0.83918130E-02 -0.26721754E-02  0.92051071E-02
  0.52416290E-02 -0.10973802E-02 -0.15175809E-02
  0.25276285E-02  0.13100197E-02  0.21407705E-02
 -0.16068617E-02  0.35568149E-02 -0.16224831E-03
  0.18377528E-02 -0.66671192E-02  0.29112616E-02
  0.35686075E-02 -0.63514900E-02 -0.69263189E-02
 -0.86838377E-03 -0.50125276E-02  0.64073704E-02
  0.16103376E-02  0.54477720E-03  0.14361268E-04
  0.86802151E-03  0.95965522E-03  0.47180537E-02
  0.36980191E-03  0.86090500E-03  0.34122356E-02
 -0.27487468E-02 -0.73211365E-02 -0.87443222E-03
 -0.10066655E-01 -0.11183514E-01  0.72150565E-02
  0.51764214E-02 -0.61675274E-02 -0.24995858E-02
 -0.67692210E-02  0.52215197E-02 -0.74059649E-02
 -0.55117606E-02  0.25359907E-02 -0.54836392E-02
 -0.95468742E-03 -0.34835080E-02 -0.44494645E-03
 -0.63410968E-03  0.15075015E-02  0.69061431E-02
 -0.31018746E-03 -0.46279436E-02  0.33002963E-02
  0.15260399E-02 -0.34519440E-02 -0.21255988E-02
 -0.42631916E-02  0.33454943E-02  0.10666618E-01
  0.26220386E-02 -0.65204235E-02  0.24704981E-02
  0.23973587E-02  0.57474414E-02 -0.18252703E-02
  0.62185708E-03 -0.10818438E-02 -0.14825267E-02
 -0.69178523E-03 -0.52053962E-02  0.32131982E-02
  0.67406089E-02 -0.38020457E-02  0.45199657E-02
  0.46730764E-02 -0.78045577E-03 -0.28769618E-02
 -0.22598548E-03  0.93874892E-03  0.12012214E-02
 -0.77224060E-02 -0.36158619E-03 -0.11083679E-02
  0.51035218E-02  0.46379340E-02  0.34891548E-02
  0.13835957E-02  0.41998271E-02  0.60684863E-02
  0.19722250E-02  0.40014918E-02 -0.32419870E-02
  0.97888016E-02  0.73778303E-02  0.12104372E-01
 -0.92897572E-03  0.13793436E-02  0.24511609E-02
 -0.26229380E-04 -0.27412479E-02 -0.42464014E-03
 -0.17737563E-02  0.14161919E-02  0.59903899E-02
  0.35675406E-02 -0.17824032E-02  0.71836176E-02
  0.13259572E-03  0.17696918E-02 -0.27962166E-04
  0.37666661E-02  0.88770256E-02  0.22090303E-03
  0.43504152E-02 -0.29494565E-02 -0.75872685E-04
 -0.14598906E-02 -0.16864071E-02 -0.34662361E-02
  0.24795801E-02 -0.67153661E-03  0.22138985E-02
 -0.36159642E-02  0.37044565E-02  0.87196607E-03
 -0.22928658E-03 -0.94493330E-03 -0.16013388E-02
  0.13280874E-02 -0.19944240E-02  0.96373681E-02
  0.68753856E-03  0.41753557E-02 -0.40273030E-02
 -0.13321350E-03  0.12291839E-02  0.40723815E-02
  0.23002075E-02 -0.46297892E-02 -0.90806163E-03
  0.31633948E-02 -0.20849717E-04 -0.36892169E-02
 -0.55773888E-02  0.74656574E-02 -0.19172938E-02
  0.38687508E-02  0.17717734E-02 -0.35806993E-02
  0.22160473E-02  0.40445183E-02  0.29547365E-02
 -0.25979562E-02  0.12855312E-01  0.17437496E-02
  0.85564725E-02 -0.65223246E-02  0.11295227E-01
  0.33660128E-02  0.61982164E-02  0.70556040E-03
  0.13250969E-02 -0.20584319E-03 -0.34142541E-02
 -0.22566865E-02  0.50284554E-02 -0.22844091E-02
  0.52074388E-02  0.49720485E-02  0.16890265E-02
 -0.12338727E-02 -0.78129978E-02 -0.12850090E-02
  0.58690124E-02  0.10552687E-02 -0.20770889E-02
 -0.59284452E-03  0.53377017E-02 -0.13924250E-02
 -0.13203941E-01  0.76985517E-02 -0.56343143E-02
 -0.52150145E-02  0.14345790E-02 -0.25913119E-03
  0.40219853E-02 -0.25841856E-02 -0.72848260E-02
 -0.51391669E-02  0.15930393E-02  0.27963284E-02
 -0.24292638E-02 -0.90453067E-03 -0.13980711E-02
 -0.32543106E-03 -0.69393015E-02  0.68475972E-02
 -0.40702724E-03  0.18913917E-02  0.38539604E-02
 -0.26055062E-02  0.21852297E-02  0.69285165E-02
 -0.63773738E-02 -0.22841644E-02  0.63680172E-02
 -0.28955797E-02 -0.44256339E-02 -0.43943346E-02
 -0.56774535E-02 -0.44791284E-02 -0.20961025E-02
 -0.47427605E-02 -0.15520951E-02  0.44451752E-02
  0.10674011E-01 -0.34347110E-02 -0.38201961E-02
 -0.10899076E-01 -0.84099354E-03  0.31388547E-02
 -0.40503858E-02  0.46026894E-02  0.33787013E-04
 
           1
   2.00000000000000     
  0.79398167E+00 -0.11763860E-02  0.00000000E+00  0.00000000E+00
  0.99322270E+00  0.97046150E+00  0.22769969E+00
  0.47247720E+00  0.49393370E+00  0.72430993E+00
  0.47245458E+00  0.48563686E+00  0.86692190E+00
  0.99123778E+00  0.98487534E+00  0.49520485E+00
  0.48789073E+00  0.20241155E-01  0.86668786E+00
  0.23299650E+00  0.46605816E+00  0.37360162E+00
  0.32297671E-02  0.47526719E+00  0.16105990E-01
  0.20720866E+00  0.24202730E+00  0.26616795E+00
  0.73200060E+00  0.94725262E+00  0.63054675E+00
  0.76323104E+00  0.24016924E+00  0.78502868E+00
  0.73081069E+00  0.91407213E+00  0.36854915E+00
  0.23747597E+00  0.76111192E+00  0.88950428E+00
  0.75449913E+00  0.22910292E+00  0.12540561E+00
  0.25434489E+00  0.78705629E+00  0.60740369E+00
  0.83195991E-02  0.31678392E-01  0.91215078E+00
  0.50375170E+00  0.46329653E+00  0.36696161E+00
  0.28408698E-02  0.20066458E-01  0.61692621E+00
  0.99605784E+00  0.46968166E+00  0.62378203E+00
  0.21903354E+00  0.93657776E+00  0.11614289E+00
  0.99188842E+00  0.50378346E+00  0.88002212E+00
  0.48750029E+00  0.11091361E-01  0.35841436E+00
  0.23265219E+00  0.60679172E-02  0.35062541E+00
  0.73571029E+00  0.52682557E+00  0.86762187E+00
  0.65044611E+00  0.47584408E+00  0.62146982E+00
  0.16627021E+00  0.54028846E+00  0.10991044E+00
  0.24866248E+00  0.28623772E+00  0.64094149E+00
  0.73139215E+00  0.73019616E+00  0.12038847E+00
  0.77043225E+00  0.23902122E+00  0.49013827E+00
  0.58225562E+00  0.70834651E+00  0.51373642E+00
  0.52105164E+00  0.95527401E+00  0.12687345E+00
  0.26875032E-01  0.45333960E+00  0.50308447E+00
  0.46813234E+00  0.96499132E+00  0.60381160E+00
  0.98846970E-02  0.76710617E+00  0.29880099E+00
  0.48136059E+00  0.98883885E+00  0.75544434E+00
  0.98150056E+00  0.72410938E+00  0.98064360E+00
  0.47236697E+00  0.19372666E+00  0.48526924E+00
  0.49275142E+00  0.15493216E-01  0.17869159E-02
  0.72807263E+00  0.22027093E+00  0.23801374E+00
  0.99727929E+00  0.74819508E+00  0.77516331E+00
  0.43795824E+00  0.74748190E+00  0.23660012E+00
  0.96365937E+00  0.98428519E+00  0.38173869E+00
  0.51930451E+00  0.73825481E+00  0.13901742E-01
  0.48655769E+00  0.74552615E+00  0.73645856E+00
  0.95443478E+00  0.56134174E+00  0.21765051E+00
  0.25076786E+00  0.20986928E+00  0.97436991E+00
  0.81382419E+00  0.72767644E+00  0.51184198E+00
  0.36080060E+00  0.70513277E+00  0.46578075E+00
  0.75485211E+00  0.26993158E+00  0.93430176E+00
  0.98179444E+00  0.99562027E+00  0.72746901E+00
  0.48727029E+00  0.49567059E+00  0.25409695E+00
  0.99621381E+00  0.49802265E+00  0.74670341E+00
  0.50493425E+00  0.99578486E+00  0.23748034E+00
  0.21265523E+00  0.24857366E+00  0.51729863E+00
  0.76115969E+00  0.73397366E+00  0.99196847E+00
  0.75184796E+00  0.23757471E+00  0.62594382E+00
  0.22047896E+00  0.74192583E+00  0.46108490E-02
  0.99947624E+00  0.97156204E+00  0.39442434E-01
  0.50272582E+00  0.38728111E+00  0.52635870E+00
  0.49934446E+00  0.50061707E+00  0.99938379E+00
  0.33587644E-02  0.51419139E+00  0.35682105E+00
  0.46467484E+00  0.26974776E+00  0.74874329E+00
  0.56023757E-01  0.74704163E+00  0.48921766E+00
  0.98782864E+00  0.24547661E+00  0.25673147E-01
  0.49999649E+00  0.94092506E+00  0.46689250E+00
  0.43529252E+00  0.24891844E+00  0.25559395E+00
  0.78369156E+00  0.74161604E+00  0.87394306E+00
  0.17349088E+00  0.76391993E+00  0.19871932E+00
  0.98284582E+00  0.22382782E+00  0.73551603E+00
  0.77052946E+00  0.70848204E+00  0.23905080E+00
  0.18844910E+00  0.24974101E+00  0.77256693E+00
  0.95669375E+00  0.25593559E+00  0.26639584E+00
  0.22356271E+00  0.73967418E+00  0.75076763E+00
  0.46574456E+00  0.46508990E+00  0.12538019E+00
  0.74107885E+00  0.71640157E+00  0.62362735E+00
  0.75841082E+00  0.24512722E-01  0.86853900E+00
  0.25017757E+00  0.22673650E+00  0.39137481E+00
  0.26242801E+00  0.28410934E-01  0.85242939E+00
  0.75976051E+00  0.18525773E+00  0.37911730E+00
  0.83291722E+00  0.97404084E+00  0.12646830E+00
  0.33976882E+00  0.48569598E+00  0.61520126E+00
  0.50858621E+00  0.26637903E+00  0.98647176E+00
  0.24451655E+00  0.70106844E+00  0.36060653E+00
  0.74066146E+00  0.74871716E+00  0.74344614E+00
  0.19538094E+00  0.24890564E+00  0.13054458E+00
  0.22649114E+00  0.98622018E+00  0.61202253E+00
  0.73492901E+00  0.49334690E+00  0.12227235E+00
  0.19677420E+00  0.39398926E+00  0.86788043E+00
  0.75866575E+00  0.54922425E+00  0.38430978E+00
  0.25022962E+00  0.99289909E+00  0.23176156E+00
  0.73860526E+00  0.49231760E+00  0.73477371E+00
  0.24646293E+00  0.98281024E+00  0.73473786E+00
  0.74456262E+00  0.48390424E+00  0.25128998E+00
  0.22897615E+00  0.97973181E+00  0.98465346E+00
  0.80108977E+00  0.48294101E+00  0.50130364E+00
  0.23972404E+00  0.98893308E+00  0.49037519E+00
  0.75080841E+00  0.48851731E+00  0.99962905E+00
  0.72506819E+00  0.97549764E+00  0.75482714E+00
  0.22438404E+00  0.48958153E+00  0.25734236E+00
  0.23726365E+00  0.50833981E+00  0.74740668E+00
  0.75600050E+00  0.72524520E-02  0.25018932E+00
  0.27815973E+00  0.48766758E+00  0.50758307E+00
  0.75061510E+00  0.56451016E-02  0.99993724E+00
  0.73483330E+00  0.98106787E+00  0.50223327E+00
  0.25076554E+00  0.46769286E+00  0.99914726E+00
  0.99652230E+00  0.25242317E+00  0.38567606E+00
  0.49744197E+00  0.74421148E+00  0.87371710E+00
  0.49374191E+00  0.21772651E+00  0.62042881E+00
  0.99204642E+00  0.74262869E+00  0.11749805E+00
  0.11372055E-01  0.23998392E+00  0.87112121E+00
  0.49494745E+00  0.77083430E+00  0.35751449E+00
  0.68647787E-02  0.75868601E+00  0.63250794E+00
  0.47449817E+00  0.23923702E+00  0.12349595E+00
  0.17647480E+00  0.35402685E+00  0.50257480E-01
  0.64955007E+00  0.86066242E+00  0.55390673E+00
  0.65461614E+00  0.10834686E+00  0.95613115E+00
  0.20137525E+00  0.60056730E+00  0.45333178E+00
  0.34777395E+00  0.37039569E+00  0.94724917E+00
  0.84087361E+00  0.89648122E+00  0.45458415E+00
  0.85429552E+00  0.10694251E+00  0.52902570E-01
  0.40780900E+00  0.57561165E+00  0.53364266E+00
  0.85913031E+00  0.10983574E+00  0.19693752E+00
  0.33079020E+00  0.60054514E+00  0.69546285E+00
  0.84522313E+00  0.91333775E+00  0.29599531E+00
  0.34615607E+00  0.40208534E+00  0.78818332E+00
  0.13244797E+00  0.58277975E+00  0.30238618E+00
  0.63903960E+00  0.80949078E-01  0.80529509E+00
  0.11140781E+00  0.40200355E+00  0.21954499E+00
  0.62233919E+00  0.88433888E+00  0.70749235E+00
  0.86685391E+00  0.58800667E+00  0.95355575E+00
  0.31585430E+00  0.85377391E-01  0.43910283E+00
  0.86468298E+00  0.36426675E+00  0.55348111E+00
  0.34767732E+00  0.89899466E+00  0.34680160E-01
  0.13916716E+00  0.67472084E-01  0.53723433E+00
  0.66960033E+00  0.59624676E+00  0.45099850E-01
  0.10646978E+00  0.89085794E+00  0.94331878E+00
  0.67631199E+00  0.40204597E+00  0.45262168E+00