Na88 Sn16 P8 Se96                       
   1.00000000000000     
    14.0793397336999995    0.0000000000000000    0.0000000000000000
     0.0000000000000000   14.0793397336999995    0.0000000000000000
     0.0000000000000000    0.0000000000000000   28.1586794673000007
   Na   Sn   P    Se
    88    16     8    96
Direct
  0.0207265340394991  0.0567595577512962  0.1347467698226695
  0.5012638253106166  0.5058404419361874  0.6212219855345108
  0.4980951858609017  0.4886721447895123  0.8794541561384972
  0.9990077215936138  0.9712926155732213  0.3857730265253776
  0.4833375912314889  0.0099002356497242  0.8695596480751286
  0.0046164262603067  0.4962990583933401  0.3825810536413831
  0.9785616467522965  0.5055326534717400  0.1232992428969545
  0.2470013011440488  0.2637055347452789  0.1374320014754815
  0.7186349144164829  0.7345397002565429  0.6154724447768078
  0.7332960466070972  0.2611223031992430  0.8819859075844184
  0.7491486762659508  0.7574195028820709  0.3772158046987042
  0.2763497542517860  0.2653525735827454  0.8968743024122001
  0.7709802561386112  0.2793997588679162  0.1208820450718204
  0.2792935855597678  0.7503681313095208  0.6367730007625028
  0.9920957472260629  0.9994969956397858  0.8837965817895049
  0.4833065542857438  0.4881073417502624  0.3726919124100673
  0.9872313813866849  0.0056740154501127  0.6281854295509969
  0.0237536954454408  0.4460594087560559  0.6302627085205118
  0.5027929996801546  0.9935735623169210  0.1274687486879133
  0.0080329540740385  0.5388171958647895  0.8804880483890904
  0.4991775699326129  0.0161282704215325  0.3795014750194672
  0.2889215841048140  0.2421046694091140  0.3877104679447000
  0.7511858895573414  0.7526863012278522  0.8722781700861844
  0.7713659559114697  0.2298944810961818  0.6192465743691037
  0.2750779068838180  0.7437781359374885  0.1371160228866306
  0.2539739116858798  0.2294295439009696  0.6416682290936039
  0.7209996511113641  0.7674599263052116  0.1173389600575606
  0.7316385894195288  0.2406281439146466  0.3783806731827993
  0.4513457993684816  0.7585483395927464  0.5037161301860792
  0.4857458811839405  0.2370172537817615  0.9995063189498347
  0.9955573406373921  0.5093414887566015  0.4985985913982953
  0.5086934966398765  0.7216541992335833  0.7511489034572151
  0.1154575233883058  0.7352290918244339  0.2412694100698957
  0.5143130986842993  0.2775144652708280  0.7424006772857362
  0.9961026473114845  0.9889155849229370  0.0044798182192394
  0.4847065784582298  0.2600347073574649  0.5007225037728421
  0.4594434756176334  0.7315312220486160  0.0012061652883997
  0.5127448028094234  0.2287605941814074  0.2407507488394456
  0.1243162633685725  0.7585060930512765  0.7445258409995918
  0.5119813958446017  0.7712796955433727  0.2463182995942732
  0.0334738367814317  0.9814681365891225  0.2494116913710313
  0.5446880477327457  0.5101616663220018  0.7604322341356166
  0.4902838840060221  0.9939642821298035  0.7367819923146167
  0.9708824205067458  0.4992501700115200  0.2406965464604258
  0.2526577184528315  0.2459432440775396  0.0103137152948575
  0.7773575993063135  0.7318555603050082  0.5117810697407841
  0.1962651559346481  0.7822865305890701  0.5004647375802204
  0.7254979262457556  0.2389183235951085  0.0085899738361390
  0.9699075612210434  0.0143240934638252  0.7422598871350449
  0.4915700613490238  0.4947804800466356  0.2381651185647017
  0.0312288330859745  0.5166168936756543  0.7435144956104878
  0.5443116361597855  0.9914308966994877  0.2609221040411019
  0.2475704568937794  0.2554472212940796  0.5021230087611199
  0.7515763374019705  0.7755730192648624  0.0068866948650079
  0.7225727540148024  0.2585030938780141  0.5050044294797803
  0.2018359744788784  0.7226002723880888  0.0013715486679016
  0.9860858912830585  0.2649368044465178  0.0135100432971279
  0.4956848581003176  0.5344567555774772  0.4924833360812839
  0.4924130075979953  0.4867619635273172  0.0240456127858149
  0.9966634032215607  0.9872262620507555  0.5112981204609971
  0.4904516086863712  0.9592838637345168  0.9905461778837599
  0.9876706667565194  0.2382524922659957  0.5109346111243278
  0.0018245737622923  0.5031347738137729  0.0080115762552358
  0.4933415098586292  0.0124686113331089  0.5227610504063027
  0.1779743523369104  0.2756929967869555  0.2744373467997707
  0.7800713489729010  0.7288869990610232  0.7340843643918346
  0.2430989969668155  0.7158199451614412  0.3657012627820797
  0.7894707555572019  0.2265176672060835  0.7622908181296101
  0.7733079893421525  0.7704768357232993  0.2373025650147758
  0.1953305735068128  0.2355191996239808  0.7760624677206425
  0.7865532688008591  0.2678714779326988  0.2560460848392196
  0.2437004181011531  0.7915661298599422  0.8686254087609242
  0.2773204348695331  0.5170216373444824  0.1391479493957872
  0.6744848336059542  0.9873289575383213  0.6247277832316406
  0.7299032722015867  0.0110752258620809  0.8739097362268974
  0.2484679933631921  0.4995300451725145  0.3791824163480636
  0.2789818019737085  0.5152502791846797  0.8695066551572808
  0.7627719853774286  0.0058837967750058  0.3727455334453864
  0.7610344035354479  0.0241222723575174  0.1246674064039147
  0.2635629813357772  0.4918176033114952  0.6248020771262022
  0.7678201568150177  0.5031148834426777  0.8750806225709783
  0.2793359850191517  0.9795272275717239  0.3719508070063394
  0.7601109499800627  0.4783345145698689  0.6280491670317339
  0.2484418146233147  0.0018281331317780  0.1224021704950706
  0.2905781395022793  0.9896666974281483  0.6422295175098551
  0.6859037538590799  0.5206073086821893  0.1259575470063070
  0.2349815557617350  0.0097627471017259  0.8785490451630416
  0.7403662706432058  0.4728687173027997  0.3691679024910523
  0.2788041116886739  0.9928029961288950  0.2531838460862322
  0.7992589871336088  0.4742080876923666  0.7448323734508328
  0.2348776275162242  0.9935350065329038  0.7572715577951782
  0.7266098229621495  0.5247783330070999  0.2409569936372919
  0.2534348933180424  0.9876856384398103  0.9962495806335426
  0.7547669590444858  0.4950703618808772  0.4983045693492576
  0.2425131956021655  0.0097453877484997  0.5016924557967620
  0.7399535104216228  0.5192349406372735  0.0012335754502118
  0.7271971362051093  0.9745627001447068  0.7422970558429758
  0.2380981267288113  0.5073239636746716  0.2570664300505637
  0.2819483647347285  0.5098951746643009  0.7535543534169180
  0.7944025226271834  0.0247003383665026  0.2466882294523320
  0.2576586553629510  0.5129039506438064  0.4968975266178726
  0.7561845524340242  0.0068031960749003  0.9985258898698336
  0.7384465251289126  0.9847182219575817  0.5019330571125009
  0.2407836376125167  0.4883731518455028  0.0049610222661656
  0.9934936115093135  0.2356337260614288  0.3785399022968978
  0.4880574060426340  0.7455447976467537  0.8678373680454093
  0.5014433994613342  0.2438353278763642  0.6157117293156659
  0.0030147476675481  0.7674613408356517  0.1252535507395789
  0.9964498715773860  0.2632426198494643  0.8811948441418321
  0.4892757482190667  0.7562577046237204  0.3675282076781793
  0.0035841874803051  0.7382597325644255  0.6251078863098709
  0.4987563983393989  0.2502404762584758  0.1169316491738550
  0.1365212605457307  0.3772003275455181  0.0594253181597137
  0.6244001362058531  0.8726100569043408  0.5453693819743813
  0.6279018992574378  0.1022135345641097  0.9485061156529166
  0.1439646950859640  0.6168534533593951  0.4513075166370287
  0.3599169608012797  0.3894029440195927  0.9618030363550284
  0.8458324821469311  0.8853346048594501  0.4508217643807596
  0.8632153838139474  0.1249755811858558  0.0447274132083888
  0.3501672245810639  0.6080230940576623  0.5570155781506290
  0.8579223653379676  0.1288098756429037  0.1842048667005691
  0.3950081222041695  0.5914894631445091  0.7027340376144547
  0.8790179949019354  0.9059778191815345  0.2942036249103553
  0.3926242156354650  0.3911452053521484  0.7943957867393202
  0.1056545017333579  0.5841183545242327  0.3109500984252253
  0.6358986901872168  0.0900339298105245  0.7964120613151586
  0.1458758762002764  0.4194541792098322  0.1897772232745547
  0.6124806602223367  0.8679605539528120  0.6936419900589067
  0.8497810426045093  0.6121138293323234  0.9479581207483311
  0.3601857663997679  0.1124070141935020  0.4599681450221221
  0.8613720008828510  0.3763953410050524  0.5445887037220524
  0.3472069862147281  0.8882872614365572  0.0551697121820680
  0.1390000399559585  0.1141855635396039  0.5597214354658439
  0.6227605777792905  0.6273929024869705  0.0457744173901947
  0.1358996960718388  0.8812724100133248  0.9523506375382073
  0.6281413142245437  0.3990801719513858  0.4469687806043808
  0.6356126734975101  0.4084331253452011  0.2934888505214913
  0.1028975370483284  0.9156746025752580  0.8114504032692139
  0.1391756700584219  0.0920762779006511  0.6931621892453373
  0.6040234436503259  0.6244550205629976  0.1946907662315396
  0.8693518977627206  0.3676278446352297  0.6849698774153590
  0.3951945830577680  0.9129745061438068  0.2056888615339065
  0.3867944212755536  0.1112695341416236  0.2931479596034866
  0.8836049372700175  0.5943443745931480  0.7911184430200671
  0.1489579207880208  0.0856909971030401  0.0477661959828092
  0.6484906888546389  0.6046792587468495  0.5517912575410179
  0.6325437996852706  0.4059250316029375  0.9504115004651800
  0.1355996117437267  0.9219700863448165  0.4410114036272392
  0.3559501553419132  0.0911517768290703  0.9492073965550170
  0.8526249291338709  0.5872892601816683  0.4413584761212226
  0.8462580523197154  0.4147700579599585  0.0554339977976654
  0.3390613510005658  0.8957442606338913  0.5460634787576490
  0.1684289049926457  0.1077377993684547  0.2092432007680541
  0.6835324987863822  0.5890314508086080  0.6954500907799470
  0.1631930360145169  0.8818158512113261  0.2962835081555691
  0.6865567911415595  0.3825290737395969  0.7953023086916132
  0.8329487601650357  0.6134410718380957  0.2976540317407547
  0.3433331425152861  0.1040200924768523  0.7997005844648688
  0.8306906429439663  0.4146060594160146  0.1896433048502482
  0.3154842995256294  0.8495205641603695  0.7197164570251902
  0.8555071445493878  0.9063897586484906  0.9440153044667644
  0.3562124333571051  0.4051014691281227  0.4498869335835594
  0.8415249157872563  0.0898957515551038  0.5557545694662241
  0.3378835103631425  0.5970739163420062  0.0517509871683692
  0.1465192506729521  0.4149414401853822  0.5448484354752747
  0.6485672730583122  0.8980122168619861  0.0538294548795564
  0.1421974017283595  0.5734123633987381  0.9392155863375359
  0.6339960571156883  0.0939853295641509  0.4488541222634669
  0.3467715876439908  0.3956291620079070  0.2989962139772916
  0.8321339488678069  0.8837177924803108  0.7974935642341012
  0.8282267567023667  0.0907534746095333  0.6909185125317536
  0.3103307134114633  0.6581829804203431  0.2222816563588006
  0.1688778037412682  0.3991364074539013  0.7103270790230031
  0.6818548609530943  0.9061189220483170  0.1972773846642975
  0.6776848981347375  0.1171322070936794  0.2967013054889533
  0.1633237653897193  0.6144830484191749  0.7969621927322593
  0.0892002088512723  0.1311993127234359  0.3376998779627085
  0.5862648478012427  0.6472921853718281  0.8259640169303875
  0.6023056268284961  0.3313389786204459  0.6534514296678509
  0.1153151945989744  0.8610907239654223  0.1602786509504329
  0.4378364895730468  0.1527162599094543  0.6701720620265983
  0.9114274975451389  0.6784724382882030  0.1709168188556392
  0.8970771250515961  0.3375713167324880  0.3394042721191793
  0.4181500571982854  0.8324947833999806  0.8143708224230679
  0.0790381947374759  0.1718962145521483  0.9341426309322075
  0.5764286332875497  0.6652961976431718  0.4108420263897364
  0.0890360994606734  0.8543556313658620  0.5882319477159998
  0.5839465969339878  0.3284031924960151  0.0644199354960265
  0.9131362199172540  0.6482115319823976  0.5775867106662111
  0.3918321581563443  0.1511007068565914  0.0764550906441262
  0.9077663216235868  0.3669876690727282  0.9181114884395010
  0.3817967725877692  0.8300808365745355  0.4133035758430835
  0.8997084511146531  0.8240219593652416  0.6645474808797576
  0.4262421291449630  0.3410693575769053  0.1677999285483444
  0.8914065983756908  0.1627392755800614  0.8454732855256069
  0.4203147390253290  0.6738227221967917  0.3122140283171545
  0.0949061044235426  0.3619598037875012  0.8385345868023594
  0.5862562549272831  0.8522033241668473  0.3249761093828901
  0.1131402443747551  0.6424688467283194  0.6606424513800737
  0.6030484764369269  0.1662069874851668  0.1553334191400942
  0.3895558980466470  0.3416111626894116  0.5803877193188729
  0.9021403825981189  0.8496151020299364  0.0781429488061599
  0.9053805852115184  0.1424167354203921  0.4219642376499550
  0.3845918773837024  0.6662959456657123  0.9134387331145913
  0.0735312095552863  0.3260559141152174  0.4319049191791445
  0.5753272220058743  0.8338195085272934  0.9119820811225424
  0.5833293561618929  0.1624698132705636  0.5645125438837177
  0.0921252674236931  0.6564168389769864  0.0885700644643040
 
 -0.28653622E-02 -0.51302297E-02  0.15317503E-02
 -0.13149735E-02  0.32492863E-02  0.34594129E-03
 -0.29292725E-02 -0.26615433E-03  0.42521143E-02
  0.94896420E-02 -0.67829722E-02  0.10259798E-02
  0.27378770E-02 -0.40588667E-02 -0.13328309E-02
 -0.10402891E-01 -0.25552139E-02  0.15678176E-02
  0.16343998E-02  0.34838870E-02  0.12644988E-02
 -0.33465702E-02  0.87242264E-02 -0.35704417E-02
 -0.53906882E-03  0.13969279E-02 -0.71864990E-02
  0.41128395E-02 -0.52708522E-02  0.41796989E-02
  0.25037683E-02 -0.47315055E-02  0.27169774E-02
 -0.62396942E-02  0.72556740E-02 -0.52599433E-02
 -0.27729125E-03  0.16099302E-02 -0.55511950E-02
 -0.35084996E-03  0.11801139E-02 -0.78424999E-03
 -0.75266475E-02 -0.22651795E-02 -0.55420380E-02
  0.10112105E-02  0.41651474E-02 -0.28338657E-02
  0.24569478E-02 -0.56117364E-02  0.58429564E-02
 -0.10486149E-02  0.77604369E-02 -0.99166948E-04
 -0.49184921E-02 -0.69293599E-03  0.50712681E-03
  0.82351954E-02  0.10324783E-01  0.27417084E-02
 -0.36066370E-02 -0.27893295E-02  0.72411884E-03
 -0.18211604E-02 -0.71809381E-02 -0.37426102E-02
  0.31110966E-02  0.38603377E-02  0.29729668E-02
 -0.17013921E-02 -0.22139373E-02 -0.42838582E-02
 -0.23884369E-02 -0.17719775E-02  0.18217998E-02
 -0.28872511E-02 -0.79165423E-02 -0.53274643E-02
 -0.68036104E-03 -0.30844568E-02 -0.45397784E-02
  0.53978112E-02  0.50397961E-02  0.28800800E-02
  0.47764174E-02 -0.26581943E-02  0.17967695E-02
 -0.23382021E-02  0.89588897E-03  0.10643697E-02
 -0.60364697E-02  0.45620824E-02  0.39497076E-02
 -0.33437900E-02 -0.23666613E-02  0.31789898E-02
  0.62799991E-02  0.41516820E-02  0.59192627E-02
  0.11419022E-02 -0.30890356E-02 -0.34459878E-02
 -0.58871658E-02 -0.43438714E-02  0.32435168E-02
 -0.59963056E-02  0.26154350E-03  0.34542063E-02
  0.42683522E-02  0.67455192E-02  0.20978173E-02
  0.22688206E-02  0.27446080E-02 -0.33608896E-02
  0.77822566E-02 -0.14745039E-02  0.34208955E-02
 -0.95837202E-03  0.18359136E-02  0.70985895E-02
  0.96036158E-02  0.17975290E-02 -0.18314347E-02
 -0.24261222E-02  0.38482230E-02 -0.26372522E-02
 -0.49205969E-02  0.12646890E-02  0.26695899E-02
 -0.48969807E-02 -0.13687340E-02 -0.31485406E-02
  0.78652312E-03 -0.26131835E-02  0.19451479E-02
  0.24067258E-02 -0.11234093E-01 -0.11284282E-02
 -0.53126619E-02  0.90756384E-03 -0.25720697E-02
  0.15212551E-02 -0.90404750E-03 -0.11722942E-01
 -0.48298551E-02  0.61457509E-03 -0.14513080E-02
 -0.57798188E-02 -0.82188542E-03  0.37543155E-02
  0.72379719E-02 -0.55642496E-03 -0.23092823E-02
 -0.22617550E-02 -0.70758069E-02  0.82668376E-03
  0.21829646E-02  0.33864228E-02  0.39644645E-02
  0.53301265E-03  0.46797367E-02 -0.25605005E-02
 -0.10913806E-02 -0.28047090E-02 -0.11648316E-01
 -0.51392348E-02  0.41253986E-03 -0.34769432E-02
 -0.23925368E-02 -0.40424346E-02 -0.39470722E-02
  0.36686731E-02  0.39416328E-02  0.63921435E-03
  0.49183069E-04  0.84368546E-02  0.25262425E-02
  0.32528782E-02 -0.69354901E-03  0.13651833E-02
  0.33021370E-02 -0.20072907E-02 -0.10665237E-02
 -0.33975380E-02  0.26974074E-02 -0.34729734E-02
  0.10384788E-02  0.82001285E-03 -0.23085309E-02
 -0.35948667E-02 -0.26560776E-02  0.36930703E-02
  0.49708097E-02 -0.14649339E-02 -0.32595952E-02
 -0.41952083E-02  0.66865026E-02  0.17296629E-02
  0.15521788E-02  0.41582517E-03  0.16178491E-02
  0.30206698E-02  0.49288947E-02 -0.37504993E-02
 -0.18891018E-02 -0.76394026E-02  0.13219805E-02
  0.43375726E-02  0.20993955E-02 -0.23298278E-02
  0.53605978E-02 -0.38570455E-02 -0.41311731E-02
 -0.54768847E-03  0.16384590E-02  0.35236330E-02
 -0.81736763E-02  0.36043566E-02 -0.75429857E-03
 -0.29231739E-02  0.80344920E-02 -0.17159169E-02
  0.97017001E-03 -0.39853226E-02  0.41127644E-02
  0.19006420E-02 -0.16808971E-03  0.38550583E-02
  0.11373901E-02 -0.29169042E-02  0.39851017E-02
  0.31990628E-03  0.95306350E-02  0.81705544E-02
 -0.31663153E-02 -0.59675732E-02  0.69768195E-02
 -0.74776632E-02 -0.52234620E-02 -0.12077924E-01
 -0.15448919E-02 -0.96965819E-02  0.78077354E-02
  0.34876809E-02  0.11436670E-02  0.42727656E-02
 -0.55930466E-03  0.65556879E-05  0.79953638E-02
 -0.28651785E-02 -0.11134603E-02 -0.11043854E-01
 -0.12174958E-01 -0.29887076E-03  0.31987010E-03
 -0.25049157E-02 -0.68809525E-02 -0.10781744E-02
  0.11678671E-02 -0.18359262E-02  0.29600312E-02
  0.36630400E-02  0.52752215E-02  0.51925164E-02
  0.30025283E-02 -0.30709058E-02 -0.21651340E-02
 -0.94545391E-03  0.16398008E-02  0.98173660E-03
  0.23186375E-03  0.88741160E-03  0.23945369E-02
  0.17165817E-02  0.96357114E-03 -0.41797001E-02
  0.27409622E-02  0.13285884E-02  0.26415670E-02
 -0.17974281E-03  0.14119936E-02  0.11135515E-02
 -0.44119449E-03  0.10491939E-02 -0.11180022E-02
  0.12863290E-02  0.14988734E-02  0.18124928E-02
  0.13525813E-02 -0.86226123E-03 -0.35123942E-02
  0.77970787E-03 -0.74501778E-03  0.19738655E-02
  0.21069101E-02  0.23812413E-02 -0.11638744E-02
 -0.21996250E-03 -0.16644896E-02  0.17460539E-02
  0.39828264E-02 -0.28733435E-02  0.79369008E-03
  0.42696571E-03 -0.85442338E-03  0.13775477E-02
  0.76054258E-03 -0.20226273E-02  0.29517903E-02
  0.18561500E-03 -0.28774661E-02 -0.12847713E-02
 -0.29724059E-02 -0.87707056E-03  0.19403334E-02
  0.15568647E-02 -0.86061552E-03  0.47730599E-03
  0.41310318E-02 -0.35535755E-02  0.76980845E-02
 -0.96523448E-03 -0.22027289E-02 -0.22757311E-02
 -0.25561736E-02 -0.27947170E-03  0.22147978E-02
  0.17644355E-02  0.13862784E-02  0.17175922E-02
 -0.11320516E-02  0.25663814E-02 -0.18521485E-02
  0.33312958E-02  0.17147100E-02  0.80089043E-02
  0.10490463E-02 -0.28203988E-02  0.16519252E-02
 -0.33046834E-03 -0.26267148E-02 -0.92395882E-03
 -0.81034820E-03 -0.10813582E-02 -0.59801740E-02
 -0.81217347E-03  0.48329398E-02  0.32913109E-02
 -0.21279548E-02  0.23254072E-02 -0.15444720E-02
 -0.50534554E-02 -0.11460489E-02 -0.41219625E-03
  0.18621414E-02 -0.11074218E-02  0.24806864E-02
  0.52123636E-02  0.41276896E-02 -0.20024514E-02
  0.25007954E-02 -0.18701751E-02 -0.81651783E-03
  0.62863806E-03 -0.16907553E-02 -0.11566818E-02
  0.54883959E-03  0.16956482E-02 -0.28968306E-02
  0.22020293E-02  0.36401864E-03  0.33229529E-02
 -0.76839886E-03 -0.10698617E-02  0.82073451E-03
 -0.20530087E-02  0.52716589E-02 -0.40958756E-02
 -0.47119533E-02 -0.87085160E-03  0.74299715E-04
 -0.38853433E-03 -0.27203808E-02 -0.33642760E-02
 -0.49845749E-02  0.16599352E-02 -0.68947485E-03
 -0.21671957E-02 -0.11637544E-02 -0.25328764E-02
  0.17129058E-02  0.21408094E-02  0.24803688E-02
  0.52511352E-02 -0.38388317E-02 -0.20652978E-02
  0.13717125E-03  0.38817279E-02  0.60205206E-03
 -0.68510925E-03  0.27150453E-02 -0.77303871E-03
 -0.55501059E-03 -0.42098220E-02  0.35316786E-02
  0.14377368E-04  0.64770075E-03 -0.60842748E-02
 -0.10752713E-02 -0.56903679E-02 -0.33945032E-02
 -0.34580539E-03  0.13136772E-02  0.18964058E-02
 -0.18518768E-02  0.74095529E-03 -0.78243305E-03
  0.30105849E-03  0.29899628E-02 -0.33147457E-02
  0.21915570E-02  0.15200200E-02 -0.19935849E-02
 -0.52489167E-03  0.21221472E-02 -0.36142505E-03
  0.22552114E-02 -0.37688038E-03  0.39893605E-02
  0.12631534E-02 -0.50564142E-03 -0.27398315E-02
  0.64832540E-03 -0.13440581E-02  0.17128870E-02
  0.33712901E-02  0.18867925E-02 -0.22160305E-02
 -0.95749895E-03 -0.27140987E-02  0.12917017E-02
  0.23320632E-02 -0.60548089E-03 -0.54417303E-02
 -0.67326601E-04  0.10179490E-02 -0.37138537E-02
 -0.22678952E-02 -0.98391797E-03  0.18504367E-02
 -0.12621051E-02 -0.18728090E-03  0.67930027E-03
 -0.29172723E-02  0.34984990E-02 -0.18020108E-02
 -0.15087253E-02  0.19929426E-02 -0.24529276E-02
  0.18607705E-02  0.70812375E-03 -0.39504649E-03
 -0.31572000E-02 -0.20812758E-02  0.82260189E-03
  0.11185909E-02 -0.29377103E-02  0.16779322E-03
 -0.24038796E-02 -0.30817267E-02  0.97126827E-03
 -0.51942872E-03 -0.50080949E-03  0.29260649E-02
 -0.13382788E-02 -0.87024004E-03 -0.35114219E-03
  0.15967680E-02 -0.20004997E-02  0.46679561E-03
 -0.25911868E-02  0.77742656E-03  0.24803262E-02
  0.64925456E-03  0.25463614E-03 -0.30275825E-02
 -0.14755555E-02  0.52132458E-03 -0.87280258E-03
 -0.36925190E-02 -0.20956429E-02 -0.15403937E-02
 -0.13455756E-03  0.14924154E-02  0.26370312E-02
  0.29683509E-02 -0.13611172E-02 -0.89290287E-03
  0.28983446E-02  0.99462624E-03 -0.48186123E-02
 -0.36504913E-03  0.28131549E-02  0.11878621E-03
 -0.12320148E-02  0.33271218E-03  0.20521524E-02
 -0.73962258E-03  0.24077702E-02  0.75862055E-03
 -0.22973775E-02  0.17619199E-02 -0.13226628E-02
  0.10806364E-02  0.24109023E-02  0.12409457E-02
 -0.22157254E-02 -0.20031533E-02 -0.15454415E-02
  0.12159119E-02 -0.37357551E-03 -0.22618416E-02
  0.91357644E-03  0.29453304E-02  0.75084052E-03
 -0.29287999E-02  0.13728451E-02  0.19384542E-02
 -0.15726005E-02 -0.35315564E-04  0.14554883E-02
  0.11800653E-03  0.15154031E-03 -0.22023049E-03
 -0.74735072E-03  0.66492855E-03 -0.20067854E-02
  0.11949307E-02 -0.17870714E-02  0.10398434E-02
  0.16864138E-02  0.16964919E-02  0.46068215E-02
  0.26435887E-03 -0.72151023E-03  0.22156116E-02
 -0.18082243E-02  0.93860864E-03  0.99654262E-03
 -0.19496398E-02 -0.41941380E-03  0.11141907E-02
  0.12698729E-02  0.37973215E-02 -0.10437927E-02
  0.60745529E-03 -0.27320209E-02 -0.14087593E-02
  0.37039461E-03 -0.86714778E-03  0.11768056E-02
  0.25214478E-02 -0.19979034E-02 -0.36277440E-02
  0.27235616E-02  0.12709844E-03 -0.42400470E-04
 -0.10939461E-02 -0.20779457E-02  0.19449551E-02
 -0.59822217E-04  0.16791815E-02  0.25771231E-02
 -0.36807065E-04  0.14298515E-02  0.15001677E-02
 -0.15005639E-03  0.24681355E-02  0.87099487E-03
 -0.14797010E-03  0.11726774E-02  0.42361160E-02
 -0.22273572E-02 -0.11769964E-02  0.13539183E-02
 -0.16043108E-02  0.25834753E-03  0.21440331E-02
 -0.28118754E-02 -0.25718141E-03  0.10744319E-02
 -0.26347563E-04 -0.73114169E-03 -0.25535302E-03
 -0.32348792E-04  0.10266215E-02  0.11038508E-02
 -0.55939967E-03 -0.17583896E-02 -0.64521092E-03
 -0.12044910E-02  0.14536354E-02  0.13286387E-02
  0.30227937E-02 -0.90927313E-03 -0.91647074E-03
 -0.22072422E-02 -0.22817861E-02  0.31469578E-02
  0.31004795E-04  0.20538265E-03  0.18344753E-02
  0.11543182E-02 -0.45878551E-02 -0.98376912E-03
  0.25039502E-02  0.17475887E-02 -0.15835351E-02
  0.15270023E-02  0.18064140E-02 -0.46316535E-02
 -0.40451892E-03  0.11845354E-02  0.88449963E-03
 
           1
   2.00000000000000     
  0.10415976E+01  0.12032494E-02  0.00000000E+00  0.00000000E+00
  0.20319503E-01  0.56030798E-01  0.13485556E+00
  0.50107703E+00  0.50630201E+00  0.62124656E+00
  0.49767908E+00  0.48863434E+00  0.87975617E+00
  0.35574532E-03  0.97032908E+00  0.38584590E+00
  0.48372651E+00  0.93236651E-02  0.86946498E+00
  0.31386736E-02  0.49593608E+00  0.38269241E+00
  0.97879382E+00  0.50602755E+00  0.12338906E+00
  0.24652591E+00  0.26494483E+00  0.13717841E+00
  0.71855834E+00  0.73473814E+00  0.61496202E+00
  0.73388028E+00  0.26037357E+00  0.88228278E+00
  0.74950434E+00  0.75674738E+00  0.37740878E+00
  0.27546339E+00  0.26638326E+00  0.89650071E+00
  0.77094087E+00  0.27962845E+00  0.12048777E+00
  0.27924375E+00  0.75053577E+00  0.63671730E+00
  0.99102657E+00  0.99917522E+00  0.88340295E+00
  0.48345020E+00  0.48869901E+00  0.37249063E+00
  0.98758040E+00  0.48768564E-02  0.62860043E+00
  0.23604737E-01  0.44716180E+00  0.63025567E+00
  0.50209432E+00  0.99347513E+00  0.12750477E+00
  0.92027810E-02  0.54028385E+00  0.88068278E+00
  0.49866524E+00  0.15732040E-01  0.37955291E+00
  0.28866288E+00  0.24108460E+00  0.38744465E+00
  0.75162783E+00  0.75323467E+00  0.87248933E+00
  0.77112427E+00  0.22957999E+00  0.61894231E+00
  0.27473862E+00  0.74352642E+00  0.13724542E+00
  0.25356377E+00  0.22830498E+00  0.64128984E+00
  0.72090300E+00  0.76702177E+00  0.11701652E+00
  0.73240536E+00  0.24134406E+00  0.37858523E+00
  0.45202430E+00  0.75817074E+00  0.50384375E+00
  0.48541373E+00  0.23714452E+00  0.99958192E+00
  0.99469985E+00  0.50998954E+00  0.49887912E+00
  0.50821850E+00  0.72131801E+00  0.75137469E+00
  0.11634961E+00  0.73581885E+00  0.24168983E+00
  0.51447531E+00  0.27707566E+00  0.74215592E+00
  0.99526636E+00  0.98829853E+00  0.47101924E-02
  0.48385479E+00  0.26007186E+00  0.50096784E+00
  0.46004980E+00  0.73248944E+00  0.13551650E-02
  0.51306709E+00  0.22915047E+00  0.24051204E+00
  0.12542175E+00  0.75829664E+00  0.74476881E+00
  0.51184526E+00  0.77154049E+00  0.24682248E+00
  0.34838051E-01  0.98172348E+00  0.24928161E+00
  0.54434341E+00  0.51070831E+00  0.76024492E+00
  0.48958490E+00  0.99414393E+00  0.73697160E+00
  0.97018679E+00  0.49905574E+00  0.24047292E+00
  0.25276945E+00  0.24557204E+00  0.10451871E-01
  0.77769948E+00  0.73025973E+00  0.51170092E+00
  0.19551048E+00  0.78241545E+00  0.50028205E+00
  0.72571402E+00  0.23878990E+00  0.77573395E-02
  0.96922147E+00  0.14411395E-01  0.74215681E+00
  0.49074903E+00  0.49466373E+00  0.23843177E+00
  0.32257002E-01  0.51653785E+00  0.74335048E+00
  0.54399035E+00  0.99042576E+00  0.26098082E+00
  0.24788055E+00  0.25592827E+00  0.50240459E+00
  0.75165205E+00  0.77623779E+00  0.67048326E-02
  0.72241772E+00  0.25810468E+00  0.50417710E+00
  0.20110594E+00  0.72265887E+00  0.11245951E-02
  0.98574603E+00  0.26436257E+00  0.13229698E-01
  0.49620600E+00  0.53501667E+00  0.49252874E+00
  0.49241999E+00  0.48796044E+00  0.24225042E-01
  0.99712548E+00  0.98712774E+00  0.51139508E+00
  0.49092068E+00  0.95899872E+00  0.99047043E+00
  0.98718804E+00  0.23863566E+00  0.51068794E+00
  0.19720919E-02  0.50325126E+00  0.78476104E-02
  0.49283085E+00  0.12091310E-01  0.52302335E+00
  0.17868047E+00  0.27548490E+00  0.27420583E+00
  0.77947541E+00  0.72983683E+00  0.73420722E+00
  0.24331949E+00  0.71587901E+00  0.36581617E+00
  0.78989985E+00  0.22721783E+00  0.76202443E+00
  0.77303964E+00  0.76939164E+00  0.23739646E+00
  0.19594673E+00  0.23581742E+00  0.77589699E+00
  0.78731475E+00  0.26732358E+00  0.25575266E+00
  0.24362262E+00  0.79179888E+00  0.86887568E+00
  0.27615935E+00  0.51753364E+00  0.13909437E+00
  0.67406959E+00  0.98847027E+00  0.62460591E+00
  0.73004109E+00  0.10509102E-01  0.87420185E+00
  0.24873798E+00  0.49950617E+00  0.37945623E+00
  0.27914337E+00  0.51483593E+00  0.86978970E+00
  0.76281743E+00  0.72376436E-02  0.37332586E+00
  0.76058462E+00  0.23274566E-01  0.12516294E+00
  0.26250076E+00  0.49107560E+00  0.62394423E+00
  0.76760070E+00  0.50173746E+00  0.87563518E+00
  0.27983142E+00  0.97968969E+00  0.37225428E+00
  0.76003150E+00  0.47833545E+00  0.62861705E+00
  0.24803481E+00  0.16699637E-02  0.12161777E+00
  0.28884866E+00  0.98962424E+00  0.64225224E+00
  0.68554793E+00  0.51962985E+00  0.12588097E+00
  0.23514745E+00  0.95019499E-02  0.87875928E+00
  0.74088661E+00  0.47361807E+00  0.36953671E+00
  0.27923063E+00  0.99236677E+00  0.25303007E+00
  0.79912468E+00  0.47444102E+00  0.74490210E+00
  0.23491056E+00  0.99366107E+00  0.75744163E+00
  0.72685367E+00  0.52491521E+00  0.24066013E+00
  0.25382425E+00  0.98787437E+00  0.99643720E+00
  0.75474143E+00  0.49527094E+00  0.49838366E+00
  0.24245052E+00  0.98944280E-02  0.50161305E+00
  0.74013624E+00  0.51944786E+00  0.13623097E-02
  0.72738927E+00  0.97444021E+00  0.74204758E+00
  0.23820889E+00  0.50721813E+00  0.25720663E+00
  0.28224766E+00  0.51023344E+00  0.75347169E+00
  0.79437128E+00  0.24463894E-01  0.24681224E+00
  0.25822442E+00  0.51249579E+00  0.49695390E+00
  0.75624520E+00  0.66818234E-02  0.99862373E+00
  0.73855456E+00  0.98443090E+00  0.50214271E+00
  0.24081000E+00  0.48796440E+00  0.48697700E-02
  0.99307137E+00  0.23550914E+00  0.37867772E+00
  0.48827856E+00  0.74542255E+00  0.86787127E+00
  0.50203022E+00  0.24333053E+00  0.61625849E+00
  0.28776341E-02  0.76714844E+00  0.12509191E+00
  0.99608676E+00  0.26320292E+00  0.88135215E+00
  0.48952639E+00  0.75645463E+00  0.36765020E+00
  0.34233772E-02  0.73862429E+00  0.62497634E+00
  0.49922962E+00  0.25048405E+00  0.11750049E+00
  0.13667028E+00  0.37679968E+00  0.59542648E-01
  0.62435319E+00  0.87223693E+00  0.54530376E+00
  0.62778679E+00  0.10205993E+00  0.94808137E+00
  0.14384932E+00  0.61753998E+00  0.45154129E+00
  0.35961468E+00  0.38973327E+00  0.96169334E+00
  0.84511463E+00  0.88517181E+00  0.45079249E+00
  0.86347990E+00  0.12481827E+00  0.44903607E-01
  0.35090765E+00  0.60860944E+00  0.55687335E+00
  0.85827761E+00  0.12854421E+00  0.18414687E+00
  0.39509742E+00  0.59124929E+00  0.70265188E+00
  0.87909596E+00  0.90621869E+00  0.29399787E+00
  0.39293702E+00  0.39119691E+00  0.79463180E+00
  0.10554535E+00  0.58396638E+00  0.31100839E+00
  0.63560706E+00  0.90782780E-01  0.79612115E+00
  0.14520653E+00  0.41933047E+00  0.18978250E+00
  0.61242547E+00  0.86757412E+00  0.69340304E+00
  0.84907297E+00  0.61234963E+00  0.94790915E+00
  0.35987791E+00  0.11224170E+00  0.45978824E+00
  0.86161532E+00  0.37669945E+00  0.54476487E+00
  0.34795292E+00  0.88774195E+00  0.55023022E-01
  0.13901953E+00  0.11473697E+00  0.55976420E+00
  0.62266326E+00  0.62777858E+00  0.45719511E-01
  0.13582086E+00  0.88067440E+00  0.95260148E+00
  0.62814336E+00  0.39917218E+00  0.44653664E+00