Na88 Sn16 P8 S96                        
   1.00000000000000     
    13.4813327813000008    0.0000000000000000    0.0000000000000000
     0.0000000000000000   13.4813327813000008    0.0000000000000000
     0.0000000000000000    0.0000000000000000   26.9626655626000016
   Na   Sn   P    S 
    88    16     8    96
Direct
  0.0259818161220335  0.0143960083511194  0.1251416186334639
  0.4954559510421261  0.5213080483042292  0.6207334842409779
  0.5173923305326557  0.4826830405049862  0.8612793335964742
  0.0157623840730532  0.9595154631401817  0.3781778925491046
  0.0010311469768383  0.9992973999740643  0.8791180449375242
  0.7289676257319267  0.4892725959616913  0.3872669726718007
  0.0322065249734985  0.4692888878253643  0.1305019466736357
  0.3004675256725262  0.0315292798647651  0.1203359394357682
  0.7451857633602055  0.9878707219317812  0.6260799041769740
  0.7391192770940117  0.2537484022703637  0.8652808898210371
  0.7670537594121883  0.7037156046192165  0.3729275151012461
  0.2710144906151982  0.2353639928653008  0.8833689266994312
  0.8049312307771308  0.2507814664121124  0.1347250512875060
  0.2089067416893004  0.7694322412121841  0.5222665523491263
  0.9680953563445481  0.0147903609237806  0.7467131210724036
  0.2261949383196874  0.4781264167784962  0.3769669542165867
  0.9723171532542484  0.0493553890962037  0.6283652999696071
  0.0028221609583030  0.4863236832526724  0.6306550028696795
  0.5259180086166452  0.9748695834910357  0.1284594127526477
  0.2422587920949581  0.4834321195121760  0.8743731787813886
  0.5433013943337628  0.0265130287530252  0.3625629997936043
  0.2772596418422777  0.2353535882794721  0.3699509896603975
  0.7461869699269129  0.7599367589600846  0.8817652902024117
  0.7747299589015614  0.5060643671011349  0.6259096190552165
  0.2931540042014502  0.7331491744813835  0.9890521580487498
  0.2482597292534638  0.2643217369842886  0.6296523695801383
  0.7777369727599630  0.5045390158830652  0.1382779765767399
  0.7378278300522584  0.2214533907706687  0.3749332474341528
  0.4961590840397904  0.7603910741771246  0.5088851178338288
  0.5280738307006525  0.2794407368959541  0.9962192707539551
  0.0044909159002826  0.5132874486648948  0.3800716405213257
  0.4820329049289691  0.0414123104805374  0.7421367257207085
  0.0398239420158540  0.7485235931031230  0.2723500504272259
  0.5375610533641431  0.4387225204463147  0.7435158093354201
  0.0361046227947680  0.9709784772392578  0.0004508967015898
  0.4895467011610340  0.2713003998750295  0.5048149309965293
  0.5594228402489920  0.7767190822176558  0.0156272845536872
  0.2887028136886658  0.2303697666906488  0.2376077775400869
  0.9747856458077596  0.7493680551116324  0.7631852709688624
  0.5264270458161230  0.7304236920843952  0.2434101269191965
  0.0396026940554159  0.0242272604518110  0.2528149836539447
  0.4617377063709434  0.7870394125772077  0.7442002433289746
  0.5124757859818894  0.0316676269260894  0.8725312554850424
  0.0209802832563940  0.4448655838554567  0.2645709916050423
  0.2776102012544229  0.2337780200440821  0.0172037052111537
  0.7801149638680066  0.7438577048829578  0.5137689448034305
  0.0092493573282584  0.5214763460523405  0.5091148649474652
  0.7902576084561566  0.2753171495259469  0.9995526821224170
  0.0083078975774337  0.2628271810931374  0.7337739335105145
  0.4979140633788209  0.4772731537117262  0.2605772839390399
  0.0359471825424781  0.5010037236734601  0.7636023472599422
  0.5516060555248050  0.9576304902790450  0.2502695093041135
  0.2265979893683391  0.2771687739837432  0.5030747779253038
  0.7921706216361476  0.7538622904220073  0.0667629240433470
  0.7501234982220260  0.2481832858438930  0.6010726865256907
  0.0161391174069531  0.7150040341010447  0.9954431306428770
  0.0313399602655253  0.2416559892771362  0.0015002862763521
  0.5190600820359049  0.5176148040262112  0.4972316596518384
  0.5056295368918874  0.5176553436981282  0.9932616572480700
  0.0084945429164178  0.9446300252486894  0.5158158589427260
  0.5100135252801559  0.0164082079738681  0.9959069546335788
  0.9495672313344148  0.2547144550569839  0.4957966995417751
  0.0066118872555082  0.4888508066169878  0.9916167741082529
  0.4930398072506776  0.0020861760395407  0.4972523249027228
  0.8417113580534689  0.2117010251996040  0.2595727691514827
  0.7475187276833143  0.7321405300805148  0.7568831367411022
  0.2344622381178955  0.7034662979415270  0.2323876926649309
  0.7178023631271052  0.2401935392717761  0.7413163023201064
  0.7990830820438822  0.7361905997098630  0.2422455632346738
  0.2862200426479919  0.2518889864764634  0.7460807988700690
  0.5495877479992597  0.2266113890425212  0.2553462854587154
  0.2076897400418711  0.7543087291322569  0.7348862070172116
  0.3147564315383141  0.4333889886916847  0.1253021483436091
  0.4821963580597275  0.0227600996618367  0.6225993049519223
  0.7380050115703408  0.0247530819270297  0.8770586893524586
  0.2626065496745000  0.7366539146128790  0.3635891163915182
  0.2130142641820756  0.7306496738166498  0.8729320192760727
  0.7521591994520024  0.9519300132466638  0.3679065355210828
  0.7879593028150320  0.0071107713843427  0.1242390357605486
  0.2495117536166747  0.5909002729021028  0.6303584162369648
  0.7942341540507005  0.4908554120843288  0.8857338157669420
  0.2858464616027670  0.9831144385520670  0.3765947829395155
  0.7182817967568613  0.7604219890429434  0.6384345043024712
  0.2609795221202744  0.7445367040298476  0.1132040288188340
  0.2140612315773227  0.9784332264523582  0.6280548035511886
  0.5289043346151878  0.5017041743027452  0.1335026073742186
  0.2518638293979685  0.9637718828658656  0.8730215289566802
  0.4976101319973688  0.4650287521007576  0.3840435802361095
  0.2817020296767970  0.9635053168569394  0.2382986842635697
  0.7753950064968840  0.4970042525742524  0.7514823195990850
  0.2223885056478094  0.0169809314895480  0.7503817280336150
  0.7558757811707008  0.4799238714339096  0.2608569551097467
  0.2673790294942288  0.9798930080109980  0.9988460603803889
  0.7521025500450864  0.4906613794659384  0.5068914111526222
  0.2461321175005518  0.0291678482760893  0.4947898813342761
  0.7528079027649306  0.5288544838089768  0.0051734161269766
  0.7255682310156435  0.9922400427715958  0.7507347217764085
  0.2497452691012008  0.4824609479804417  0.2546312926897955
  0.2861227382374439  0.4994712008033441  0.7518893539275094
  0.7877714034503903  0.9717948776782195  0.2380793522707177
  0.2597095018700339  0.5268800520833251  0.5013235217921647
  0.7753051486701995  0.0246831635379178  0.0043147144909311
  0.7560404359991193  0.9891164156029952  0.4955915904809142
  0.2481432379427453  0.4802932142210313  0.9958760515310866
  0.0132848086357644  0.2288756927856815  0.3747042475256891
  0.4916871736901087  0.7610937538529240  0.8627411233798804
  0.5021853836931841  0.2673333235198916  0.6242306780970414
  0.0117283531624285  0.7382553238968720  0.1220633465682379
  0.0104266548177982  0.2376224787399714  0.8759704646907810
  0.5027642823499813  0.7419820847657739  0.3727552423198205
  0.9842112873291674  0.7606929662921273  0.6371642775777669
  0.5361599751188727  0.2253358251027785  0.1267613892608327
  0.1374868794888711  0.3857114022648981  0.0445548441838980
  0.6434341303364748  0.9043948542725624  0.5497671196328021
  0.6708695033730133  0.1351780834757042  0.9531404048882566
  0.1562511043540583  0.6191760147556687  0.4483297742687175
  0.3637393354215934  0.3688687091823257  0.9574198533266980
  0.8523676189485642  0.8832275614392806  0.4451258185232664
  0.8766181990785775  0.1261938626463472  0.0599852211607056
  0.3631014388386074  0.6260743696048584  0.5512751101229583
  0.9026788241878750  0.0819360966443195  0.1917139027759767
  0.3849434393667293  0.6077674438290089  0.6970227808218705
  0.8872045496335019  0.8745270630675483  0.3010601997400627
  0.3815823223629967  0.3851283500708596  0.8092549189987553
  0.1285986659480270  0.5812614711808253  0.3014359431140983
  0.6366469324492957  0.1079099898769950  0.7962243730902673
  0.1549393582717187  0.3834035929112694  0.2017071592254056
  0.6041743495808757  0.9217723841054157  0.6976300772234802
  0.8378664015328526  0.6369980158986035  0.9554767273815680
  0.3621069869740900  0.1141951020366846  0.4461566680129959
  0.8617814224476269  0.3952510357587624  0.5592256320262868
  0.3745892484284201  0.8681286406629397  0.0491481074451382
  0.1421942358135554  0.1248448051576906  0.5452013264044100
  0.6288082527484020  0.6237279575168085  0.0577269676806127
  0.1596968597098200  0.8756417163881519  0.9531453927305422
  0.6489334794102358  0.3746347784099703  0.4624153926351088
  0.6440437072082889  0.3749183698543380  0.3110939042289043
  0.1089503773959268  0.9014590095769024  0.7964730273114270
  0.1115291086460208  0.1144621956994239  0.6955931637411411
  0.6452756113189828  0.5784036278049748  0.2097747697878737
  0.8828626888982573  0.4037027832150775  0.6991169425825806
  0.3828237175640795  0.8572624135583299  0.1864777957761398
  0.3992713712217923  0.0436235154581478  0.2925050098973606
  0.8816621838113049  0.6019793838778408  0.8011392080505056
  0.1578070299253813  0.0723850548388881  0.0520012322316341
  0.6488688060195417  0.5870931910784646  0.5616443716405176
  0.6583168562300010  0.4121254548893508  0.9486439773440336
  0.1648246355354953  0.9096123334960065  0.4430732164362398
  0.3580067812983184  0.0829215500610948  0.9454965502588841
  0.8515176535565884  0.5918019033177682  0.4520741395278250
  0.8580839254356410  0.4244026876921741  0.0552175997935941
  0.3462795497895673  0.9337920720933981  0.5507671541910625
  0.1959298046126558  0.0801983560188079  0.1945196626382676
  0.6620594073390165  0.5855809671876371  0.7000137699735847
  0.1997124080556552  0.8650457600472803  0.2989513455034913
  0.6764209730225589  0.4008984867615524  0.8105671294480362
  0.8639498802313547  0.5712091676240731  0.3101167973461281
  0.3276701747260819  0.1121681432781053  0.8089924995994980
  0.8590830212303220  0.3890524611876101  0.2079034894130937
  0.3254442420793239  0.9123501311771750  0.7092824671508710
  0.8727286550295034  0.9287623413602928  0.9463471856913526
  0.3563436541440053  0.4155415610987510  0.4490980209939689
  0.8753737129639331  0.0640982756061024  0.5465265190593549
  0.3432113433717259  0.5886864746067838  0.0509124758421032
  0.1586035352825807  0.4400544410521901  0.5608245636113418
  0.6597689725339400  0.9368993174888720  0.0559292250588774
  0.1586005804888807  0.5922787918093165  0.9450694591775404
  0.6607181233353028  0.0752901246618803  0.4359355890758702
  0.3445923477747805  0.3895804671330860  0.3124514486342650
  0.8275126847881538  0.9073304456793230  0.8100035733264941
  0.8306119854230054  0.0993818159357533  0.6955351982422741
  0.3626295528578071  0.5667905667054614  0.2016131954387815
  0.1705891926636456  0.4092758474516177  0.7040271730400637
  0.6883445271706151  0.8725783426443602  0.1813224414467211
  0.6948238325275571  0.0780517266696411  0.2885680296104329
  0.1892227974975241  0.6031477050013987  0.8043405126629193
  0.1153128601783397  0.1299340443933094  0.3435798112936644
  0.5694401516858993  0.6885975107511744  0.8112688538413331
  0.6002286977871685  0.3615133245168949  0.6569531664021894
  0.1042325472409247  0.8176759745723767  0.1755317484737860
  0.4195414339700335  0.1822679097034554  0.6763080938114159
  0.9129697149808920  0.6617975184747246  0.1611323182737477
  0.9574315449057232  0.3138462103740163  0.3199543141781663
  0.4022682110775299  0.8604179138934545  0.8317261682973723
  0.1061665699426258  0.1498901960863407  0.9212250944356325
  0.5900244274657492  0.6549316131276788  0.4216002864599198
  0.0750534231833903  0.8452357336623123  0.5986409631836864
  0.6170477261806862  0.3305051407172008  0.0872515124270876
  0.9045265594901881  0.6669651774301706  0.5909471381281539
  0.4293814912783833  0.1667486576035488  0.0815233563889653
  0.9248419925645461  0.3288229795299883  0.9197827991523051
  0.4137263408286884  0.8268788665134850  0.4113943354980340
  0.8934945196334735  0.8413325240627458  0.6763682487114830
  0.4531192654905839  0.3165497420475268  0.1793354435685196
  0.9102849765597578  0.1515436869622130  0.8407364753201494
  0.4274212220547031  0.6399013918935171  0.3284563552969288
  0.1007331296157942  0.3011833885812311  0.8215683223815418
  0.6055010036620544  0.8208726822479842  0.3302724843704153
  0.0630547066766308  0.6614834522095999  0.6818433254611471
  0.6265692911791794  0.1255535610371102  0.1654110531296211
  0.4041972373863394  0.3456152256147385  0.5804750255005947
  0.9525701370922829  0.8397911584045177  0.0755359047353573
  0.9071323104623893  0.1380220589386712  0.4105330417915632
  0.4288870082542273  0.6464990096164472  0.9072628021494231
  0.0828457356031142  0.3256351072565598  0.4212471041100124
  0.5839099162996131  0.8406972817268660  0.9141284024443831
  0.5743730998301014  0.1624611725398164  0.5801895494347414
  0.0981257489967733  0.6441026794000076  0.0807840024221258
 
 -0.58868918E-03  0.18550592E-02 -0.37707369E-02
  0.67791904E-02 -0.24466006E-02  0.53652535E-02
 -0.34988318E-02  0.67512222E-02  0.28599937E-02
 -0.23914525E-02  0.33578879E-02  0.59693958E-02
  0.36617355E-02 -0.49144612E-02 -0.38802296E-02
  0.36590446E-02 -0.62537767E-02  0.53952470E-02
 -0.51132947E-02  0.19867907E-03  0.93741706E-02
 -0.44900762E-02 -0.43104453E-02 -0.25789391E-02
 -0.97969727E-02 -0.26086910E-02  0.13102427E-02
  0.35084280E-02  0.30496548E-02  0.10535012E-02
  0.29679050E-02 -0.79407874E-03 -0.54163367E-02
 -0.84749383E-02 -0.57633514E-02 -0.49225481E-02
 -0.56071444E-02 -0.40736662E-03  0.30704489E-02
  0.57800797E-02  0.26988708E-03 -0.47456055E-02
  0.49709859E-02  0.47794232E-02 -0.32194923E-02
  0.11416062E-02 -0.99260432E-02 -0.68426447E-03
  0.30767460E-02 -0.26653025E-02 -0.19970184E-03
  0.31338787E-03  0.66711908E-03 -0.10200762E-01
  0.57901986E-02  0.23788234E-02  0.84380116E-02
 -0.41930687E-02  0.10216194E-03  0.33920810E-02
 -0.35911414E-02  0.65408694E-02  0.29844317E-02
  0.36176756E-05 -0.84760499E-02  0.37149977E-02
  0.42358058E-03  0.39945890E-02  0.34929747E-02
 -0.54377572E-03  0.21349494E-02  0.17791100E-02
  0.33339614E-03 -0.19741217E-02 -0.71037741E-03
  0.65178522E-03 -0.57074360E-02  0.26333842E-02
 -0.21224272E-02  0.42140727E-02 -0.16627540E-02
 -0.12155933E-01 -0.34526518E-02 -0.38320911E-02
  0.74983950E-02  0.16753926E-02 -0.41238427E-02
  0.34820861E-02  0.54190758E-02 -0.64232432E-02
  0.19307641E-02 -0.34282036E-02 -0.52655116E-02
 -0.86601954E-02  0.41746956E-02 -0.99720805E-03
 -0.34313919E-03 -0.51944337E-02 -0.49254709E-02
 -0.58699834E-02  0.40561414E-02  0.78990852E-03
  0.79155234E-03 -0.20570174E-02 -0.55913140E-02
  0.22889272E-02  0.61685407E-02  0.23519602E-02
  0.46223960E-02  0.23835816E-02  0.32192507E-02
  0.28498230E-02  0.19708854E-02  0.97815010E-03
  0.23433118E-02 -0.47444353E-02  0.15834151E-02
 -0.47843793E-02 -0.35129086E-02  0.36555815E-02
  0.12234666E-01 -0.41607128E-02  0.43794412E-02
 -0.29271412E-02 -0.98041734E-02 -0.27733827E-02
  0.10806765E-02  0.96486133E-04  0.62474692E-02
 -0.29282225E-02 -0.38823348E-02 -0.97714402E-03
  0.14919027E-02  0.30959297E-02  0.10613290E-02
 -0.35031931E-02  0.17383288E-02 -0.74507904E-03
  0.68590463E-03  0.38017220E-02  0.10986097E-02
 -0.43265445E-02  0.39541840E-02 -0.44307772E-03
  0.34437557E-03 -0.56711924E-03 -0.16567399E-02
  0.45208933E-03 -0.22934307E-02  0.25567870E-02
 -0.54049311E-02 -0.46680794E-02  0.72572363E-04
  0.98010566E-03 -0.95935701E-03  0.54612023E-02
  0.24465254E-02 -0.29800046E-02  0.31597893E-02
 -0.63627588E-02  0.73874505E-02  0.58686005E-02
  0.15438312E-02  0.31168485E-02  0.10112214E-02
 -0.73974526E-03  0.41638076E-02 -0.46009062E-02
 -0.24844100E-02 -0.11610881E-02 -0.10096188E-01
  0.31482164E-02  0.23152389E-03  0.12246051E-02
 -0.20538178E-02  0.58210733E-02  0.28433989E-02
 -0.12764669E-02 -0.42148269E-02  0.25331356E-02
  0.58608022E-05  0.29431980E-02 -0.20122845E-02
 -0.85040304E-03 -0.40001769E-02 -0.29082312E-02
  0.18254066E-02  0.39918784E-02  0.33268908E-02
 -0.20062990E-03  0.78128658E-02  0.31232308E-02
  0.11290346E-01 -0.19424900E-05  0.66199686E-02
 -0.80385331E-02 -0.27251375E-02 -0.32068872E-02
 -0.39212126E-02 -0.48009052E-02 -0.98002264E-04
  0.66205122E-02  0.39150671E-02 -0.53395850E-02
  0.35207783E-02 -0.48527463E-02 -0.37398994E-02
  0.36733070E-02  0.69908243E-02 -0.27952637E-03
  0.80472702E-04 -0.39135584E-02 -0.11572127E-02
 -0.38316022E-02  0.37911213E-02  0.12336353E-02
 -0.23728337E-02 -0.23029146E-02 -0.42872371E-02
 -0.79054598E-02  0.54242758E-02  0.82668593E-04
 -0.51121666E-02  0.97754890E-03  0.37597738E-02
 -0.18144053E-03  0.29091612E-02  0.33467657E-02
  0.22420843E-02  0.11619615E-02 -0.47481842E-02
  0.30343891E-02  0.17721818E-02  0.86773276E-02
 -0.42185058E-02  0.93560120E-03 -0.47291219E-02
  0.69175229E-02 -0.26185145E-02  0.37806276E-02
  0.43013596E-02  0.67782998E-03 -0.18912157E-02
 -0.21047772E-02 -0.61735932E-02 -0.66726381E-03
  0.42787480E-02  0.26454561E-02  0.70586803E-02
  0.49437091E-02 -0.22706128E-02 -0.19390169E-02
  0.20214445E-02 -0.17810521E-02 -0.12339948E-02
  0.89684506E-03 -0.78353637E-02 -0.40924912E-03
  0.42529390E-02  0.68939455E-02  0.26591187E-03
 -0.19896163E-03  0.32812864E-03  0.12753141E-02
 -0.21151309E-02  0.19835126E-02 -0.32480658E-02
  0.39116294E-03 -0.27066691E-02  0.14160143E-02
  0.87544978E-03  0.14436597E-02 -0.33269645E-02
 -0.27578040E-02  0.86688717E-03 -0.17122668E-02
 -0.30756746E-02  0.17808636E-02  0.24355901E-02
 -0.30460513E-02  0.45394355E-02  0.35965394E-03
  0.83064659E-03  0.84733739E-04 -0.10355195E-02
  0.45943900E-03  0.82836973E-03  0.13840361E-02
  0.45800781E-03 -0.27087182E-02  0.15588546E-02
 -0.48355066E-03 -0.11543842E-02  0.21994328E-03
  0.11047183E-02 -0.51382648E-03 -0.61962257E-02
 -0.84487896E-03  0.11901819E-03  0.17533709E-02
  0.71069449E-03 -0.30038516E-04 -0.17781210E-02
  0.24088681E-02  0.31649688E-03  0.28093529E-02
 -0.10618351E-03  0.35078418E-02  0.11937183E-02
  0.43566038E-03 -0.37192968E-03 -0.29943390E-02
 -0.84854008E-02 -0.51730093E-02  0.70000312E-02
  0.55790593E-02 -0.47609509E-03 -0.46750625E-03
 -0.56813380E-03  0.10066724E-02  0.15465465E-02
 -0.48276231E-03 -0.14216882E-02  0.28956697E-02
  0.97719868E-03  0.23380133E-02 -0.15591836E-03
  0.40851995E-02  0.12109195E-02 -0.26990119E-02
 -0.16216204E-02 -0.32589941E-03  0.10691097E-02
 -0.39555749E-02  0.35508994E-03  0.22359583E-02
  0.15607966E-02  0.24572249E-02  0.34621306E-03
  0.52729844E-02 -0.47697363E-03 -0.21754634E-02
 -0.49126244E-02  0.46189124E-02 -0.28325071E-02
 -0.41624406E-03 -0.53332199E-02 -0.39468089E-02
 -0.30052353E-02 -0.64652424E-02 -0.31002907E-02
  0.57398318E-02 -0.99456129E-02 -0.19937145E-02
  0.17961747E-02 -0.35995355E-02  0.49136884E-02
 -0.16833785E-02 -0.32247114E-03 -0.67429998E-02
  0.59701505E-03  0.18794696E-02 -0.48602003E-02
  0.51136699E-02  0.18631703E-02  0.22538931E-02
  0.34237132E-03  0.73046163E-02 -0.91630230E-02
 -0.28655613E-02  0.66715135E-02 -0.21264182E-02
  0.82348473E-03  0.53115175E-03 -0.70980357E-03
  0.48846723E-02  0.51915252E-02  0.34563151E-02
  0.22001732E-02 -0.33646368E-02  0.52575886E-02
  0.63060715E-02 -0.46248756E-02  0.14539342E-02
  0.57411011E-02 -0.26565795E-02  0.65600316E-02
 -0.83434949E-03  0.85694613E-06 -0.38381799E-02
  0.15185851E-02 -0.18589696E-02  0.21397850E-02
  0.22538142E-03  0.83708568E-02 -0.83743645E-03
  0.31631351E-02  0.38426293E-02 -0.48734909E-03
 -0.11358600E-03 -0.70179630E-03 -0.80233670E-03
 -0.21259838E-02 -0.49407903E-02  0.73232659E-03
 -0.84730249E-03 -0.52317138E-03  0.96498540E-03
  0.40906676E-02  0.21157491E-02 -0.29691008E-02
  0.36137233E-02 -0.31480904E-02  0.23727954E-02
 -0.16412507E-02  0.58284857E-02  0.35862109E-02
  0.24582885E-02 -0.47941747E-02  0.50560796E-02
 -0.48619535E-02 -0.46942150E-02  0.31524423E-02
 -0.61644835E-02 -0.18316797E-02 -0.20745296E-02
 -0.37103998E-02  0.62787466E-02  0.66853459E-02
  0.22842667E-03  0.59315072E-02  0.35060580E-02
  0.20657180E-02 -0.32669954E-02 -0.15049159E-02
 -0.39323256E-03 -0.33305834E-02  0.49204190E-02
 -0.19793097E-02  0.52181487E-04  0.11484522E-02
  0.16619256E-02  0.43213153E-03 -0.56074141E-02
  0.44265245E-02  0.42727765E-03 -0.80802304E-02
  0.46971199E-02 -0.36897814E-02  0.27552914E-02
 -0.14476771E-02 -0.11987953E-02 -0.48079007E-02
  0.31437454E-02 -0.27856724E-02 -0.20144318E-02
  0.36987938E-02  0.39311416E-02  0.12298288E-02
  0.97187133E-03 -0.33270786E-02 -0.19318560E-02
 -0.72392164E-02  0.48944780E-02  0.51227704E-02
 -0.63128703E-03 -0.16338817E-03  0.54812743E-02
 -0.19361766E-02  0.91423247E-03 -0.60624699E-03
 -0.17564287E-02  0.16836878E-02  0.22273387E-02
 -0.21884235E-02 -0.48120409E-02  0.96879264E-03
  0.37570850E-02  0.21200699E-02  0.36500646E-02
 -0.32803855E-02  0.60670735E-03 -0.16691950E-02
 -0.41335798E-02  0.40554744E-02 -0.51092228E-02
  0.22863311E-02 -0.25661378E-02  0.63818189E-03
  0.14871468E-02 -0.33229573E-02  0.29521633E-02
 -0.35079067E-02 -0.24528595E-02 -0.14643223E-02
  0.11858294E-02  0.11610265E-02  0.51321706E-02
 -0.47098143E-03  0.21462962E-02 -0.64797612E-02
  0.34112026E-02 -0.14975971E-02  0.38719097E-02
 -0.33322022E-02 -0.37519736E-02  0.63303803E-02
  0.93132577E-02 -0.45172845E-02 -0.35609113E-02
 -0.79743631E-03 -0.38109460E-02  0.46908867E-03
  0.68799988E-03 -0.40699868E-02 -0.27903418E-02
 -0.10584296E-02  0.22296317E-02 -0.11404278E-01
  0.17511506E-02  0.12307393E-02  0.24069947E-02
 -0.36093418E-02  0.52599098E-02 -0.41879484E-03
 -0.52600315E-03 -0.24300749E-02 -0.18915800E-02
 -0.50868049E-02 -0.92513989E-02  0.29063396E-02
  0.15148833E-03 -0.17804823E-02 -0.30202174E-02
  0.51357994E-02 -0.67389524E-02  0.15082366E-03
 -0.35182197E-02  0.57518297E-02 -0.51259827E-02
  0.38708278E-02  0.23257065E-02  0.22344792E-03
 -0.10070756E-01 -0.10673192E-02 -0.16764278E-02
  0.15406786E-02 -0.55835827E-03  0.10163311E-02
 -0.29627823E-02  0.35979271E-02  0.23533381E-02
  0.12960914E-02  0.53780572E-03  0.13978127E-02
 -0.47193192E-02  0.44139125E-02  0.17082365E-02
 -0.21483481E-02  0.38588295E-02  0.20092768E-02
 -0.14625332E-02 -0.67887086E-02  0.22090467E-02
  0.60601186E-02  0.18645472E-02  0.11757910E-02
 -0.42443741E-02 -0.34793497E-02  0.43216770E-02
 -0.18214271E-02  0.13640580E-02 -0.94418634E-03
 -0.53838661E-03 -0.44176511E-02  0.48116964E-02
 -0.42954915E-03  0.68554506E-02 -0.92934485E-03
  0.31933688E-02  0.30966450E-02 -0.26633635E-02
 -0.52393197E-03  0.18457728E-02 -0.36101390E-03
 -0.14931654E-03 -0.31893537E-02 -0.35819494E-02
 -0.65355486E-02 -0.41457040E-02 -0.28805639E-02
  0.31286083E-02 -0.44289448E-03  0.13819898E-02
 -0.25022081E-02  0.10507921E-02  0.82327091E-03
  0.46638004E-02 -0.93735106E-03  0.15647212E-02
  0.61229783E-02  0.27508714E-02 -0.26685874E-02
  0.10515640E-02 -0.22447407E-02  0.70455681E-03
  0.27161624E-02  0.26573645E-02  0.14185938E-02
  0.66427416E-02  0.59004672E-04  0.11820069E-02
 -0.19218699E-02  0.31072516E-02  0.15520294E-02
 -0.60299382E-02 -0.30854842E-02  0.10484926E-02
  0.12773393E-02 -0.63822854E-02 -0.48596183E-02
  0.97361131E-03  0.12411692E-02  0.18657709E-02
 
           1
   2.00000000000000     
  0.15177574E+01  0.11958582E-02  0.00000000E+00  0.00000000E+00
  0.25894482E-01  0.14671212E-01  0.12486192E+00
  0.49646167E+00  0.52094509E+00  0.62113146E+00
  0.51687327E+00  0.48368461E+00  0.86149148E+00
  0.15407604E-01  0.96001362E+00  0.37862068E+00
  0.15743775E-02  0.99856832E+00  0.87883022E+00
  0.72951046E+00  0.48834483E+00  0.38766717E+00
  0.31447951E-01  0.46931836E+00  0.13119729E+00
  0.29980141E+00  0.30889811E-01  0.12014464E+00
  0.74373235E+00  0.98748371E+00  0.62617709E+00
  0.73963976E+00  0.25420083E+00  0.86535904E+00
  0.76749406E+00  0.70359780E+00  0.37252575E+00
  0.26975721E+00  0.23450898E+00  0.88300379E+00
  0.80409939E+00  0.25072103E+00  0.13495281E+00
  0.20976424E+00  0.76947228E+00  0.52191454E+00
  0.96883282E+00  0.15499404E-01  0.74647431E+00
  0.22636430E+00  0.47665386E+00  0.37691620E+00
  0.97277360E+00  0.48959983E-01  0.62835049E+00
  0.28686531E-02  0.48642265E+00  0.62989834E+00
  0.52677700E+00  0.97522249E+00  0.12908532E+00
  0.24163674E+00  0.48344728E+00  0.87462479E+00
  0.54276864E+00  0.27483388E-01  0.36278437E+00
  0.27726018E+00  0.23409614E+00  0.37022656E+00
  0.74624981E+00  0.76052937E+00  0.88202439E+00
  0.77464929E+00  0.50638109E+00  0.62604159E+00
  0.29320346E+00  0.73285631E+00  0.98899946E+00
  0.24835642E+00  0.26347502E+00  0.62984771E+00
  0.77742210E+00  0.50516419E+00  0.13815464E+00
  0.73602446E+00  0.22094118E+00  0.37464900E+00
  0.49727150E+00  0.76063962E+00  0.50857923E+00
  0.52859041E+00  0.28024467E+00  0.99574282E+00
  0.47773511E-02  0.51277886E+00  0.37968106E+00
  0.48074814E+00  0.42031640E-01  0.74206276E+00
  0.39773036E-01  0.74775298E+00  0.27198470E+00
  0.53669022E+00  0.43932426E+00  0.74357440E+00
  0.36222052E-01  0.97067331E+00  0.36151803E-04
  0.48988627E+00  0.27221552E+00  0.50498939E+00
  0.56010859E+00  0.77707269E+00  0.15866078E-01
  0.28912559E+00  0.23066215E+00  0.23768033E+00
  0.97513328E+00  0.74866420E+00  0.76330272E+00
  0.52571727E+00  0.72990254E+00  0.24368129E+00
  0.41417747E-01  0.23610005E-01  0.25313984E+00
  0.46130346E+00  0.78558493E+00  0.74399452E+00
  0.51263611E+00  0.31681941E-01  0.87299467E+00
  0.20545872E-01  0.44428963E+00  0.26449851E+00
  0.27783153E+00  0.23423731E+00  0.17282431E-01
  0.77959525E+00  0.74411559E+00  0.51371368E+00
  0.93511135E-02  0.52204034E+00  0.50919636E+00
  0.78961575E+00  0.27590377E+00  0.99951982E+00
  0.83589868E-02  0.26274305E+00  0.73365104E+00
  0.49798113E+00  0.47693292E+00  0.26076694E+00
  0.35145343E-01  0.50031120E+00  0.76360773E+00
  0.55175146E+00  0.95748817E+00  0.25067460E+00
  0.22696094E+00  0.27672668E+00  0.50330916E+00
  0.79122669E+00  0.75495824E+00  0.67198237E-01
  0.75035253E+00  0.24864568E+00  0.60114770E+00
  0.16029374E-01  0.71562175E+00  0.99510185E+00
  0.30971390E-01  0.24148374E+00  0.75138495E-03
  0.51952713E+00  0.51764915E+00  0.49732250E+00
  0.50532485E+00  0.51851892E+00  0.99347257E+00
  0.83051749E-02  0.94400474E+00  0.51600376E+00
  0.51001439E+00  0.16844841E-01  0.99575769E+00
  0.94944107E+00  0.25412102E+00  0.49558098E+00
  0.68826923E-02  0.48944301E+00  0.99186355E+00
  0.49301004E+00  0.32452403E-02  0.49748400E+00
  0.84338632E+00  0.21170074E+00  0.26006382E+00
  0.74632618E+00  0.73173625E+00  0.75664526E+00
  0.23388051E+00  0.70275407E+00  0.23238042E+00
  0.71878454E+00  0.24077435E+00  0.74092023E+00
  0.79960540E+00  0.73547068E+00  0.24196815E+00
  0.28676499E+00  0.25292610E+00  0.74606006E+00
  0.54959969E+00  0.22603080E+00  0.25526045E+00
  0.20712131E+00  0.75487115E+00  0.73497771E+00
  0.31440441E+00  0.43304734E+00  0.12498414E+00
  0.48102356E+00  0.23564809E-01  0.62260544E+00
  0.73724660E+00  0.24898105E-01  0.87733758E+00
  0.26257963E+00  0.73708550E+00  0.36383737E+00
  0.21334688E+00  0.73082205E+00  0.87257981E+00
  0.75260936E+00  0.95219292E+00  0.36855019E+00
  0.78733347E+00  0.72495709E-02  0.12388825E+00
  0.25053799E+00  0.59051181E+00  0.63063885E+00
  0.79487227E+00  0.49095597E+00  0.88559353E+00
  0.28553421E+00  0.98219857E+00  0.37654529E+00
  0.71891656E+00  0.76081445E+00  0.63895809E+00
  0.26171294E+00  0.74419985E+00  0.11306020E+00
  0.21436112E+00  0.97816900E+00  0.62796327E+00
  0.52903738E+00  0.50054177E+00  0.13347225E+00
  0.25249477E+00  0.96479462E+00  0.87304125E+00
  0.49758062E+00  0.46507743E+00  0.38413818E+00
  0.28138824E+00  0.96379958E+00  0.23805775E+00
  0.77545304E+00  0.49660271E+00  0.75158735E+00
  0.22251838E+00  0.17195103E-01  0.75013494E+00
  0.75546665E+00  0.48005248E+00  0.26072994E+00
  0.26692274E+00  0.98015720E+00  0.99902672E+00
  0.75165066E+00  0.49133482E+00  0.50691809E+00
  0.24625535E+00  0.29180419E-01  0.49471307E+00
  0.75287606E+00  0.52897738E+00  0.52760793E-02
  0.72563618E+00  0.99183820E+00  0.75085035E+00
  0.24967353E+00  0.48228969E+00  0.25464761E+00
  0.28628663E+00  0.49939497E+00  0.75142974E+00
  0.78764606E+00  0.97181253E+00  0.23820941E+00
  0.25981494E+00  0.52687560E+00  0.50119163E+00
  0.77566251E+00  0.24730117E-01  0.45231029E-02
  0.75602468E+00  0.98963682E+00  0.49568014E+00
  0.24820787E+00  0.48023804E+00  0.99565394E+00
  0.12025972E-01  0.22810826E+00  0.37522349E+00
  0.49251485E+00  0.76102312E+00  0.86270645E+00
  0.50210110E+00  0.26748267E+00  0.62434540E+00
  0.11656734E-01  0.73804441E+00  0.12227814E+00
  0.10571625E-01  0.23796933E+00  0.87595890E+00
  0.50337034E+00  0.74216173E+00  0.37255504E+00
  0.98397071E+00  0.76064462E+00  0.63724358E+00
  0.53557315E+00  0.22538850E+00  0.12692725E+00
  0.13771843E+00  0.38607594E+00  0.44580525E-01
  0.64421639E+00  0.90432409E+00  0.54960575E+00
  0.67014070E+00  0.13586331E+00  0.95293030E+00
  0.15618935E+00  0.61838481E+00  0.44803701E+00
  0.36329350E+00  0.36790957E+00  0.95718988E+00
  0.85321914E+00  0.88175210E+00  0.44497793E+00
  0.87688467E+00  0.12565986E+00  0.60349702E-01
  0.36285170E+00  0.62602653E+00  0.55077494E+00
  0.90276739E+00  0.82214922E-01  0.19135339E+00
  0.38570207E+00  0.60804385E+00  0.69718997E+00
  0.88725534E+00  0.87561073E+00  0.30038052E+00
  0.38115721E+00  0.38611809E+00  0.80909719E+00
  0.12872083E+00  0.58134027E+00  0.30138329E+00
  0.63737159E+00  0.10868017E+00  0.79648075E+00
  0.15526576E+00  0.38290444E+00  0.20209715E+00
  0.60510988E+00  0.92108627E+00  0.69773793E+00
  0.83871811E+00  0.63660390E+00  0.95596333E+00
  0.36198321E+00  0.11419523E+00  0.44587196E+00
  0.86200671E+00  0.39497525E+00  0.55938435E+00
  0.37462268E+00  0.86937048E+00  0.49085989E-01
  0.14266350E+00  0.12541487E+00  0.54516518E+00
  0.62879140E+00  0.62362384E+00  0.57667453E-01
  0.15938146E+00  0.87490873E+00  0.95319971E+00
  0.64880778E+00  0.37455716E+00  0.46248697E+00