Na88 Sn16 P8 S96                        
   1.00000000000000     
    13.4813327813000008    0.0000000000000000    0.0000000000000000
     0.0000000000000000   13.4813327813000008    0.0000000000000000
     0.0000000000000000    0.0000000000000000   26.9626655626000016
   Na   Sn   P    S 
    88    16     8    96
Direct
  0.2780338869042418  0.0043243369956211  0.1257000046734101
  0.5088152724934505  0.9909287258252912  0.4783424845419664
  0.7389027520564320  0.5009455654447305  0.8695597379157901
  0.7443329415135650  0.2780629601628930  0.3715261100405363
  0.2216340620749443  0.2561003572440479  0.8766859129380941
  0.2740005061388358  0.7899405378027897  0.5147536542382387
  0.7225958688024828  0.7761179762174020  0.1236292123814245
  0.2615821961223406  0.2321397564071744  0.1633397942109179
  0.2633573707550094  0.2901770986337018  0.7390535938016993
  0.6855529622524074  0.2468061804876031  0.0839102954675957
  0.6793726062800525  0.7929088305934259  0.4825063792079625
  0.5014249518751880  0.9713823537456843  0.7632733939517982
  0.4655169154553097  0.9973945011305151  0.8895026753463899
  0.5338628636311614  0.5556554909957822  0.4803590379376845
  0.7420221360727247  0.0092141937317987  0.8993517797000705
  0.7708391087009933  0.0337273913404128  0.3809905754425381
  0.9850946679929851  0.9795086465087839  0.3966887847678899
  0.2152339136657269  0.9956181115116021  0.6120524982956060
  0.2658607062174203  0.7562232432263666  0.1306901701394022
  0.0045670361286982  0.3484293706094901  0.7847010470976179
  0.5256828293317560  0.0258312240903962  0.1836792101054351
  0.2013418852916972  0.7184764827140636  0.3760370047214865
  0.4561047821852750  0.0232015010626869  0.6316906372822172
  0.4829243748862390  0.5421463137445294  0.6266955735912805
  0.2736310321272807  0.7645767065518961  0.9909703224957332
  0.7465961207896734  0.2551816532154051  0.7808677736215733
  0.7034511844310418  0.7329521512729462  0.9633961531347801
  0.9591521506052660  0.4973416788183262  0.2584359156626357
  0.0140121067934446  0.9991521895946803  0.2563157804831545
  0.4930886456783479  0.7917322024596154  0.0482849162626386
  0.4985458185111697  0.2618245107768527  0.4969538853982034
  0.2195283635098062  0.7926242136585954  0.6861927401230574
  0.2275926714348378  0.7280240484884358  0.2492050669671670
  0.4850757303270289  0.4937199853133264  0.8956199033585241
  0.9909497667598701  0.9734010378177975  0.8696164366569871
  0.2573071920818422  0.2313822978331635  0.3582239341149130
  0.7201405594021414  0.7616703245967655  0.7987978341450916
  0.4846774625593302  0.2623161949846745  0.2574391581209001
  0.0077948304105975  0.4664988474182652  0.6322675197605108
  0.4739884028570274  0.0320003188352897  0.0211245342147302
  0.7900944096024842  0.9783778827633364  0.1481799018063184
  0.5174573089570269  0.2438759395656669  0.7709929516050996
  0.2306483127253904  0.9659949517702124  0.8658946759998319
  0.0431381651210750  0.2168380591374066  0.2559476298128270
  0.5066047736494084  0.5118291737217310  0.2645339683603680
  0.0048036755001138  0.9775085719897643  0.5339683032109205
  0.0018312718436156  0.7525073108256806  0.4778458003097997
  0.7336519161410301  0.2556731296371595  0.2557716941001505
  0.9798899869698952  0.0085204555386834  0.7504821523613419
  0.4671734697530857  0.4660917096069849  0.3776360538431909
  0.1950656076109617  0.5942131993227001  0.6287049030805957
  0.5077138466422303  0.7449876623985079  0.2286914526538741
  0.0030519377185090  0.0804321880494392  0.6456386476498245
  0.9746255850158474  0.5066227568361833  0.8807521797790858
  0.7893921303963078  0.5123618281052477  0.3722341189999616
  0.7669457184634718  0.7584643213399413  0.6461962556203833
  0.2193647637091602  0.2784449034334694  0.0178521103680136
  0.2450975778567948  0.2956486163597272  0.4991050564517631
  0.4778316304453634  0.5447123848131774  0.0093635120414993
  0.2120600174357350  0.2753069305948797  0.6381505818926749
  0.9672212476251619  0.7438463614957085  0.0011163404689451
  0.7511269465066083  0.5012945067119974  0.6136545062256410
  0.4715369116752673  0.2619882875183759  0.9976165392144121
  0.5032776006974033  0.7765213166188368  0.5330789435217178
  0.0346555716151610  0.9783675023257650  0.1243790381911026
  0.2202527246619977  0.7560459399337719  0.8277882326230462
  0.4884362067470795  0.5485557879497244  0.1264483479169012
  0.7645852920743190  0.2676639261176560  0.6340150705185424
  0.7244489654622210  0.7807979783069833  0.3069296076264176
  0.0076251376014653  0.2064009456589059  0.0215902242021714
  0.9694865172292559  0.4725768868739078  0.0057716865693086
  0.9605545619168144  0.7648853075471868  0.7475877455075707
  0.2286553895148898  0.5152820174342038  0.1300222112261719
  0.7067703105457298  0.3055703800949554  0.5132974389739637
  0.7543073518845660  0.2672093772389043  0.9516598430105802
  0.4870898502739368  0.7868159951034964  0.7125969173581710
  0.9592753532333157  0.4590529642323005  0.1277470418221570
  0.5192556106649990  0.9477328828569975  0.3060653643613303
  0.0038036859194449  0.7290808492469533  0.2774149018777697
  0.9698975473586935  0.2442542909429186  0.5108079047126582
  0.2537475718546122  0.5325601579608098  0.8953129183087488
  0.2853257359465306  0.9679574395410764  0.3768451574890951
  0.0244101134144620  0.5157260123595191  0.5145802305017845
  0.0105080195356386  0.0092497510217758  0.9827471258003805
  0.7199598172285625  0.0211742541771636  0.6338969891691667
  0.7516331796317440  0.5007695825211825  0.1232684596179540
  0.4940554023540939  0.5273763024524991  0.7629807151578247
  0.1885643292112682  0.4864799464881146  0.3898602060972868
  0.2463765480450008  0.9817417355589129  0.2638164323903124
  0.7332273424596198  0.5040021392468315  0.7387449679175138
  0.2493542173298365  0.0117247434502754  0.7469845110252807
  0.7403682657503752  0.5016570413291106  0.2390470224228102
  0.2434539894278824  0.0198493864491021  0.9963629981797077
  0.7526747246323247  0.5399181282131977  0.4956148748333146
  0.2395552344161852  0.0452106931625441  0.4918889421860185
  0.7381136155358541  0.5182565648753811  0.9968914535677057
  0.7452383091126220  0.0001730291449727  0.7529564175959719
  0.2442561408578597  0.4865556514958617  0.2605516946579235
  0.2203414539981537  0.5349274523452021  0.7636426579486854
  0.7666948589277389  0.0019528219902511  0.2774569096155231
  0.2710206930796867  0.5468791043861061  0.5163314994283449
  0.7325033520103504  0.0211279973115151  0.0260737717497177
  0.7591162156277059  0.0514452588210096  0.5075040594485465
  0.2285732916239283  0.5162925743153997  0.0088869642032902
  0.0061611874900269  0.2555687871632021  0.3803979579939986
  0.4773328808654971  0.7645590430209136  0.8914332918991398
  0.5016312274237148  0.2871181764316673  0.6339558115100432
  0.0080962603763371  0.7254173573006406  0.1307463501986516
  0.9628551839263616  0.2563941723881367  0.8941054266173281
  0.4860464774551524  0.7475186519183215  0.3817042050849118
  0.0052634855199221  0.7771892618284785  0.6146774090826080
  0.4890500830220518  0.2749115579130548  0.1366755200030443
  0.1355495172910391  0.4029990275904540  0.0741001068051877
  0.6479323017081874  0.9245535877565977  0.5560206406870077
  0.6286133771270140  0.1371164652876055  0.9890888054866559
  0.1479735868547535  0.6303434302488409  0.4635443570370196
  0.3309317949873539  0.3985924968569183  0.9626783001358930
  0.8624471342003622  0.9321230897133432  0.4702064614478927
  0.8639918048961936  0.0924108847061854  0.0769772362141601
  0.3358995813188486  0.6661683371157436  0.5834733594494990
  0.8450396522608931  0.1140565633114204  0.2214742306482112
  0.3298718017137309  0.6670337131400883  0.7416475658143592
  0.8789952992953600  0.9041673593822175  0.3227884354189794
  0.3064240102846945  0.4176092104631657  0.8154289454792957
  0.1211433525951446  0.5749578738684219  0.3141195484987269
  0.6250094787811559  0.0893165613524108  0.8110403475981094
  0.1416201798639034  0.3824952763310434  0.2101634509929403
  0.6480374936502706  0.8903836967754708  0.7061436747765025
  0.8550169611659821  0.6080448491712462  0.9404770861116321
  0.3578365539448045  0.1229637625444522  0.4394928193207377
  0.8390567738844358  0.4078353854659997  0.5447967889155928
  0.3463266010029157  0.9096382149201501  0.0455179509034842
  0.1534772408984344  0.1552055181335471  0.5495690007764947
  0.6359767427807744  0.6341965889269443  0.0416951086317407
  0.1431424665898434  0.9008487046241399  0.9416716139292464
  0.6437216939106293  0.4223707390497712  0.4486145314876115
  0.6466212314781227  0.4105491763787208  0.2964232673113832
  0.1230783567006153  0.9010032821758629  0.7868675693101250
  0.1632946691032982  0.1329468894658206  0.6989172458246758
  0.6233485263323446  0.5882190646411447  0.1902406756293479
  0.8447914659777014  0.4035182924375597  0.6882011777310008
  0.3752803519668620  0.9015936280959725  0.2031871028956166
  0.3665671917767426  0.0769649632560753  0.3002106576204526
  0.8256651288816995  0.5962629960603899  0.7928305107821537
  0.1473658772358175  0.1082164369849012  0.0618156452137569
  0.6303505808016147  0.6181695842026047  0.5552993284596378
  0.6190796982177960  0.4155788793871152  0.9542985373624224
  0.1640775912232798  0.8936834595340514  0.4598246194901067
  0.3366907183105554  0.1006688013817201  0.9335215645142624
  0.8459960569309525  0.6396228857910160  0.4504037030259062
  0.8074262051125343  0.3739642303504814  0.0380928471046430
  0.3611977276819587  0.9345678399800772  0.5430849543716555
  0.1579814256991894  0.0494410266837938  0.1960853049767119
  0.6285018574539578  0.6270807433798038  0.6964232954164055
  0.1398887810520658  0.8716338934773809  0.3037827851292296
  0.6267479321127339  0.3891080821378844  0.7901695112853134
  0.8327075819085376  0.6232150845431123  0.2824088847906925
  0.3367921424857820  0.0814373449390984  0.8080580277025419
  0.8176400069179032  0.3828034017072383  0.1911870623328481
  0.3537279305061964  0.9484727772809011  0.6866955247235241
  0.8277985999884304  0.9064454979620605  0.9719901908524429
  0.3781228701903013  0.4394558855084979  0.4703270036984719
  0.8455274922016794  0.1305090771391000  0.5738957455448241
  0.3405960365290711  0.6182966961450739  0.0701389643198107
  0.1611934253344717  0.4384636056021234  0.5668478613809432
  0.6332230995896636  0.9410712908103578  0.0855467319141953
  0.1162399831019066  0.6251528781883703  0.9652030607245010
  0.6555823766950843  0.1409371197285941  0.4569822130347043
  0.3546870903157913  0.3819369186038615  0.3122337563269038
  0.8349593168713201  0.8998994497583097  0.8082080434763184
  0.8429690473236559  0.1390582239576185  0.7131204432788391
  0.3519542103913782  0.5879677272432465  0.2113872708254463
  0.1373635200442858  0.4328401440231570  0.7066047534778842
  0.6629831236774477  0.8828050426449288  0.2367087333876357
  0.6475017374743752  0.1122009929629024  0.3214361698019975
  0.1073932814114430  0.5935052452087667  0.8162954946209346
  0.0729791421886223  0.1426373789133686  0.3424139855557570
  0.5801797564106665  0.6644310302387718  0.8584591080054075
  0.5941240607816741  0.1862760979073590  0.6706517081895977
  0.9006943073659572  0.6595073970131933  0.0814009418451471
  0.4137104279062591  0.3720946172272172  0.6869177087184514
  0.9443021093626394  0.8348745728185305  0.1770688615042217
  0.9223712019764870  0.3297490987086389  0.3317987210119730
  0.3987263558465984  0.8331137820842658  0.8407361405398075
  0.0461158391596260  0.3528167388797113  0.9359791068396983
  0.4063454262583957  0.7159408206703123  0.4413189312477377
  0.9124505621182704  0.8875977937543683  0.6540655109951132
  0.5383790660934369  0.3571533653810358  0.0848448963531501
  0.1259068642401077  0.8425599472541879  0.5780210574306149
  0.4151516302388334  0.1648039139842656  0.1073771470357885
  0.8660139135779846  0.3339169934415785  0.8540420224449112
  0.3643121779768686  0.7862997832680375  0.3371374954581679
  0.9251202591457330  0.7048249678299763  0.5649947529578295
  0.4050185449203424  0.3658833363805288  0.1840193659783284
  0.8975583203443982  0.1468829779255277  0.9325607858061508
  0.5814604752120386  0.6416249867049663  0.3479323813715351
  0.0699509939398823  0.1928572156677061  0.8296819806116140
  0.5884678212096270  0.8578243428589155  0.3976107899878124
  0.0421572142257829  0.6612848909378199  0.6710028926540851
  0.6049813318978103  0.2012182509479049  0.1791242940197147
  0.5909406235794229  0.3875422127508814  0.6009906199578483
  0.0720484026553635  0.6287961485529988  0.1708127128322387
  0.9146812526588057  0.1812786851923490  0.4263259078533003
  0.3926330823594282  0.6809891530126559  0.9376327349066218
  0.1143725220423123  0.3103791966630940  0.4207990966269255
  0.5784970360723053  0.8539143116278844  0.9346279654532303
  0.4078054120444994  0.2184185073381744  0.5899266771473073
  0.1025272038362645  0.7977434286088048  0.0816320033395557
 
  0.60298164E-02 -0.39433108E-02  0.50863788E-02
 -0.75629538E-05 -0.35215535E-03 -0.70211616E-02
 -0.79035713E-02  0.13334369E-01  0.62474487E-02
 -0.50120476E-02 -0.36064998E-02 -0.16265882E-02
  0.10325757E-01  0.57487173E-02 -0.53266370E-03
 -0.27171779E-03  0.43057329E-02 -0.14751520E-02
 -0.43783020E-02  0.32589576E-02  0.16658461E-02
  0.11502022E-01 -0.52771719E-02 -0.44681061E-02
 -0.38514041E-02  0.22399468E-02  0.51107498E-02
 -0.69061470E-03 -0.61389145E-02  0.29727893E-02
  0.57641457E-02  0.21009257E-02 -0.82586674E-02
  0.51275182E-02  0.61787042E-04 -0.58239143E-02
  0.67600998E-02 -0.60837443E-02 -0.12098855E-02
 -0.12309369E-02  0.29260048E-03 -0.37755109E-02
 -0.51157158E-02 -0.66925372E-02 -0.30077341E-02
  0.12973829E-01  0.79829280E-02  0.54903420E-02
  0.42305578E-02  0.76453934E-03  0.16169984E-02
  0.54929223E-02  0.33917714E-02  0.99288546E-02
  0.92052589E-03  0.28136550E-02  0.14988284E-02
  0.14318891E-02 -0.14973429E-02  0.49725081E-02
 -0.88535305E-02  0.90611133E-02 -0.32780792E-02
  0.25219256E-02 -0.33781325E-02 -0.11298118E-01
 -0.78472523E-02  0.84539748E-03 -0.79409874E-04
  0.25449236E-02  0.44118005E-02  0.20957314E-02
  0.64449556E-03  0.93359705E-03  0.42319712E-02
  0.38031161E-02 -0.15832345E-02  0.97888769E-03
  0.47198441E-02 -0.18628857E-02  0.74609892E-02
 -0.28711844E-02 -0.44475354E-02  0.23815638E-02
  0.67166253E-02  0.24056209E-02 -0.56157358E-02
  0.23668465E-02 -0.69982472E-02 -0.90215231E-02
  0.78612591E-02 -0.63543904E-02 -0.75012072E-02
  0.48431375E-02  0.21092657E-02  0.21437481E-02
  0.87558398E-02  0.35671758E-02  0.27425050E-02
  0.34863502E-02  0.16759444E-02  0.67039146E-02
  0.17828375E-02  0.13837046E-02 -0.45939007E-02
 -0.56852112E-02 -0.17303291E-02  0.22409591E-02
  0.18435487E-02 -0.25046243E-02 -0.36167838E-02
  0.68803436E-02  0.23203433E-02 -0.34476776E-02
 -0.43254656E-02  0.47232358E-02  0.36317420E-02
  0.12312343E-01  0.71988913E-04 -0.27067930E-02
 -0.42124753E-02  0.81475614E-02  0.10979834E-02
 -0.21109266E-02  0.28814591E-02  0.79064726E-02
 -0.21497341E-02 -0.43510854E-02 -0.14018666E-01
  0.52659898E-02 -0.12174850E-02  0.99508259E-02
  0.11922564E-01 -0.25359062E-02 -0.25732267E-02
 -0.57265844E-02 -0.49673392E-02  0.62691581E-02
  0.55329685E-02 -0.16595527E-02 -0.60804541E-02
 -0.19109865E-02  0.10896616E-01  0.80198280E-03
 -0.21501483E-02  0.34040705E-02 -0.60471302E-02
  0.75047691E-03  0.75242883E-02  0.12193587E-01
  0.49650659E-02  0.36105961E-02 -0.36997212E-03
  0.54862939E-03  0.12282402E-03 -0.11139887E-02
 -0.11617519E-02 -0.32209484E-02 -0.46833802E-02
 -0.40625813E-02 -0.57152612E-02  0.10732967E-02
  0.73582140E-02  0.10337566E-02  0.93701830E-03
 -0.14219320E-01  0.29557148E-02 -0.11195054E-02
  0.80987082E-02  0.53420651E-02 -0.46111858E-02
 -0.18080541E-02  0.22510153E-02 -0.59628902E-02
 -0.12585938E-01 -0.28431978E-03  0.47024763E-02
 -0.40748462E-02  0.33122679E-02 -0.69044718E-02
 -0.65719277E-02  0.28428882E-02 -0.24403843E-02
 -0.73060911E-02  0.53166605E-02  0.30978955E-02
  0.11835298E-02 -0.79787797E-02  0.25970629E-02
 -0.28871553E-02 -0.18990151E-03 -0.58688877E-03
  0.35093120E-02 -0.76353599E-03  0.73512835E-02
 -0.43741226E-02  0.17699949E-02  0.31590764E-02
 -0.20356128E-02  0.60399153E-02 -0.72536927E-02
  0.65722303E-02 -0.21319511E-02  0.23585326E-02
  0.28025113E-02  0.52791300E-02 -0.59216102E-02
 -0.10808664E-02 -0.36933023E-02 -0.17762322E-02
 -0.21570972E-02  0.25941310E-02  0.38231357E-03
  0.58252973E-02 -0.49390013E-02 -0.15380152E-01
 -0.62278964E-02 -0.28378150E-02  0.10086941E-02
 -0.39031324E-02  0.52919642E-02  0.12667485E-03
  0.23491555E-03 -0.36515207E-02  0.34635840E-02
  0.25105451E-02  0.10183245E-02 -0.13312186E-01
  0.36888971E-03 -0.89447493E-02  0.89228380E-02
 -0.15919144E-02 -0.58215561E-02  0.11572243E-01
  0.57365873E-02 -0.38579292E-02  0.57582587E-02
 -0.20972832E-03 -0.36075239E-02 -0.22401976E-02
 -0.22663222E-02 -0.87642261E-02 -0.13385534E-02
  0.62155697E-02 -0.83277177E-02  0.86501608E-03
 -0.70397735E-02 -0.32617211E-02  0.21288902E-02
  0.65959309E-02 -0.11839658E-02  0.81384269E-02
 -0.10790849E-02 -0.89813310E-02 -0.91620446E-03
  0.78131452E-02  0.77709661E-02 -0.42332414E-02
 -0.31981167E-03 -0.36219425E-02 -0.37041250E-02
 -0.11895800E-01  0.17272852E-02 -0.62150937E-02
  0.66627172E-03 -0.40284569E-02  0.29864553E-03
  0.34130406E-02  0.36295165E-02 -0.34282540E-03
 -0.53266852E-03 -0.22227919E-03 -0.32548120E-02
  0.79071430E-03  0.20285946E-02 -0.14352785E-02
 -0.15824064E-02 -0.22303730E-02 -0.14906691E-02
  0.18306592E-02  0.34383661E-02  0.17645226E-02
 -0.26920589E-02 -0.39874842E-02 -0.16268155E-03
 -0.10570286E-02  0.83286278E-04  0.43739556E-02
  0.51844359E-03 -0.20967405E-02 -0.17234127E-02
 -0.10593286E-03  0.80926868E-03  0.88900212E-03
 -0.23396726E-03 -0.72362338E-04 -0.68503201E-03
  0.13645190E-02 -0.60110699E-02 -0.57760683E-03
 -0.19662159E-02 -0.23023121E-02 -0.19045930E-02
  0.23178197E-02  0.13407004E-02  0.33056351E-02
 -0.19682430E-03 -0.30433570E-02  0.44875495E-02
 -0.16430107E-02  0.42419027E-02  0.25619189E-02
 -0.46775435E-02 -0.18753510E-02  0.28183744E-02
 -0.50182421E-02 -0.52352448E-02 -0.18944814E-02
  0.20558439E-02 -0.71315685E-03  0.38506709E-02
 -0.13430961E-01 -0.50301317E-02  0.56029513E-02
  0.28472220E-02  0.17906776E-03  0.35767435E-02
  0.54749491E-02  0.12858404E-01 -0.63210633E-03
 -0.29414324E-02 -0.29985456E-02 -0.51768560E-02
 -0.13429876E-02 -0.94725995E-04  0.58158212E-02
 -0.15665470E-02 -0.28331183E-02  0.19599056E-02
 -0.28993417E-02 -0.16478994E-02 -0.10600436E-02
 -0.88476622E-02  0.62563766E-02 -0.34235213E-02
 -0.67805122E-03  0.56712829E-02  0.55653158E-02
  0.33979909E-02 -0.12626310E-02 -0.23013874E-02
 -0.18864529E-02  0.22567499E-02  0.26884376E-02
  0.23723794E-02 -0.51286375E-02  0.21603987E-02
 -0.16910065E-02 -0.74051936E-03  0.14752347E-02
 -0.43379096E-02  0.48787909E-02  0.58680313E-02
 -0.29151645E-02 -0.47670985E-02  0.38010235E-03
 -0.11295224E-02  0.84604035E-02  0.20260543E-02
 -0.39299846E-02 -0.51544666E-04  0.10877403E-02
 -0.18766745E-02  0.25752280E-02 -0.32552198E-02
  0.56640713E-02 -0.11098488E-02 -0.32065867E-02
  0.79380775E-02 -0.66809013E-03  0.92645519E-03
 -0.18504961E-02  0.46397842E-03  0.79302373E-03
  0.17506873E-02 -0.63734492E-02 -0.39851776E-02
  0.17121922E-02 -0.19675280E-02 -0.28043740E-03
  0.30457254E-03 -0.16249263E-02  0.71683130E-02
  0.97153947E-03  0.36117195E-02  0.30874373E-02
 -0.95935727E-02 -0.18053221E-02  0.12401269E-01
  0.38683426E-02  0.81101711E-02  0.14856032E-02
 -0.78265806E-02 -0.42215283E-02 -0.21680909E-02
 -0.42496984E-02  0.73545411E-02 -0.43673254E-02
  0.44616453E-02 -0.57556879E-02  0.48019038E-02
 -0.69317667E-02  0.50343001E-02  0.21202700E-02
  0.56261122E-04 -0.15260861E-02  0.41306782E-03
  0.60530987E-02  0.58478469E-02  0.56012459E-02
  0.10823668E-02  0.41507214E-02 -0.51526355E-02
 -0.55900732E-02 -0.44879569E-03  0.32557587E-02
  0.69760788E-02  0.13859744E-02  0.19733383E-02
  0.10297688E-01 -0.10171649E-02 -0.71155508E-03
 -0.85734148E-02  0.30619748E-03  0.87308909E-02
 -0.10919517E-03 -0.40229250E-03 -0.63241978E-02
 -0.38055052E-02  0.37431803E-02  0.19788228E-02
 -0.15259426E-01  0.16551617E-02 -0.11903445E-02
  0.14465511E-02  0.56768288E-02  0.47913635E-02
  0.81241612E-02 -0.45420667E-03 -0.84902086E-02
  0.15392026E-02  0.67649272E-02 -0.65682997E-02
  0.47532679E-02 -0.52950952E-02  0.24115210E-02
 -0.29494083E-02 -0.46449533E-02  0.42688636E-02
  0.71374912E-02 -0.11878429E-02 -0.35793573E-02
 -0.52524682E-02 -0.27548610E-02  0.37110072E-02
 -0.31369292E-02 -0.51669819E-02 -0.83858888E-02
 -0.42492440E-02  0.68628487E-03 -0.18105096E-02
  0.19717200E-02  0.30213185E-02 -0.33128368E-02
  0.46887037E-02 -0.11915919E-02 -0.50334126E-02
 -0.79839669E-02  0.28916585E-02  0.49427945E-02
  0.51848214E-02  0.20005535E-02  0.30556707E-02
  0.36331826E-02 -0.16816847E-02 -0.66941734E-02
  0.78100247E-02 -0.20262102E-03 -0.14606651E-02
  0.82334496E-02 -0.36336928E-02  0.10821861E-02
 -0.88973915E-03  0.18638962E-02 -0.20250988E-02
  0.10141029E-02 -0.68389245E-02  0.39619138E-02
 -0.67173804E-02  0.46291691E-02 -0.40678166E-02
  0.19781759E-02  0.90158854E-03 -0.12829683E-02
 -0.68906826E-03  0.30937564E-02 -0.26318452E-02
  0.81086710E-02  0.10108117E-02 -0.69487930E-02
 -0.23950389E-03  0.21173522E-02  0.51591003E-03
 -0.26538920E-02 -0.76760518E-02 -0.79054871E-03
  0.70697563E-03  0.37582178E-02  0.47863314E-02
 -0.36657937E-02 -0.77599192E-02 -0.10276884E-02
 -0.39854117E-02 -0.57621426E-03 -0.58966621E-02
 -0.94784491E-02  0.16598712E-02 -0.12122310E-01
  0.17754386E-04 -0.66576589E-02  0.22144648E-02
 -0.10081976E-01 -0.23037851E-02 -0.79428168E-03
  0.36777708E-02 -0.69254440E-02  0.25133725E-02
  0.65059571E-02  0.51214706E-02 -0.73925762E-02
  0.90865235E-02 -0.31957979E-02  0.52494245E-03
 -0.51537438E-02  0.21033059E-02 -0.11076218E-01
  0.21401526E-02  0.21349430E-02 -0.68482215E-02
  0.72257920E-02  0.12983176E-02 -0.27906756E-02
 -0.32790297E-02 -0.49872241E-02  0.30818673E-02
 -0.30559391E-02 -0.62751389E-02  0.24038845E-02
 -0.50800866E-02 -0.28631798E-02 -0.10039534E-02
  0.12359990E-01  0.28732868E-02  0.74712676E-02
 -0.29368658E-02 -0.74059425E-02 -0.45301764E-02
  0.18530490E-02  0.59319342E-02  0.20266527E-02
 -0.73562535E-02  0.43323926E-02 -0.89455963E-02
 -0.34419965E-02  0.80884819E-03  0.82029657E-02
  0.36477932E-02  0.43371561E-02  0.26799961E-02
  0.47022285E-02  0.52648855E-02  0.10606197E-02
  0.81121841E-02  0.11430545E-01 -0.24114277E-02
  0.22862239E-02  0.31288999E-02  0.10076768E-01
  0.98665604E-03 -0.62993174E-02 -0.43056453E-02
 -0.88167061E-02  0.22816790E-02  0.69703418E-03
 -0.35425313E-02  0.23198146E-02 -0.78777036E-02
 -0.99624247E-03  0.24685094E-02  0.48921565E-02
  0.37818853E-02  0.16609991E-02 -0.12128844E-02
 -0.40544699E-02 -0.29611693E-02 -0.98134278E-02
 -0.34691314E-02  0.88364256E-03  0.96009410E-02
 -0.91901510E-02 -0.33501370E-02  0.46970401E-03
 -0.12843255E-01  0.45907919E-02  0.77416889E-03
  0.85996957E-02  0.15285208E-02 -0.92360369E-02
 -0.15707732E-02 -0.28101257E-03 -0.72290143E-03
  0.40155419E-02  0.21584925E-02  0.81078722E-02
 
           1
   2.00000000000000     
  0.10154023E+01 -0.27039217E-02  0.00000000E+00  0.00000000E+00
  0.27892843E+00  0.37393339E-02  0.12607730E+00
  0.50881415E+00  0.99087648E+00  0.47782168E+00
  0.73773023E+00  0.50292376E+00  0.87002315E+00
  0.74358939E+00  0.27752792E+00  0.37140546E+00
  0.22316592E+00  0.25695320E+00  0.87664640E+00
  0.27396020E+00  0.79057931E+00  0.51464423E+00
  0.72194633E+00  0.77660145E+00  0.12375278E+00
  0.26328856E+00  0.23135687E+00  0.16300837E+00
  0.26278600E+00  0.29050940E+00  0.73943269E+00
  0.68545051E+00  0.24589545E+00  0.84130807E-01
  0.68022774E+00  0.79322051E+00  0.48189378E+00
  0.50218564E+00  0.97139152E+00  0.76284140E+00
  0.46651980E+00  0.99649196E+00  0.88941293E+00
  0.53368025E+00  0.55569890E+00  0.48007898E+00
  0.74126320E+00  0.82213339E-02  0.89912868E+00
  0.77276382E+00  0.34911685E-01  0.38139783E+00
  0.98572229E+00  0.97962207E+00  0.39680873E+00
  0.21604881E+00  0.99612129E+00  0.61278899E+00
  0.26599727E+00  0.75664066E+00  0.13080135E+00
  0.47794616E-02  0.34820723E+00  0.78506989E+00
  0.52436938E+00  0.27175470E-01  0.18343605E+00
  0.20171602E+00  0.71797533E+00  0.37519895E+00
  0.45494062E+00  0.23326919E-01  0.63168475E+00
  0.48330192E+00  0.54280082E+00  0.62685103E+00
  0.27372665E+00  0.76471521E+00  0.99128424E+00
  0.74716033E+00  0.25494678E+00  0.78094038E+00
  0.70415139E+00  0.73267579E+00  0.96394958E+00
  0.95872620E+00  0.49668187E+00  0.25861257E+00
  0.15008540E-01  0.99950907E+00  0.25589922E+00
  0.49343978E+00  0.79069399E+00  0.47615730E-01
  0.49971206E+00  0.26088182E+00  0.49639747E+00
  0.22024686E+00  0.79293713E+00  0.68635176E+00
  0.22889163E+00  0.72855325E+00  0.24940850E+00
  0.48559294E+00  0.49396862E+00  0.89611718E+00
  0.99121426E+00  0.97360631E+00  0.86927568E+00
  0.25646377E+00  0.23112560E+00  0.35839016E+00
  0.72041406E+00  0.76129876E+00  0.79852955E+00
  0.48569818E+00  0.26266043E+00  0.25718342E+00
  0.71531334E-02  0.46719955E+00  0.63253691E+00
  0.47581498E+00  0.32010999E-01  0.20923753E-01
  0.78946948E+00  0.97958660E+00  0.14826135E+00
  0.51714415E+00  0.24430341E+00  0.77157943E+00
  0.23032939E+00  0.96534945E+00  0.86485482E+00
  0.43919392E-01  0.21665744E+00  0.25668575E+00
  0.50837353E+00  0.51145296E+00  0.26434310E+00
  0.39541179E-02  0.97677165E+00  0.53443333E+00
  0.26521059E-02  0.75226111E+00  0.47739477E+00
  0.73336842E+00  0.25728968E+00  0.25583118E+00
  0.97957101E+00  0.90254606E-02  0.75003360E+00
  0.46728481E+00  0.46720796E+00  0.37854053E+00
  0.19580219E+00  0.59474884E+00  0.62867746E+00
  0.50779524E+00  0.74500588E+00  0.22860882E+00
  0.28795880E-02  0.79954350E-01  0.64529125E+00
  0.97402289E+00  0.50577488E+00  0.88083179E+00
  0.79048375E+00  0.51251519E+00  0.37230362E+00
  0.76483624E+00  0.75890281E+00  0.64611321E+00
  0.22056623E+00  0.27923742E+00  0.17510068E-01
  0.24482935E+00  0.29598256E+00  0.49866275E+00
  0.47596447E+00  0.54467021E+00  0.97123259E-02
  0.21145550E+00  0.27579832E+00  0.63763843E+00
  0.96624628E+00  0.74426811E+00  0.93532096E-03
  0.75004306E+00  0.50208325E+00  0.61388430E+00
  0.47171249E+00  0.26080461E+00  0.99780918E+00
  0.50284928E+00  0.77649314E+00  0.53303541E+00
  0.35176190E-01  0.97825423E+00  0.12492433E+00
  0.21960381E+00  0.75630852E+00  0.82802256E+00
  0.48813422E+00  0.54945183E+00  0.12591029E+00
  0.76556030E+00  0.26734764E+00  0.63419002E+00
  0.72486473E+00  0.78158115E+00  0.30649036E+00
  0.74647875E-02  0.20585303E+00  0.21458469E-01
  0.96916650E+00  0.47296173E+00  0.58000453E-02
  0.96141876E+00  0.76415259E+00  0.74644690E+00
  0.22773146E+00  0.51486102E+00  0.13009703E+00
  0.70619127E+00  0.30635546E+00  0.51330684E+00
  0.75434220E+00  0.26666766E+00  0.95191676E+00
  0.48746230E+00  0.78696707E+00  0.71160946E+00
  0.95933008E+00  0.45772598E+00  0.12840891E+00
  0.51901944E+00  0.94686924E+00  0.30692375E+00
  0.46547275E-02  0.72850851E+00  0.27784203E+00
  0.96986643E+00  0.24371910E+00  0.51064173E+00
  0.25341136E+00  0.53125996E+00  0.89521363E+00
  0.28624784E+00  0.96672200E+00  0.37690932E+00
  0.23365740E-01  0.51524213E+00  0.51473814E+00
  0.11486548E-01  0.90741058E-02  0.98335081E+00
  0.71979973E+00  0.19841844E-01  0.63382903E+00
  0.75279229E+00  0.50192243E+00  0.12295445E+00
  0.49400796E+00  0.52683898E+00  0.76270596E+00
  0.18679955E+00  0.48673619E+00  0.38939919E+00
  0.24647539E+00  0.98114410E+00  0.26383858E+00
  0.73373368E+00  0.50454059E+00  0.73871954E+00
  0.24927519E+00  0.11691768E-01  0.74674308E+00
  0.74048557E+00  0.50195799E+00  0.23894056E+00
  0.24321923E+00  0.19518503E-01  0.99625243E+00
  0.75294631E+00  0.54042822E+00  0.49574576E+00
  0.23915586E+00  0.44619137E-01  0.49187688E+00
  0.73795680E+00  0.51826892E+00  0.99721590E+00
  0.74531522E+00  0.99986197E+00  0.75282858E+00
  0.24424043E+00  0.48667571E+00  0.26061764E+00
  0.22030674E+00  0.53491672E+00  0.76359184E+00
  0.76689729E+00  0.10610600E-02  0.27741406E+00
  0.27072900E+00  0.54653755E+00  0.51619022E+00
  0.73284721E+00  0.21326895E-01  0.26318973E-01
  0.75908702E+00  0.50993767E-01  0.50783693E+00
  0.22832955E+00  0.51692187E+00  0.90769987E-02
  0.54672585E-02  0.25529057E+00  0.38060702E+00
  0.47658841E+00  0.76378238E+00  0.89129277E+00
  0.50193622E+00  0.28701238E+00  0.63424144E+00
  0.61037332E-02  0.72467112E+00  0.13116196E+00
  0.96327758E+00  0.25642074E+00  0.89437074E+00
  0.48685870E+00  0.74942624E+00  0.38165732E+00
  0.48271144E-02  0.77674442E+00  0.61429341E+00
  0.48885085E+00  0.27489751E+00  0.13710692E+00
  0.13531711E+00  0.40257873E+00  0.74245486E-01
  0.64750217E+00  0.92430912E+00  0.55594201E+00
  0.62730080E+00  0.13804462E+00  0.98883486E+00
  0.14787300E+00  0.63118478E+00  0.46395717E+00
  0.33143590E+00  0.39840518E+00  0.96250759E+00
  0.86216727E+00  0.93245789E+00  0.47040588E+00
  0.86434376E+00  0.91650034E-01  0.77137487E-01
  0.33564871E+00  0.66605848E+00  0.58358279E+00
  0.84439611E+00  0.11478035E+00  0.22190950E+00
  0.32943933E+00  0.66632650E+00  0.74167576E+00
  0.87882773E+00  0.90542249E+00  0.32293872E+00
  0.30584098E+00  0.41760156E+00  0.81550963E+00
  0.12086494E+00  0.57533992E+00  0.31387809E+00
  0.62584976E+00  0.89151912E-01  0.81080249E+00
  0.14279782E+00  0.38239616E+00  0.21023217E+00
  0.64776297E+00  0.89045253E+00  0.70620250E+00
  0.85527668E+00  0.60709933E+00  0.94018148E+00
  0.35809056E+00  0.12267187E+00  0.43947202E+00
  0.83910196E+00  0.40759432E+00  0.54532851E+00
  0.34647073E+00  0.91017403E+00  0.45746967E-01
  0.15205400E+00  0.15493769E+00  0.55048889E+00
  0.63655062E+00  0.63539976E+00  0.41805306E-01
  0.14198137E+00  0.90022243E+00  0.94151079E+00
  0.64309124E+00  0.42346181E+00  0.44829058E+00