Na88 Ge16 P8 S96                        
   1.00000000000000     
    13.3422163233000006    0.0000000000000000    0.0000000000000000
     0.0000000000000000   13.3422163233000006    0.0000000000000000
     0.0000000000000000    0.0000000000000000   26.6844326466999995
   Na   Ge   P    S 
    88    16     8    96
Direct
  0.9766612440962541  0.0468465974003014  0.1260363215456869
  0.5347777805751699  0.4751492962553822  0.7312445253931292
  0.2487212572328631  0.5092392858438569  0.8669555880904819
  0.9858599901104366  0.0271767585124460  0.4815819564683076
  0.6873097256014166  0.9793088581794293  0.8778308192348903
  0.9472172007717665  0.4816751057006545  0.3572791774047961
  0.0017309203902312  0.5536398056761637  0.1126968816242963
  0.2107670226169824  0.2335456499375504  0.9967699925210909
  0.7344062993416761  0.9795732375092822  0.6203199136827003
  0.7394909168529562  0.2630610476968556  0.7400635221971654
  0.7666289489737672  0.7708410490706815  0.3810554679021771
  0.2563194945362623  0.2629103464865373  0.8785941729001921
  0.7571026654971589  0.2648246768772879  0.1280372034465045
  0.2572211780158128  0.5412239401801915  0.6202459154126944
  0.9643723766420981  0.9524546023123601  0.8770831738542477
  0.7118418730188976  0.2697439474198818  0.3766467169901241
  0.9646451570224007  0.0273424395309285  0.6253926782686556
  0.9967605359815619  0.4661098722364027  0.6202390364129992
  0.4823910513989523  0.0012237607262590  0.1141426900722894
  0.0011346920834222  0.5156982735567395  0.8789359504155864
  0.5261304226248678  0.9823997811397512  0.3748431330232531
  0.2668922612955320  0.9904696655220999  0.3706897778253147
  0.7234155138040015  0.6537256990282000  0.8816580815749115
  0.4992549062130459  0.4766677321370896  0.4969073198109183
  0.2230703647080247  0.4984673492212469  0.1224788182308467
  0.2309807488321719  0.2724632959184985  0.4995148740863550
  0.7234025007750764  0.5088248083961866  0.1143159801576620
  0.7506060041051488  0.2135282393735387  0.6270912649011610
  0.4592547381190395  0.7265875063944163  0.5017465250982125
  0.7656532962645565  0.7854041966084704  0.9984429444540780
  0.0057363855115276  0.2487639637316904  0.5161287355627520
  0.2015908000500159  0.7498319855535093  0.7048338117695713
  0.0171863615655248  0.7492142288557592  0.2521976886820160
  0.4801578126571120  0.2504392471396030  0.7534947885137192
  0.0006263972632428  0.0273065352330513  0.9876441691345453
  0.4986140324362107  0.2152722214826532  0.4922183627990653
  0.4878159140036558  0.5128736381411170  0.9902659026362934
  0.7195644526087185  0.2529655453415321  0.2431422650049410
  0.7109177522468826  0.7680482000744749  0.7547758444288907
  0.3690423284713459  0.7529365229505899  0.2611535791871071
  0.9935527835938606  0.9813875007708891  0.2470182984420881
  0.5330001640517913  0.4866278422634235  0.8520072295441846
  0.4274089704207862  0.7607555100172748  0.7540348858042296
  0.9593542775254265  0.5092609435049851  0.2379139163940968
  0.4511490090765553  0.2543857934504556  0.9816121722845011
  0.7421264621675967  0.7181402251739721  0.4988080925637495
  0.2258581034961523  0.7693581924352761  0.5195464705540362
  0.7052192854400345  0.2948756199994769  0.9953345224664250
  0.9664743180285089  0.9931766526242102  0.7528683467583897
  0.6743097542478099  0.5309814172618181  0.3630044193621756
  0.0098953958519953  0.4758971608699673  0.7485309115128260
  0.5034619202888028  0.9882725113024575  0.2508562537784784
  0.2212916746526456  0.2506958767955650  0.3647212213585508
  0.9929350902922771  0.7754343488007818  0.9872711797722535
  0.7604087813239775  0.5045751605335725  0.6256849464620106
  0.3563395908444184  0.7371927570489885  0.9819610333683773
  0.9576391525325625  0.2859162367506602  0.0062260786166063
  0.4725341412612449  0.4651373775856608  0.3823347215650321
  0.4349147069547048  0.4819218963986816  0.2610882937955734
  0.9857994678649685  0.5275630632462180  0.5046097063345077
  0.4778308718466060  0.0125801081423475  0.7638739811719140
  0.0017411436179150  0.7447652498038010  0.4938035611317064
  0.0095349495472059  0.4915682185272666  0.9914266596595257
  0.5004139461370729  0.9681041660689335  0.4952611205967780
  0.4239425020804812  0.2510145983702305  0.2442996765045172
  0.7344151755086081  0.7649788546193551  0.1183215801960955
  0.2543543735998614  0.7424712947069559  0.1229267157926850
  0.1553208560712041  0.2525239780186073  0.7547548646448812
  0.6966011654775501  0.7396273553130446  0.2489357756950826
  0.2465245609085643  0.2944437450997764  0.6239286849959336
  0.0432666451901738  0.2301815880102316  0.2645521953134918
  0.9738495780802265  0.7211162878083220  0.7585053277689373
  0.2380395449163485  0.2628801704558808  0.1245969368634990
  0.4493958912887304  0.9983685955469236  0.6356578652905962
  0.7121793734206048  0.2322522484503528  0.8631529211141021
  0.2149160611678124  0.4920006882386859  0.3651056760011360
  0.2336896367597213  0.7477742494328362  0.8740666046445078
  0.7799449405957303  0.0193527285461907  0.3812551339177303
  0.7485152640215070  0.0281777834687424  0.1311509665069301
  0.5033066932677419  0.5071465176647746  0.6270540531583061
  0.4974466451874212  0.9692156239297813  0.9825399487245757
  0.1961916561065397  0.7231040041262260  0.3602639530661934
  0.7441133158867101  0.7386428393188859  0.6170447209607477
  0.2309109574156740  0.0080001496165181  0.1264350226405266
  0.2008608833811449  0.9667325899601878  0.6265427651903787
  0.4924659234321353  0.5148781862215821  0.1110315657767502
  0.2285438550995084  0.0045760468367423  0.8624809666753519
  0.7082371098905776  0.2162696728714908  0.5057547841563119
  0.2618422826257081  0.0021345060832331  0.2443999310881132
  0.7571300746776902  0.5012977379650909  0.7442103488224768
  0.2152931556813925  0.9943408046013836  0.7541015928335982
  0.7072401017761305  0.4893095614612555  0.2508921891416887
  0.2248424002637624  0.9792151543933221  0.9957334513730755
  0.7467557858635753  0.4752329689543090  0.4983155536882536
  0.2405931337928366  0.0199582116032728  0.5082602863850240
  0.7420481395524825  0.5242266148419453  0.9973360205713334
  0.7074734838784493  0.0009737729286383  0.7447424066478672
  0.2107518080196291  0.4976930706247860  0.2483872730676792
  0.2629798215036688  0.5092241668723567  0.7446698245996872
  0.7559083404953920  0.9817067394748675  0.2557666617554651
  0.2358885885138281  0.5123326885188081  0.4940394731951266
  0.7225253028645552  0.0414759025950101  0.9991285236878409
  0.7336777887266651  0.9776057908203892  0.4966127155710849
  0.2379412013986936  0.4991810257514488  0.9895082307602365
  0.9717548192897704  0.2378636242872080  0.3843937851731567
  0.5073320186912502  0.7671833901313296  0.8766589682508397
  0.4890874872702797  0.2659497222271565  0.6187389490299108
  0.9846988388501899  0.7858339121493144  0.1235925052581165
  0.9746450921117792  0.2632557851763488  0.8714706109433764
  0.4753404759598496  0.7261640085520830  0.3750838707031552
  0.9780482397691951  0.7406202769508803  0.6260456454411157
  0.4714413738364077  0.2728940941075954  0.1194901846347612
  0.1490427510367532  0.3959318640782085  0.0418928353688119
  0.6618168340856341  0.8759152546622456  0.5493747468768211
  0.6346394601591636  0.1394296052603134  0.9394270401840070
  0.1357693832146435  0.6088369844926129  0.4516747075616846
  0.3286175848506319  0.4002004497073499  0.9416961979787979
  0.8399081527824105  0.8872827244385518  0.4528899575423179
  0.8374771544624399  0.1515101064411701  0.0507878737630133
  0.3472386582835363  0.5908367827014699  0.5402516130587116
  0.8425635106974492  0.1155544525246522  0.2144241455946585
  0.3653881537144721  0.5959973560655416  0.6927599901852751
  0.8605399980992422  0.8849706718953686  0.3030719751486541
  0.3553068469855065  0.3980643985265293  0.7958145419626946
  0.0998950531256394  0.5733621695058694  0.3015481072465535
  0.6274771133794880  0.1135041307733854  0.7906366096118959
  0.1151883961137996  0.3983288805291758  0.2007340337630925
  0.6060254024232241  0.9001806014802297  0.7022639739193994
  0.8680095537103842  0.6143743967087973  0.9556617256668448
  0.3385275662417372  0.1065860834746653  0.4564765999005584
  0.8543884803275232  0.3838244550420143  0.5486830125767461
  0.3062082232571307  0.8901783934194308  0.0518392867851247
  0.1595752881622121  0.1247494407206423  0.5583632793788541
  0.6646305458813566  0.6312691292001112  0.0495654362527589
  0.1450296744493771  0.8901767905124179  0.9394643427122392
  0.6422103489124432  0.3856523715012595  0.4486839960467838
  0.6053934995566751  0.3875478328767509  0.2977249671147709
  0.1199831043913500  0.8838743716534914  0.8039238575145622
  0.1136308222824576  0.0769464229941857  0.6977386229679825
  0.6214835343868532  0.5793045902777848  0.1993965180832475
  0.8568542838781271  0.3942693331279217  0.6996515194464369
  0.3502356411624919  0.8865096603989890  0.1915282921131897
  0.3603991195830825  0.0776739083437957  0.2917409759853368
  0.8508971263873660  0.5930003137219575  0.7961393553321102
  0.1396059385780180  0.0769951014031571  0.0493906081428392
  0.6521085068764670  0.5623570553422574  0.5482564722756212
  0.6400631307308234  0.4511799455110312  0.9393561056596258
  0.1472017148062199  0.9122088999010790  0.4620389209519406
  0.3297852725473366  0.0691606990121682  0.9431970815871460
  0.8332057961614637  0.5821832336246651  0.4459052141189013
  0.8486111196230414  0.4290045757128681  0.0402168157449790
  0.3555217066263479  0.9190168377251993  0.5575673640344305
  0.1612080853722064  0.1091519411734087  0.2060661241797382
  0.6714247904786375  0.6054514005502095  0.6982916090941093
  0.1855028658933842  0.8866586695575498  0.2957394412115979
  0.6638629173745483  0.4026621521419597  0.7898129130632096
  0.8026379991145418  0.5944894751625338  0.2949788551813118
  0.2905611771149308  0.1231031951246316  0.7886954464524336
  0.8123054496595754  0.3958491264750332  0.2048541826405583
  0.3367583341006673  0.9108114947539337  0.7105013086847378
  0.8271105114192540  0.9470450516202951  0.9579074823948788
  0.3210280257542593  0.3984158331328515  0.4497506187554648
  0.8274347046017831  0.0729714582789848  0.5497543790010981
  0.3517719769513663  0.5830928755521042  0.0486293533193513
  0.1430845171087767  0.4183040181529553  0.5484903609169616
  0.6543514630141387  0.9318331596769547  0.0574098143541019
  0.1525773875542499  0.6127659337545402  0.9487811374601542
  0.6466610188497087  0.0797687397149987  0.4456572817624614
  0.3001801230786612  0.3743606892414322  0.2913295351599390
  0.8085657697912247  0.9212233667448572  0.8054996181133424
  0.8217683717705195  0.0860985298153704  0.6988098750607925
  0.2855352419807102  0.5967694130791951  0.1992694231373198
  0.1631147938464088  0.4199845327175684  0.6965896656431806
  0.6651244885415141  0.9046619379119820  0.1962431534593783
  0.6613716136774324  0.0674911470021555  0.3047802408937119
  0.1791173153154282  0.6106295461012055  0.7919828307010729
  0.0648559782251870  0.1214319055798595  0.3630164317401871
  0.5835202882623083  0.6983521661348358  0.8170189901622597
  0.5942275416195951  0.3345470676912528  0.6669845260007126
  0.0891059477678683  0.8528370045860305  0.1720901282409953
  0.3910896501418098  0.1829387603358845  0.6593163941131220
  0.9087078351637093  0.6904821712432463  0.1673607497284214
  0.8860966301668719  0.3007058985811137  0.3210772479822130
  0.4137411634820603  0.8714604142350958  0.8499025045379388
  0.0759702789259163  0.1625618892708968  0.9162742707622571
  0.5715428465653367  0.6625776098758619  0.4237336864566426
  0.0695220005921341  0.8298493600580138  0.5882802843341178
  0.5721783431783533  0.3375549003335153  0.0671449590324116
  0.9011294849739260  0.6458365947257453  0.5773903223405186
  0.3994926820561377  0.1729384277139039  0.0761772578879970
  0.8986921926922791  0.3602195309950863  0.9133303913954938
  0.3926955130080538  0.8289095897148665  0.4136135537580075
  0.8772894631209160  0.8242772495736452  0.6728096324369895
  0.3937038177791604  0.3692270387843093  0.1619601290582095
  0.8854931872847691  0.1813973510613223  0.8243296607754308
  0.3919932559939047  0.6178185801552190  0.3382750731687232
  0.0867876741402003  0.3478693858795325  0.8321522142291874
  0.5591082705801753  0.8008140897545150  0.3196677902140850
  0.0625157004249521  0.6511832047376988  0.6697475675511325
  0.5566943886608611  0.1924977828352915  0.1663747874592792
  0.4091693317425684  0.3704155237415095  0.5792205379808973
  0.8914653642767885  0.8739927800377566  0.0768533159740545
  0.8726394486488952  0.1956036546265222  0.4405579736138196
  0.4265563484078161  0.6468551554946808  0.9041788081846098
  0.0567780078202269  0.3549779773374098  0.4071343329717383
  0.5981661625653933  0.8017863313649700  0.9318249963677903
  0.5848588991684995  0.1628231830235343  0.5797790921546431
  0.0750506449125859  0.7133752018965116  0.0765752922919606
 
  0.82376286E-03 -0.68096719E-02 -0.86819906E-02
 -0.16771220E-02  0.67124810E-02  0.52564948E-02
  0.10379637E-01  0.35890899E-02  0.16014894E-02
  0.21948958E-02  0.90431205E-02 -0.51432397E-02
  0.55301632E-02 -0.99484496E-02  0.66200814E-02
 -0.24846416E-02  0.47600353E-02  0.14213039E-02
  0.62883130E-02  0.34987916E-02 -0.61456188E-02
  0.48122577E-02 -0.33760792E-02 -0.14818255E-02
 -0.84835416E-02 -0.34862070E-02  0.53297881E-03
 -0.58481353E-02  0.18343831E-02  0.71783947E-02
 -0.50610889E-02  0.35672034E-02  0.14720357E-02
 -0.17068462E-02  0.89246055E-03  0.34886948E-02
  0.46754343E-02  0.42180980E-02 -0.31761815E-02
  0.41414339E-04  0.73958278E-02 -0.47549123E-02
  0.38274282E-02  0.33934241E-02 -0.29559251E-02
  0.11465578E-02 -0.74857087E-02 -0.26614780E-02
 -0.39288370E-02 -0.36818902E-03 -0.20124889E-02
 -0.22326244E-02  0.49201823E-02 -0.12993491E-01
  0.11545464E-02  0.27201889E-02 -0.95883883E-02
 -0.44460743E-02 -0.20337889E-02 -0.93316020E-03
 -0.28560125E-03  0.28300230E-02 -0.50326285E-02
 -0.17019916E-02 -0.51547565E-02  0.10152771E-02
  0.78982585E-02 -0.26123390E-02 -0.51820702E-02
 -0.10184004E-01  0.30984796E-02 -0.98427825E-02
  0.27982423E-02 -0.97406966E-03  0.11941725E-02
  0.75611254E-02 -0.25648142E-02 -0.43281080E-02
 -0.70956908E-02 -0.51260912E-02  0.38494032E-02
 -0.49492716E-02 -0.62400137E-03 -0.58260158E-02
 -0.14726196E-02  0.60417191E-02  0.11539404E-02
 -0.37027915E-03  0.17872038E-02 -0.32831863E-02
  0.47875494E-02 -0.17447244E-03  0.12296253E-01
  0.47793923E-02  0.51483902E-02 -0.51276277E-02
 -0.36286083E-03  0.33659615E-02  0.53872797E-03
  0.10798000E-02  0.69783448E-02  0.62595642E-03
  0.63960615E-02  0.62314698E-02  0.16545637E-02
 -0.69395816E-02 -0.50073052E-02 -0.20167192E-02
 -0.25372849E-03 -0.21861786E-02  0.47616747E-02
 -0.27932468E-02 -0.21897977E-02 -0.23343876E-02
 -0.84839842E-02 -0.29111558E-02  0.96011746E-02
  0.64727895E-02  0.32671825E-02  0.45319016E-02
 -0.25526074E-02  0.10639982E-02  0.43693262E-02
  0.87921165E-02 -0.13253726E-02  0.58406871E-02
 -0.27065356E-03 -0.74368170E-02 -0.45580185E-02
 -0.38671811E-02  0.47352475E-04  0.23356795E-02
 -0.16450245E-02  0.47535555E-03  0.72528669E-02
 -0.23276304E-02  0.27390376E-02  0.23588905E-03
  0.32616560E-02 -0.13523692E-01  0.40262440E-02
  0.63188505E-02  0.93454288E-03  0.46616500E-02
 -0.32351683E-02  0.43111788E-02  0.24050753E-02
  0.40468295E-02 -0.94850003E-02  0.12473018E-02
  0.15206616E-02 -0.64517826E-02  0.58160863E-02
 -0.39378344E-02  0.29126214E-02  0.55191307E-02
 -0.28107483E-02  0.21228587E-02  0.21474486E-02
  0.34839567E-03  0.17615803E-02  0.49604423E-02
  0.68732929E-03 -0.27781716E-02  0.29683990E-02
 -0.46921801E-03  0.59478185E-02 -0.29582377E-02
  0.31020215E-02  0.17157562E-02  0.59296250E-02
 -0.43906543E-02  0.92717938E-02  0.20325263E-02
  0.36035522E-02  0.66104776E-02 -0.35300217E-02
 -0.82289275E-02 -0.25490163E-02  0.12445507E-02
 -0.12223514E-01 -0.11644200E-02  0.79253204E-03
 -0.46043635E-03 -0.10584593E-01  0.87542410E-03
  0.60861042E-03 -0.62932764E-02  0.10172602E-02
  0.46987818E-02 -0.30723508E-02 -0.36651491E-02
 -0.63205845E-02  0.54994220E-02 -0.23411902E-02
  0.11079658E-03  0.19049469E-02 -0.14621573E-01
 -0.12537568E-02  0.69816066E-02  0.27209278E-02
  0.87988702E-02 -0.10298612E-02 -0.25796090E-02
  0.25338891E-02 -0.43798489E-02  0.35365321E-02
  0.19503538E-02  0.13342727E-02 -0.74012639E-02
  0.60469463E-03  0.53701555E-02 -0.13461984E-02
  0.62398347E-03  0.21771512E-02  0.34720052E-02
  0.82836203E-02  0.40669423E-02  0.36571646E-02
  0.23128682E-02  0.22523416E-02  0.44005191E-04
 -0.39141699E-02  0.86006815E-02 -0.42832959E-03
 -0.13796622E-02  0.62727146E-02 -0.63534727E-03
 -0.23010069E-02  0.45000535E-02 -0.23418639E-02
  0.32392990E-02  0.14931509E-02  0.17905973E-02
  0.42490038E-02 -0.95598552E-03 -0.69969724E-03
 -0.12936896E-01  0.46105172E-02 -0.40125970E-02
 -0.17982346E-02  0.35221651E-02  0.87341569E-02
  0.60104135E-02 -0.20028087E-02 -0.27962171E-02
  0.17695609E-02  0.17177532E-04  0.33963178E-02
  0.42350668E-02 -0.65879797E-03 -0.61779629E-02
  0.29368974E-02 -0.85750414E-02  0.65640452E-02
  0.40362523E-02  0.79697887E-02  0.78599353E-02
 -0.10764185E-02 -0.81247498E-02  0.81516472E-03
  0.16953754E-02 -0.20850286E-02  0.59612489E-02
  0.30447555E-02 -0.56873580E-03  0.18963713E-02
 -0.36054004E-02 -0.74428304E-03 -0.98637515E-03
 -0.12643035E-02  0.12724039E-02  0.13144702E-02
 -0.38657751E-03 -0.43540792E-02  0.55088077E-02
 -0.49803077E-03 -0.43387735E-04  0.23428592E-02
 -0.73787851E-03 -0.59657834E-03 -0.32350607E-02
  0.55483516E-02 -0.66571477E-02  0.50316581E-02
 -0.56534510E-02 -0.72214504E-04  0.16800915E-03
  0.21358370E-02  0.14845026E-02  0.30332752E-02
  0.33785976E-02  0.90475355E-03  0.11611705E-02
  0.19587775E-02  0.75313850E-03 -0.24214366E-02
  0.14962052E-02 -0.14623729E-02  0.66023473E-03
 -0.25309338E-03  0.25938615E-02 -0.55067431E-03
  0.30912735E-02 -0.51460116E-02  0.74665275E-04
 -0.42477434E-02 -0.33440513E-02 -0.10667898E-02
  0.46104584E-03 -0.11150797E-02 -0.34981680E-02
 -0.73240421E-03 -0.46349328E-02 -0.21481123E-02
 -0.34328461E-02  0.46875427E-03 -0.50791844E-03
 -0.44277376E-02  0.19589315E-02 -0.14312483E-02
  0.23019280E-03  0.24626732E-02  0.47170182E-02
  0.39961791E-02  0.26102374E-02 -0.32136945E-02
  0.24939802E-02  0.24754514E-02 -0.36998613E-02
 -0.31986094E-02 -0.15731987E-02  0.17916529E-02
  0.60345894E-03  0.23066131E-02 -0.36610886E-02
 -0.14947135E-02 -0.27600844E-02 -0.95980523E-03
 -0.23753190E-02 -0.77215193E-02 -0.22344128E-02
  0.70573257E-02 -0.88133791E-03 -0.47977152E-02
 -0.85674065E-03 -0.21228461E-02  0.39041983E-02
  0.89540138E-02 -0.30204425E-02 -0.22513710E-02
 -0.27972185E-03  0.26506761E-02 -0.36350686E-02
  0.11678107E-01 -0.18119765E-02  0.23751965E-02
 -0.10358417E-02  0.94871113E-03 -0.38916414E-02
  0.63145122E-03  0.80695686E-02 -0.34198705E-02
 -0.11102017E-02  0.16354660E-02  0.89044714E-03
  0.33856691E-02 -0.57578004E-02 -0.35811675E-02
 -0.23868672E-02  0.13672377E-02 -0.29252202E-02
  0.25302523E-02  0.40289154E-02  0.39466139E-03
 -0.51402535E-03  0.65384597E-02 -0.77087332E-03
 -0.12788164E-02  0.44775849E-02 -0.29317406E-02
 -0.46347292E-02  0.33499254E-02  0.63804973E-02
 -0.13443941E-02  0.57583631E-02  0.39562434E-03
  0.17550341E-02 -0.22161991E-02  0.85369997E-03
  0.88523853E-05  0.68463827E-03  0.15450594E-02
  0.19117939E-02 -0.27015932E-02 -0.95054170E-02
  0.26514677E-02 -0.79191008E-02  0.58163433E-02
  0.19744161E-02 -0.17085541E-03 -0.67104857E-04
 -0.19256569E-02  0.65465170E-03  0.46119700E-02
 -0.44730902E-02 -0.37257107E-02 -0.11558619E-02
 -0.24096148E-02  0.51450487E-03 -0.50303751E-03
  0.16444103E-02 -0.42739086E-02 -0.52697399E-02
 -0.62982194E-02  0.10303499E-03 -0.17861432E-03
  0.25704167E-02 -0.93529290E-03 -0.10179736E-02
  0.20711679E-03  0.28803457E-02 -0.23610587E-02
 -0.50828849E-02 -0.37619751E-02 -0.41275885E-02
  0.39231068E-02 -0.52009066E-02  0.28774223E-02
  0.69922739E-03 -0.39003148E-02 -0.75260440E-03
 -0.24721870E-02 -0.30448321E-02  0.31132685E-02
  0.19961337E-03 -0.26244319E-02  0.25837755E-02
 -0.27640184E-03 -0.38796792E-02  0.13574989E-02
 -0.47517978E-02  0.16885562E-02  0.33683094E-02
  0.60421108E-02 -0.91295677E-02  0.42049182E-02
 -0.26981797E-02 -0.95416440E-03 -0.10009328E-02
 -0.15443647E-03  0.26346376E-02  0.21242848E-02
  0.36296757E-02  0.19110960E-02 -0.22056923E-02
 -0.51759647E-02 -0.32398327E-02  0.33277997E-02
 -0.24701330E-02  0.43000488E-03 -0.26739758E-02
  0.55509721E-02  0.30142439E-02  0.18741288E-02
 -0.21247445E-02 -0.85469949E-03  0.21987926E-02
  0.38477177E-02  0.68197084E-03  0.12258220E-02
 -0.70420074E-02  0.16175197E-02 -0.32689977E-02
 -0.12865634E-02 -0.59600894E-02  0.69293994E-03
 -0.50958007E-02  0.20888702E-02  0.58695790E-02
  0.18003997E-02  0.23280557E-02 -0.76241793E-02
  0.29641330E-03  0.44981887E-02 -0.56605520E-02
 -0.28020690E-02 -0.17189978E-02 -0.24012467E-03
 -0.49962683E-03  0.36101439E-02 -0.17975423E-02
  0.10685221E-01  0.83088411E-03  0.33347344E-02
 -0.17490484E-02 -0.45522319E-02 -0.41699945E-02
 -0.43660461E-02 -0.18864412E-02  0.61802874E-03
 -0.36458172E-02  0.20933492E-03 -0.29530604E-02
  0.15673206E-02 -0.13223337E-02  0.42385141E-02
  0.44037003E-02  0.34128432E-02 -0.55555585E-02
  0.95220566E-03 -0.14188851E-02 -0.37370140E-02
 -0.44546255E-02  0.12777289E-01  0.68863146E-03
  0.21146865E-02 -0.66346982E-02  0.24252696E-02
 -0.24526761E-02 -0.69789328E-03  0.41173639E-02
  0.62785060E-02 -0.11921439E-02  0.12286743E-02
  0.53221389E-02  0.21394656E-02  0.29307616E-02
  0.51445401E-03 -0.51436157E-02  0.70858041E-03
  0.62573131E-03  0.34333285E-02 -0.13672774E-02
  0.30811025E-04 -0.17293152E-02  0.48296724E-03
 -0.48913919E-02  0.59207108E-02  0.59125780E-03
  0.99904011E-03 -0.18544455E-02 -0.15706781E-02
  0.70039465E-03 -0.16268431E-02  0.42572131E-02
 -0.44526962E-02 -0.66943567E-04  0.40399061E-02
 -0.79394427E-02  0.40336460E-02 -0.14674745E-02
  0.27319594E-02 -0.79319338E-02 -0.10076132E-02
 -0.29108001E-02 -0.98919719E-03 -0.30557813E-02
 -0.39577214E-02 -0.10057528E-02  0.36530206E-02
 -0.10094354E-02  0.61783001E-02 -0.77962143E-02
  0.14975511E-02 -0.59422530E-03  0.13636506E-02
 -0.47726526E-02  0.22317159E-03 -0.77306991E-03
 -0.88445640E-03  0.31552266E-02 -0.27414981E-02
 -0.10833723E-02 -0.54773918E-02  0.34519780E-02
  0.17518387E-02  0.53192390E-02 -0.13604861E-02
  0.23299050E-03  0.39388105E-02 -0.89612128E-02
 -0.38415056E-02 -0.21688839E-02 -0.70731348E-03
 -0.53263403E-02  0.33694069E-02 -0.38014304E-02
  0.57381188E-02 -0.21605385E-03  0.24067651E-02
 -0.39929075E-02 -0.21907741E-02 -0.16179737E-02
  0.41099519E-03  0.33569499E-02 -0.75505947E-02
 -0.27358855E-02  0.68823538E-02  0.28176680E-02
  0.21682747E-02  0.19571689E-02  0.10191552E-02
 -0.14761038E-02  0.61531408E-02 -0.88514452E-03
  0.24453137E-02  0.33675765E-02 -0.16780436E-02
  0.12707716E-02 -0.33388559E-02 -0.36369060E-02
  0.78022892E-02 -0.16967334E-02  0.70184057E-02
 -0.56032366E-02  0.11552152E-02  0.36721033E-03
 -0.39107739E-02 -0.35479984E-02  0.14899485E-02
  0.15351753E-03  0.12600827E-02  0.45538452E-02
 
           1
   2.00000000000000     
  0.11104944E+01 -0.19803015E-02  0.00000000E+00  0.00000000E+00
  0.97678473E+00  0.45825827E-01  0.12538561E+00
  0.53452638E+00  0.47615550E+00  0.73163850E+00
  0.25027717E+00  0.50977729E+00  0.86707562E+00
  0.98618901E+00  0.28532323E-01  0.48119647E+00
  0.68813870E+00  0.97781758E+00  0.87832699E+00
  0.94684475E+00  0.48238864E+00  0.35738570E+00
  0.26735393E-02  0.55416428E+00  0.11223627E+00
  0.21148838E+00  0.23303958E+00  0.99665893E+00
  0.73313462E+00  0.97905065E+00  0.62035986E+00
  0.73861428E+00  0.26333602E+00  0.74060154E+00
  0.76587029E+00  0.77137577E+00  0.38116580E+00
  0.25606364E+00  0.26304413E+00  0.87885565E+00
  0.75780351E+00  0.26545697E+00  0.12779915E+00
  0.25722739E+00  0.54233258E+00  0.61988953E+00
  0.96494611E+00  0.95296328E+00  0.87686163E+00
  0.71201374E+00  0.26862184E+00  0.37644724E+00
  0.96405622E+00  0.27287248E-01  0.62524184E+00
  0.99642587E+00  0.46684741E+00  0.61926517E+00
  0.48256412E+00  0.16315174E-02  0.11342404E+00
  0.46822496E-03  0.51539341E+00  0.87886601E+00
  0.52608761E+00  0.98282400E+00  0.37446594E+00
  0.26663713E+00  0.98969697E+00  0.37076587E+00
  0.72459946E+00  0.65333411E+00  0.88126969E+00
  0.49772832E+00  0.47713219E+00  0.49616960E+00
  0.22348982E+00  0.49832134E+00  0.12256832E+00
  0.23211416E+00  0.27207883E+00  0.49919048E+00
  0.72233886E+00  0.50805641E+00  0.11460449E+00
  0.74986411E+00  0.21343470E+00  0.62665460E+00
  0.45903399E+00  0.72749316E+00  0.50183301E+00
  0.76559779E+00  0.78567210E+00  0.99819687E+00
  0.64540398E-02  0.24873781E+00  0.51705034E+00
  0.20230723E+00  0.75060373E+00  0.70444950E+00
  0.17131969E-01  0.74971879E+00  0.25223807E+00
  0.48031967E+00  0.25148530E+00  0.75354170E+00
  0.15851677E-02  0.28240633E-01  0.98776818E+00
  0.49757379E+00  0.21452163E+00  0.49206721E+00
  0.48777788E+00  0.51254593E+00  0.99062279E+00
  0.71914574E+00  0.25263729E+00  0.24296730E+00
  0.70964600E+00  0.76761182E+00  0.75549545E+00
  0.37001260E+00  0.75342627E+00  0.26149325E+00
  0.99317015E+00  0.98154699E+00  0.24734578E+00
  0.53431810E+00  0.48642917E+00  0.85244499E+00
  0.42736840E+00  0.75964073E+00  0.75369326E+00
  0.95877459E+00  0.50926804E+00  0.23808898E+00
  0.45090242E+00  0.25445705E+00  0.98215578E+00
  0.74177755E+00  0.71855081E+00  0.49882577E+00
  0.22634703E+00  0.76733099E+00  0.51984824E+00
  0.70616648E+00  0.29501571E+00  0.99568391E+00
  0.96598937E+00  0.99382290E+00  0.75304861E+00
  0.67491637E+00  0.52955961E+00  0.36309790E+00
  0.10123343E-01  0.47493004E+00  0.74896683E+00
  0.50287164E+00  0.98870911E+00  0.25126991E+00
  0.22087034E+00  0.25101409E+00  0.36488217E+00
  0.99298731E+00  0.77569841E+00  0.98764297E+00
  0.76051181E+00  0.50415871E+00  0.62590743E+00
  0.35626926E+00  0.73808434E+00  0.98173931E+00
  0.95810415E+00  0.28617343E+00  0.66705044E-02
  0.47187598E+00  0.46652722E+00  0.38248706E+00
  0.43545488E+00  0.48291281E+00  0.26082372E+00
  0.98456595E+00  0.52718097E+00  0.50470299E+00
  0.47599857E+00  0.12405561E-01  0.76393338E+00
  0.16721241E-02  0.74317862E+00  0.49386917E+00
  0.96261803E-02  0.49062486E+00  0.99150290E+00
  0.50111829E+00  0.96764362E+00  0.49498642E+00
  0.42299505E+00  0.25183896E+00  0.24412420E+00
  0.73443178E+00  0.76526441E+00  0.11722569E+00
  0.25416644E+00  0.74351784E+00  0.12313065E+00
  0.15663981E+00  0.25236960E+00  0.75456152E+00
  0.69698100E+00  0.73897082E+00  0.24920084E+00
  0.24681692E+00  0.29464375E+00  0.62337396E+00
  0.43357289E-01  0.23098658E+00  0.26445130E+00
  0.97394311E+00  0.72144264E+00  0.75876555E+00
  0.23928126E+00  0.26348981E+00  0.12487104E+00
  0.44974259E+00  0.99870622E+00  0.63566116E+00
  0.71159264E+00  0.23354149E+00  0.86312082E+00
  0.21470925E+00  0.49294097E+00  0.36505806E+00
  0.23334472E+00  0.74844881E+00  0.87389108E+00
  0.78043051E+00  0.19576552E-01  0.38138934E+00
  0.74915219E+00  0.28034481E-01  0.13109852E+00
  0.50136745E+00  0.50783763E+00  0.62675331E+00
  0.49717709E+00  0.96974360E+00  0.98319457E+00
  0.19709262E+00  0.72280378E+00  0.36005438E+00
  0.74437857E+00  0.73864541E+00  0.61729928E+00
  0.23154579E+00  0.79013957E-02  0.12597198E+00
  0.20130112E+00  0.96544719E+00  0.62703474E+00
  0.49307096E+00  0.51607286E+00  0.11162067E+00
  0.22838250E+00  0.33581458E-02  0.86254206E+00
  0.70849125E+00  0.21595713E+00  0.50620158E+00
  0.26229869E+00  0.20492525E-02  0.24454206E+00
  0.75658962E+00  0.50118617E+00  0.74413642E+00
  0.21510364E+00  0.99453154E+00  0.75420011E+00
  0.70718215E+00  0.48865688E+00  0.25130507E+00
  0.22476775E+00  0.97920865E+00  0.99590905E+00
  0.74664518E+00  0.47514354E+00  0.49807309E+00
  0.24142483E+00  0.18960304E-01  0.50863741E+00
  0.74120069E+00  0.52421579E+00  0.99734861E+00
  0.70779365E+00  0.11963001E-02  0.74496975E+00
  0.21125826E+00  0.49782869E+00  0.24847430E+00
  0.26327344E+00  0.50933706E+00  0.74448834E+00
  0.75613262E+00  0.98148753E+00  0.25581615E+00
  0.23585065E+00  0.51272151E+00  0.49399820E+00
  0.72298869E+00  0.40704515E-01  0.99913412E+00
  0.73304105E+00  0.97710452E+00  0.49653276E+00
  0.23801031E+00  0.49901388E+00  0.98924604E+00
  0.97164503E+00  0.23716885E+00  0.38423278E+00
  0.50681743E+00  0.76725366E+00  0.87662090E+00
  0.48842377E+00  0.26624337E+00  0.61863168E+00
  0.98473334E+00  0.78620307E+00  0.12394605E+00
  0.97524412E+00  0.26364706E+00  0.87122974E+00
  0.47571432E+00  0.72653508E+00  0.37480657E+00
  0.97756877E+00  0.74038445E+00  0.62617993E+00
  0.47153183E+00  0.27323986E+00  0.11921579E+00
  0.14881869E+00  0.39551813E+00  0.41820898E-01
  0.66146077E+00  0.87475780E+00  0.54920728E+00
  0.63569735E+00  0.13929749E+00  0.93906745E+00
  0.13564096E+00  0.60851877E+00  0.45196733E+00
  0.32995979E+00  0.39974768E+00  0.94152746E+00
  0.83986622E+00  0.88768006E+00  0.45261751E+00
  0.83922770E+00  0.15123849E+00  0.50965895E-01
  0.34708339E+00  0.59097899E+00  0.53995993E+00
  0.84265817E+00  0.11676408E+00  0.21416783E+00
  0.36522173E+00  0.59624251E+00  0.69282673E+00
  0.86104751E+00  0.88410758E+00  0.30280357E+00
  0.35494906E+00  0.39826935E+00  0.79559530E+00
  0.10027434E+00  0.57396610E+00  0.30157769E+00
  0.62740006E+00  0.11448425E+00  0.79057883E+00
  0.11499670E+00  0.39900007E+00  0.20051430E+00
  0.60533066E+00  0.90068276E+00  0.70274219E+00
  0.86780803E+00  0.61523758E+00  0.95569138E+00
  0.33879065E+00  0.10625387E+00  0.45654058E+00
  0.85438981E+00  0.38392708E+00  0.54879881E+00
  0.30649480E+00  0.88977342E+00  0.51126855E-01
  0.15997274E+00  0.12356237E+00  0.55879921E+00
  0.66492651E+00  0.63124352E+00  0.49560407E-01
  0.14474102E+00  0.89027492E+00  0.93981001E+00
  0.64153983E+00  0.38509389E+00  0.44859736E+00