Na88 Sn16 P8 Se96                       
   1.00000000000000     
    14.0793397336999995    0.0000000000000000    0.0000000000000000
     0.0000000000000000   14.0793397336999995    0.0000000000000000
     0.0000000000000000    0.0000000000000000   28.1586794673000007
   Na   Sn   P    Se
    88    16     8    96
Direct
  0.9900626309325833  0.0286828704029038  0.1003434951883341
  0.4773394846742442  0.4508273732069948  0.7006637929153807
  0.5004310760236479  0.4964854213984630  0.8662028932674307
  0.9750690914735691  0.9498948219829797  0.4055125391300914
  0.4904086539584708  0.0272648830096637  0.8832475870471370
  0.0195000963598613  0.4930018477149841  0.3734476623528808
  0.0263118727020170  0.4774923139929984  0.1099511769904257
  0.2312625408144021  0.2431296665335493  0.1288294873838961
  0.7456455890917290  0.7302474755420491  0.6245073149018384
  0.7201454253021229  0.2684853532321659  0.8631148544543950
  0.7443562173626829  0.7168729698986276  0.3490900020554650
  0.2682031227131793  0.2572575571365140  0.8658241534624225
  0.7367946588096905  0.2678575708118961  0.1335195493667500
  0.3136198519594536  0.7566924574316073  0.6158392246974351
  0.0106682664752160  0.9765456277949442  0.8657640614719191
  0.4802385126133280  0.4470142676100153  0.3658113692399136
  0.9691223533657710  0.0154600531202777  0.5673776148045427
  0.0140080524749369  0.5145823481838553  0.6289135887322708
  0.4671451247725095  0.0035601510735785  0.1283633358974301
  0.0112949938073271  0.4929767022089482  0.8744312474060424
  0.4950294540240268  0.0074937813642928  0.3701636419343041
  0.2762386561930870  0.2286390495863326  0.3721624233317375
  0.7580735153105559  0.7938920900544698  0.8795049366580938
  0.7344568170911532  0.1131918841550194  0.6364062515225117
  0.2646936794835087  0.7367971032429748  0.1300676760809189
  0.2631116054141454  0.2961754762744210  0.6077746047473488
  0.7309544792284007  0.7545387328360452  0.1362939596382317
  0.7412894977132735  0.2445734723515112  0.3663574963365205
  0.5306284782060656  0.7035693280144415  0.5107296279919145
  0.4786533776813020  0.2379178799988011  0.9862900834401929
  0.9963149708368727  0.7883180638872976  0.5067568416225381
  0.5470806599204568  0.7197681874099930  0.7559157160436097
  0.9500022746352779  0.7079140126535383  0.2424409826694187
  0.7768309187300546  0.2450924499482044  0.7483023212970192
  0.9775910024674891  0.7738454981843911  0.0023510771890501
  0.5603909697974681  0.2783492749765341  0.5145484247360778
  0.4691733354457090  0.7423263947145898  0.9957313510023531
  0.4836234464447431  0.2575174922819808  0.2549670578052265
  0.2780809804900344  0.7430675211126294  0.7576835410440138
  0.2299318827067410  0.7227011400185170  0.2676290636665503
  0.0285658623072525  0.0223231079202592  0.2607251865367497
  0.4832481605314477  0.2662485838045971  0.7685341305923196
  0.4980690029413922  0.0017765451202161  0.7649966680659352
  0.9823989483986038  0.4975388183405944  0.2249657880136070
  0.2548256702215733  0.2134783793235487  0.9916877700627128
  0.7673976150990093  0.7109118373780364  0.5065228390941005
  0.2838889261353129  0.7710981894870607  0.5015858568681519
  0.7135607154640639  0.2753661905088765  0.0120250632632191
  0.0139084878263213  0.9856383574899710  0.7167829827984415
  0.4539276120609781  0.4907075245031631  0.2463350701165206
  0.0058222880610802  0.5170165351760078  0.7506331549236459
  0.5268575440200098  0.0065625719263894  0.2540442795782729
  0.2545070875015422  0.2533666241205321  0.4988518444599997
  0.7339289458892471  0.7799643328150172  0.0048607122549622
  0.8295803000433166  0.2420509258119649  0.4883661668874770
  0.2158228526904667  0.7270575930279474  0.9967061637197057
  0.9755842012922737  0.2190953507392036  0.9914352352135829
  0.5164621189925818  0.4943528946185908  0.4938953302879815
  0.4613093904069887  0.5148944798928120  0.9814786255593285
  0.0433377217968723  0.2794465658937760  0.5148269548387759
  0.5052522488853025  0.9981273956788704  0.0019257107734727
  0.9990259618657698  0.5208173912178687  0.5182423688223100
  0.9642572998333168  0.4821707269486827  0.9887951333573963
  0.5057227008847139  0.9942140415744705  0.5173089773019651
  0.0483573233740692  0.2212109557673648  0.2422025264298810
  0.8746869557952978  0.7295966936782303  0.7333398216334984
  0.2788240289216194  0.8003523802501195  0.3882640522289803
  0.0107091569751266  0.2636084172851492  0.7498833999873422
  0.5004521245967974  0.7364224625923610  0.2319758676774617
  0.2533051913618475  0.2657288327596116  0.7449530314736137
  0.7505257957706261  0.2543885952110231  0.2447209847541537
  0.2205814848988008  0.7571150759053065  0.8757431441761965
  0.4564451303733950  0.5313859490600106  0.1221352359317370
  0.5119055091078385  0.9689479807219247  0.6362427075194038
  0.7169766682732917  0.0007530160495994  0.8804969365184185
  0.2815077539200871  0.5424284833901816  0.3520444053509676
  0.2621940355127005  0.4723994895437720  0.8671801219820914
  0.7069918981269946  0.9451012530553500  0.3684967439318694
  0.7804329107668799  0.0098399747324050  0.1280028805370271
  0.2756103789263162  0.5253581326626980  0.6250542141227277
  0.7554896301005741  0.4990696599527974  0.8770214169194840
  0.2338472085019661  0.0124276844896427  0.3779928524041732
  0.7504213713471851  0.4285102623363315  0.6282753167098327
  0.2222584567757065  0.9658113069734316  0.1453168393849817
  0.2128509866013520  0.0180180283312403  0.6330932351414962
  0.7017139131815898  0.5193268534873301  0.1287092843448138
  0.2211547685152760  0.0242696871091982  0.8860663883491396
  0.7132794175116755  0.4745721413335440  0.3674306308712158
  0.2782281785366724  0.9985395049440714  0.2606578800815481
  0.7494835246406937  0.5159398721880918  0.7422521019342500
  0.2441780977714257  0.0287353155428687  0.7508533997574286
  0.7209690114447606  0.4887145032369172  0.2467988541121969
  0.2498978176301668  0.9782588927209840  0.0129288729536389
  0.7688985872316287  0.4659634929670145  0.5014053465647279
  0.2391366092916889  0.0116730138998985  0.5041101278355657
  0.7290644733401955  0.5293932684893475  0.0029109704409120
  0.7495866418618755  0.9719502217077379  0.7525122407222442
  0.2246825824637107  0.4771802655643050  0.2312694504045619
  0.2485155781680486  0.5180417682630143  0.7432886024566610
  0.7688167754403296  0.9826764295009469  0.2467720346468679
  0.2549682972217728  0.5164972570005922  0.4833746151368193
  0.7664498610561339  0.0398507020912750  0.0035997367776479
  0.7200297155583990  0.9653878416251760  0.5025775738184701
  0.2265170878798277  0.5008956515314104  0.9929108074989854
  0.0218262440574052  0.2399325804509733  0.3796522055643052
  0.5069613232672244  0.7529397020274121  0.8729650836946686
  0.5036176379100046  0.2504206286637004  0.6252131343890508
  0.9927048917893591  0.7313077529860371  0.1163616473840870
  0.9915908096623149  0.2648309743456991  0.8697377897027636
  0.5058300711592305  0.7444805890236528  0.3823060877227594
  0.0065208863034471  0.7696487919743448  0.6238750810991045
  0.4928993635879876  0.2593019984898474  0.1256132740449991
  0.1412633309606223  0.3776231379577343  0.0387442781518349
  0.6319600006925449  0.8609215635363267  0.5605892592149797
  0.6350502822105519  0.1323917457580658  0.9493962759854784
  0.1596513141120469  0.6317714300685968  0.4335080480560449
  0.3431403111676464  0.3992689317143007  0.9343830751558250
  0.8374191603374403  0.8562560377630726  0.4513070375886774
  0.8705837226741138  0.1446175008483688  0.0577929523678309
  0.3706945187562587  0.6058157757313880  0.5431715868690546
  0.8774030339868621  0.0793841188779354  0.1949009809099626
  0.3974743873187638  0.6263679784083847  0.6985593579354505
  0.8568288610728833  0.8801830002027785  0.3011571204474968
  0.3575776087068623  0.4180715430958676  0.7924040942735908
  0.1306344740011878  0.5630802447857869  0.2951579730963188
  0.6464903055474818  0.1007878892048524  0.8058274074419743
  0.1258319803087534  0.3653501231284435  0.1892151283952271
  0.6594123030789193  0.8644899011765980  0.7044482096685903
  0.8443602200995942  0.6497238351953551  0.9489503092165152
  0.3459861212664738  0.0988629051757281  0.4431028566392823
  0.8766100213190882  0.3822599708727948  0.5580261788994447
  0.3680793906442917  0.8760345004568464  0.0547123304533012
  0.1436521350963527  0.1322379738585480  0.5517874962221831
  0.6327534672242541  0.6448733142815257  0.0487728139291200
  0.1277158909690560  0.9171406784725870  0.9504117291212912
  0.6700879011123511  0.3703907271554419  0.4434955424222687
  0.6009853436650844  0.3875128801604752  0.2847772783377163
  0.1503401460979345  0.9170936571298870  0.7990502113406901
  0.1423542525017938  0.1410440397657140  0.7016941572153998
  0.6180985621104298  0.5988285725295109  0.2013745258176926
  0.8775482955568445  0.4072830132608338  0.7037465835700315
  0.3706511961402003  0.8909711738740761  0.1988429161461586
  0.3779007001935545  0.1129284973899400  0.3053129528685573
  0.8491714411848849  0.5980918081841385  0.8074858769133146
  0.1672385938827438  0.0920062242016105  0.0609371411572045
  0.6560437904948320  0.5463926732594491  0.5606705127130330
  0.6362649097017151  0.4399361868356175  0.9411763313318913
  0.1496710464483526  0.9009496547554302  0.4523705197814212
  0.3489855061734018  0.0773552163022691  0.9485290703845772
  0.8400052663863068  0.5817286699375812  0.4422416819173401
  0.8161834187055599  0.4142734622761576  0.0574811239867528
  0.3275134765523254  0.9195261028663124  0.5678584471210386
  0.1685610358638139  0.0907595128624225  0.2007241456893421
  0.6461767862902577  0.6102910269190902  0.6865763999058790
  0.1779765106498297  0.8895193320883943  0.3105893026935191
  0.6332021523175284  0.4121824990926857  0.7924102609062538
  0.8414191867150458  0.5595706001604560  0.3036990412860608
  0.3491633834491453  0.1196186152597906  0.8122046593057008
  0.8429789342492651  0.3853003103557504  0.1933428718143138
  0.3450209203492261  0.9213865965983670  0.7031972436982513
  0.8537251845848398  0.9165870152014225  0.9548596668233855
  0.3692434237816399  0.4022718115635402  0.4472563184908954
  0.8167314984214766  0.0890930645097043  0.5428541236696562
  0.3286858772599652  0.5958861155029582  0.0440767521774153
  0.1765436099156548  0.4306835579761770  0.5503059042478108
  0.6726021178361306  0.9517578623612605  0.0671814480927524
  0.1210409812240681  0.6071923783534807  0.9431101767107766
  0.6251209785925911  0.0753194784153087  0.4490100398902764
  0.3107120356677741  0.3795457900957510  0.2992408410959664
  0.8578913856906047  0.8877626405183202  0.8077104532792607
  0.8518096345148781  0.0927297152250421  0.7077860268155762
  0.3144984906652461  0.6199843924388352  0.2019748124073902
  0.1602337007485299  0.4032067341785386  0.6817521934778368
  0.6569415330923338  0.8843737371339594  0.1999997152808228
  0.6804730326348004  0.1058884137679139  0.2981717454042110
  0.1709330411111570  0.6218724686724524  0.8031329907199870
  0.1125863723141944  0.1520931347363218  0.3311734487261190
  0.6169090676730703  0.6618165842701508  0.8405318984319103
  0.6151189597243882  0.3063230736557025  0.6721566245194649
  0.0839682245456508  0.7935890122387752  0.1729386672546295
  0.4148414677620976  0.1857381407015826  0.6797763736766751
  0.9113775780472022  0.6123907895523161  0.1516818035594234
  0.9255364167473793  0.3167569918526983  0.3215525443375247
  0.4275406423658124  0.8391006366746887  0.8174228217254268
  0.0888668443174004  0.1713367862165870  0.9120851351946451
  0.5972344652404228  0.6333115043454136  0.4142208335877607
  0.1007480998791090  0.8568032167513926  0.5767100092870617
  0.5808502897337782  0.3464379737908143  0.0781365197528094
  0.9164407356887597  0.6611192918749630  0.5871091987036866
  0.4122805625039485  0.1645926687801983  0.0735064586508066
  0.9044680796496408  0.3276881082111853  0.9240012185667138
  0.4417572299670625  0.8272028966268105  0.4390364941408053
  0.8794966998807980  0.8562521488071807  0.6498692244990546
  0.3996251286949994  0.3418320305028047  0.1686274562365640
  0.8837673426676890  0.1760419905173383  0.8348363904933989
  0.3968703607192649  0.6778908385412482  0.3390156959209430
  0.0764352799715214  0.3586741629740610  0.8209610964358355
  0.5868442960846307  0.8273822955714507  0.3226051847295976
  0.0984075534788238  0.6776556926187641  0.6702234446413217
  0.5714080159329608  0.1773712911925452  0.1815904559469468
  0.4488418951444206  0.3717090916944967  0.5866720656184791
  0.8811720129870850  0.8323598561326464  0.0840905209987407
  0.9428998405465122  0.1485976856027016  0.4289712036050667
  0.4036496532880604  0.6630421521364173  0.9165032994453061
  0.1127843530454091  0.3433715939084750  0.4208765282874042
  0.5718643551330820  0.8607754042055015  0.9190392059316630
  0.5679890123777966  0.1440253780606225  0.5786737408488539
  0.0917498717014648  0.6577605093920103  0.0622879473302586
 
  0.93999777E-02  0.10504311E-02  0.45862752E-02
 -0.14995531E-03 -0.27827872E-03  0.17699909E-01
 -0.51977841E-02  0.40446836E-02  0.35423963E-02
  0.18920684E-01  0.45951389E-02 -0.40801031E-02
  0.17102225E-02  0.20351986E-02  0.11177385E-01
  0.49782715E-02 -0.10250828E-02  0.63447395E-02
  0.28888232E-02 -0.34001835E-02  0.11127527E-02
 -0.28276236E-02  0.47863202E-02 -0.58904382E-03
 -0.47793997E-03 -0.45603391E-02 -0.26878430E-03
 -0.90214698E-03 -0.10688138E-02 -0.76798888E-02
  0.34619263E-02 -0.43326900E-02  0.22166956E-02
 -0.25702698E-02 -0.69494416E-02 -0.53912464E-02
  0.63694590E-02 -0.42255399E-02  0.46356950E-02
 -0.19608642E-02  0.15041154E-01 -0.35661762E-02
  0.61039051E-02  0.31437480E-02 -0.51748361E-02
  0.77688273E-02 -0.58541044E-02 -0.36210031E-02
  0.18986276E-02  0.25415235E-02  0.21723192E-02
 -0.62551714E-02 -0.12227608E-01 -0.14221901E-02
  0.43468100E-02 -0.92378467E-02 -0.45237178E-02
  0.14361447E-03 -0.75352434E-02  0.51287882E-02
 -0.10216988E-01 -0.66413909E-03 -0.73689518E-02
 -0.44157313E-02  0.76471186E-02  0.80896619E-03
  0.22897343E-02  0.96376738E-03  0.13296196E-02
 -0.74123296E-02  0.90273380E-03  0.17203857E-02
 -0.67863229E-02 -0.14082330E-02 -0.15561269E-02
  0.62588558E-02  0.52688380E-02  0.15889222E-02
 -0.85034354E-02  0.66850593E-02  0.78745936E-02
 -0.37719374E-02 -0.96452417E-02 -0.43360976E-02
  0.15528699E-02  0.28586958E-02  0.21328128E-02
  0.10221304E-01  0.21135636E-02  0.22404487E-03
  0.44362768E-02 -0.30761961E-02  0.47671424E-02
 -0.39075487E-02 -0.31310361E-03 -0.15520493E-02
  0.61085329E-03 -0.34834481E-02  0.59025079E-02
 -0.95710755E-03  0.64412325E-03 -0.94500997E-03
 -0.34111808E-02 -0.56663180E-02  0.35015515E-04
 -0.76356333E-03  0.38180997E-02  0.41368984E-02
  0.49443948E-02 -0.10379996E-02 -0.40467755E-02
 -0.26794633E-02  0.14984424E-02  0.62977640E-03
  0.56378412E-02  0.60155051E-02 -0.72380132E-02
  0.18363625E-02  0.33696809E-02  0.71647031E-02
  0.29645906E-02  0.30377124E-02  0.16853969E-02
 -0.63975938E-02  0.26025302E-02 -0.11408517E-01
  0.67883493E-02 -0.49763793E-02  0.43449899E-02
 -0.63424697E-04  0.23172067E-02 -0.15157962E-02
  0.56545460E-02 -0.62219215E-02  0.13174171E-02
 -0.31693280E-02  0.11843562E-02  0.21044125E-02
 -0.86910042E-03  0.16372601E-02  0.23569323E-03
  0.86509033E-03  0.33550097E-02  0.22726339E-02
 -0.76297741E-02 -0.48667412E-03  0.73291026E-03
  0.10000277E-01 -0.69328542E-02 -0.51658047E-02
  0.13356396E-03  0.28737136E-02 -0.54118462E-02
  0.42432774E-02 -0.59791679E-02 -0.22256661E-03
 -0.30952437E-02  0.38959826E-02  0.22498438E-02
 -0.78990744E-02 -0.64639497E-02  0.28049668E-02
 -0.40066838E-02 -0.35311873E-02  0.13675397E-02
  0.33496685E-02  0.18282295E-02  0.35985453E-02
  0.10550645E-01 -0.24790146E-02  0.61022245E-02
 -0.84635956E-02  0.50387154E-02 -0.72181092E-02
 -0.28830668E-02 -0.50868384E-02  0.68638690E-02
 -0.54937121E-02  0.12600004E-02 -0.60770257E-02
  0.81843576E-02 -0.91171667E-02 -0.42615840E-02
  0.26156980E-02  0.86579438E-02 -0.10947948E-02
  0.86164626E-02 -0.25458541E-02 -0.28993499E-02
  0.14975239E-02  0.22855677E-02  0.13259508E-02
 -0.33314608E-02 -0.33465619E-02 -0.67197001E-02
  0.24968682E-02 -0.47417635E-02 -0.80871870E-02
  0.26292883E-02  0.77908753E-03 -0.27704484E-03
 -0.56219646E-02 -0.46898545E-02  0.65118089E-02
 -0.35157915E-02 -0.63232336E-03  0.31720888E-02
 -0.63817340E-02  0.29103236E-02  0.16589736E-02
  0.11098068E-01 -0.89743685E-03 -0.34662233E-02
 -0.31562722E-02  0.23382415E-02  0.67083684E-02
 -0.33338755E-03  0.22313488E-02  0.32754987E-02
  0.57059876E-02  0.19085680E-02 -0.49431095E-03
  0.58530949E-02  0.38474767E-02  0.36934969E-02
 -0.30023540E-02  0.24190700E-02 -0.46538088E-03
 -0.31396040E-02 -0.10885063E-02 -0.98605879E-02
 -0.59737474E-02  0.30626521E-02  0.13154057E-02
  0.10055848E-02  0.10040631E-01  0.56800635E-03
 -0.86074100E-02 -0.22132406E-02 -0.19517789E-02
 -0.11358353E-02 -0.98327751E-02  0.88770891E-03
 -0.29177216E-02 -0.54195163E-02 -0.31964559E-02
 -0.40373804E-02  0.43095313E-02 -0.20593021E-02
 -0.67778267E-02  0.59035372E-03 -0.24041021E-02
  0.26827715E-02 -0.58194422E-02 -0.16532943E-02
  0.83602970E-02  0.74197875E-03 -0.38488245E-02
  0.14305085E-01 -0.21340967E-02  0.36235375E-02
  0.18182266E-02  0.86174618E-02  0.50831982E-02
  0.49674660E-03  0.96411809E-03 -0.49350600E-03
  0.10990253E-02 -0.12600413E-02  0.13014208E-02
  0.21259284E-03 -0.25634901E-02  0.58241400E-03
 -0.12002505E-02 -0.45496698E-02 -0.22136362E-02
  0.39962859E-02  0.15340162E-02 -0.15295793E-02
  0.27144309E-03 -0.31368638E-02  0.23752453E-02
  0.57055123E-03 -0.31206937E-03  0.30481871E-03
  0.10246875E-02  0.59018245E-02  0.42292066E-02
 -0.13937832E-02  0.14861911E-02 -0.13660404E-02
 -0.47268278E-03  0.56368721E-02 -0.21474468E-02
  0.10148224E-02  0.20478822E-02  0.24402457E-02
 -0.68996163E-03 -0.31923052E-03  0.56041140E-03
 -0.42668027E-02 -0.61183594E-03 -0.23002911E-02
 -0.16233234E-02 -0.31180609E-02 -0.81234224E-03
  0.10530341E-02  0.29898279E-02 -0.10676640E-02
 -0.18815836E-02  0.49007150E-03  0.18254666E-02
  0.33034952E-02 -0.34864380E-03 -0.53386377E-02
 -0.46071539E-04 -0.52646326E-02  0.86261886E-03
  0.55569735E-02  0.81773895E-02 -0.43916712E-02
 -0.40751298E-02  0.32339922E-02 -0.39170068E-02
 -0.20801125E-02  0.43376471E-02 -0.54130328E-02
  0.29434133E-02  0.42921994E-02  0.11832210E-02
 -0.14485007E-02 -0.21758408E-02  0.51057429E-02
  0.21749370E-02 -0.16934558E-02 -0.15446896E-02
 -0.27819138E-02  0.14583776E-02  0.53301761E-02
  0.30723454E-02  0.58688116E-03  0.18236841E-02
 -0.28608972E-02  0.23094347E-02 -0.19640108E-03
 -0.86971412E-03 -0.21159728E-02 -0.38419135E-03
  0.70562123E-02 -0.31158370E-02 -0.18265129E-02
  0.23564766E-02  0.32506800E-02  0.14512648E-02
  0.14096426E-03 -0.12446951E-04  0.24468030E-02
 -0.21286050E-02 -0.19031205E-04  0.16026350E-02
 -0.12342173E-02  0.34943143E-02 -0.29727981E-02
  0.32626731E-02 -0.25189487E-02  0.17120186E-02
  0.28778356E-03 -0.29761453E-02  0.38448903E-02
 -0.14915331E-02  0.38861618E-02 -0.76665048E-03
  0.52853280E-02  0.51020787E-03  0.20864964E-03
 -0.41813705E-02 -0.14679850E-02 -0.33595746E-03
  0.83072588E-03  0.60831328E-03 -0.22289056E-02
  0.50013118E-02 -0.21087654E-02  0.34652772E-02
 -0.22158555E-02  0.28842618E-02  0.25276393E-02
  0.26036099E-02 -0.75281699E-03  0.58178288E-03
 -0.41448666E-02 -0.30697710E-02 -0.19775481E-03
  0.23036744E-02 -0.27782501E-03  0.33682322E-02
 -0.34640159E-02 -0.14653389E-02  0.19889655E-03
  0.43671566E-02 -0.16548050E-02  0.32845359E-02
 -0.11189003E-02 -0.21501255E-03 -0.34564197E-02
 -0.21841885E-02 -0.19662268E-02  0.31314103E-03
  0.36738203E-02 -0.26776744E-02  0.45999542E-02
 -0.68222141E-02  0.19609036E-02 -0.48815921E-02
  0.15855273E-03 -0.32776318E-03  0.61401029E-04
 -0.35030067E-02 -0.44479736E-02 -0.27391616E-02
 -0.81473355E-03  0.16747031E-02 -0.18925393E-02
  0.33856428E-02 -0.18110480E-03 -0.23525775E-02
 -0.86944434E-03 -0.66464678E-02  0.32595258E-02
 -0.48780227E-03 -0.65249470E-02 -0.24684029E-02
  0.48972849E-02 -0.22258676E-02 -0.16662228E-02
 -0.36594008E-02  0.32461081E-02  0.35686714E-02
 -0.15824179E-02 -0.10365015E-02 -0.21701029E-02
 -0.37580318E-03 -0.31872171E-02  0.31950653E-02
 -0.34521011E-02 -0.72812696E-03 -0.18522491E-02
  0.62235716E-02  0.15866237E-02  0.55448160E-02
 -0.90784359E-03  0.73235404E-03 -0.15345383E-02
 -0.41288555E-05  0.73653834E-03 -0.14276362E-02
 -0.19149496E-03 -0.46731605E-03  0.61700732E-03
  0.29072825E-02 -0.25358092E-02 -0.12380469E-02
  0.25861166E-02 -0.11575258E-03 -0.78713997E-03
  0.23240963E-02  0.21579817E-02  0.86004170E-04
  0.14978196E-02  0.22359449E-02 -0.26279013E-02
 -0.15698976E-02 -0.61727910E-02 -0.39825454E-02
  0.91570839E-03 -0.15328468E-02 -0.89891270E-03
 -0.90298186E-03  0.46757754E-02 -0.10717534E-02
 -0.35829670E-03  0.46034661E-02  0.28252046E-02
 -0.64809731E-03  0.51546905E-03 -0.42473479E-03
 -0.97615931E-03 -0.40171194E-02  0.19839622E-02
 -0.34803849E-02 -0.18879973E-02 -0.49924247E-02
 -0.33545353E-03  0.26900350E-02  0.32863221E-02
  0.29490257E-02  0.22894677E-02  0.33700300E-02
 -0.16363352E-02 -0.30166262E-02 -0.65358412E-03
  0.97185408E-03  0.24683153E-02 -0.81484219E-03
 -0.89301879E-03  0.17994419E-02  0.99169352E-04
 -0.27171063E-02  0.36893677E-02 -0.21694132E-02
 -0.23127080E-02  0.23566104E-02  0.13867276E-02
  0.94252833E-03  0.27563264E-02  0.18337946E-02
 -0.16464315E-02 -0.25066142E-02  0.35275043E-02
 -0.23713335E-02  0.38794391E-02 -0.26006257E-02
  0.67288516E-03 -0.26640797E-02  0.95040700E-03
  0.14494595E-02  0.42641495E-02  0.28796393E-02
 -0.15190831E-02 -0.20289837E-02  0.76238913E-03
  0.28817640E-02  0.15171070E-03  0.23808400E-02
  0.34193472E-03  0.41635614E-02  0.39141259E-03
 -0.73752635E-03 -0.11047443E-02 -0.19814037E-03
  0.67427710E-03  0.38624372E-02 -0.45042346E-02
  0.42515395E-03  0.89709416E-03 -0.20750242E-02
 -0.59051579E-03 -0.74510976E-03 -0.49465952E-02
 -0.61165767E-02 -0.47725368E-02 -0.40725225E-02
 -0.12509183E-02 -0.10467069E-02  0.24609496E-03
  0.29877331E-03  0.41068936E-02 -0.18731451E-03
  0.15459457E-02  0.65413826E-04  0.20684169E-02
 -0.27546889E-02 -0.46341476E-03  0.12004007E-02
  0.36787931E-02  0.19396054E-02 -0.35175083E-02
 -0.66705897E-03  0.15546520E-02  0.60209943E-03
  0.97014121E-03 -0.38917619E-02  0.17515867E-02
  0.22888607E-02 -0.52701515E-03  0.10734020E-03
 -0.27653656E-02 -0.28048704E-02 -0.98069923E-03
 -0.13178043E-02 -0.14179433E-03 -0.19652829E-02
 -0.52102765E-02 -0.31459922E-02 -0.29877090E-03
  0.19912987E-03  0.88489798E-03  0.66351431E-02
 -0.27698978E-03 -0.24582800E-02 -0.14093103E-02
 -0.11496642E-02  0.27790766E-02  0.11558198E-03
 -0.29734452E-02 -0.10922943E-02  0.13042279E-02
 -0.83267863E-03 -0.40578806E-02  0.12999705E-02
  0.54595790E-02  0.24561264E-03 -0.20640707E-03
 -0.49239699E-02  0.19569020E-02 -0.28156707E-03
  0.10474430E-02  0.50434959E-02 -0.53937761E-02
 -0.23174786E-02 -0.15253348E-03 -0.44692498E-02
 -0.10027867E-05  0.35173675E-03 -0.30321520E-02
 -0.17120928E-02 -0.20008206E-02 -0.38456881E-03
  0.24583614E-02  0.23963967E-02 -0.86250169E-03
  0.69416974E-03  0.62805740E-03 -0.56693977E-05
 
           1
   2.00000000000000     
  0.69209461E+00 -0.99607867E-03  0.00000000E+00  0.00000000E+00
  0.99139792E+00  0.28832086E-01  0.10066924E+00
  0.47731818E+00  0.45078784E+00  0.70192095E+00
  0.49969272E+00  0.49705998E+00  0.86645450E+00
  0.97775681E+00  0.95054757E+00  0.40522275E+00
  0.49065159E+00  0.27553987E-01  0.88404147E+00
  0.20207270E-01  0.49285623E+00  0.37389830E+00
  0.26722236E-01  0.47700931E+00  0.11003021E+00
  0.23086087E+00  0.24380957E+00  0.12878765E+00
  0.74557770E+00  0.72959967E+00  0.62448822E+00
  0.72001727E+00  0.26833353E+00  0.86256938E+00
  0.74484799E+00  0.71625750E+00  0.34924745E+00
  0.26783801E+00  0.25627037E+00  0.86544123E+00
  0.73769945E+00  0.26725732E+00  0.13384880E+00
  0.31334131E+00  0.75882909E+00  0.61558593E+00
  0.11535339E-01  0.97699220E+00  0.86539651E+00
  0.48134209E+00  0.44618268E+00  0.36555418E+00
  0.96939206E+00  0.15821082E-01  0.56753191E+00
  0.13119492E-01  0.51284539E+00  0.62881258E+00
  0.46776260E+00  0.22478954E-02  0.12804203E+00
  0.11315395E-01  0.49190630E+00  0.87479553E+00
  0.49357811E+00  0.73994390E-02  0.36964025E+00
  0.27561139E+00  0.22972534E+00  0.37221988E+00
  0.75839878E+00  0.79402900E+00  0.87959937E+00
  0.73340388E+00  0.11332012E+00  0.63652844E+00
  0.26372967E+00  0.73659706E+00  0.12995715E+00
  0.26400069E+00  0.29692393E+00  0.60788746E+00
  0.72974655E+00  0.75548836E+00  0.13685326E+00
  0.74075369E+00  0.24320335E+00  0.36604952E+00
  0.53084907E+00  0.70397541E+00  0.51088111E+00
  0.48010534E+00  0.23821812E+00  0.98630600E+00
  0.99694515E+00  0.78788108E+00  0.50709543E+00
  0.54652558E+00  0.71972371E+00  0.75580548E+00
  0.95008905E+00  0.70741918E+00  0.24286021E+00
  0.77669496E+00  0.24518395E+00  0.74823520E+00
  0.97710644E+00  0.77304059E+00  0.23535642E-02
  0.56028250E+00  0.27889164E+00  0.51484225E+00
  0.46987570E+00  0.74217894E+00  0.99544392E+00
  0.48324282E+00  0.25773035E+00  0.25501179E+00
  0.27888185E+00  0.74392204E+00  0.75716945E+00
  0.23019274E+00  0.72317981E+00  0.26813794E+00
  0.28986989E-01  0.22754621E-01  0.26084489E+00
  0.48233937E+00  0.26661828E+00  0.76772383E+00
  0.49903330E+00  0.10696399E-02  0.76530528E+00
  0.98238994E+00  0.49786798E+00  0.22485813E+00
  0.25562891E+00  0.21259454E+00  0.99178134E+00
  0.76694741E+00  0.71108008E+00  0.50667231E+00
  0.28376547E+00  0.77133077E+00  0.50160260E+00
  0.71368360E+00  0.27584278E+00  0.12186479E-01
  0.12824662E-01  0.98556922E+00  0.71683504E+00
  0.45534817E+00  0.48972270E+00  0.24596816E+00
  0.58412611E-02  0.51742475E+00  0.75024877E+00
  0.52746031E+00  0.57132185E-02  0.25402847E+00
  0.25406740E+00  0.25392006E+00  0.49901164E+00
  0.73280687E+00  0.77904612E+00  0.50599380E-02
  0.82901114E+00  0.24154931E+00  0.48846330E+00
  0.21629868E+00  0.72731730E+00  0.99696175E+00
  0.97708294E+00  0.21874320E+00  0.99186865E+00
  0.51525985E+00  0.49506865E+00  0.49338266E+00
  0.46089984E+00  0.51417188E+00  0.98196614E+00
  0.42557328E-01  0.27962555E+00  0.51439533E+00
  0.50641485E+00  0.99683228E+00  0.16230273E-02
  0.99939753E+00  0.52204727E+00  0.51816461E+00
  0.96548129E+00  0.48180908E+00  0.98858920E+00
  0.50593543E+00  0.99453871E+00  0.51740315E+00
  0.47884082E-01  0.22073557E+00  0.24172525E+00
  0.87504164E+00  0.72892312E+00  0.73276542E+00
  0.27919752E+00  0.80046305E+00  0.38824437E+00
  0.99105450E-02  0.26294221E+00  0.75034591E+00
  0.49995270E+00  0.73633264E+00  0.23220117E+00
  0.25239865E+00  0.26614225E+00  0.74507086E+00
  0.75210230E+00  0.25426111E+00  0.24447479E+00
  0.22013313E+00  0.75744723E+00  0.87621961E+00
  0.45639777E+00  0.53170292E+00  0.12236788E+00
  0.51271606E+00  0.96921910E+00  0.63620760E+00
  0.71780811E+00  0.12995583E-02  0.88075927E+00
  0.28108126E+00  0.54277212E+00  0.35201135E+00
  0.26174805E+00  0.47224486E+00  0.86647976E+00
  0.70614331E+00  0.94553631E+00  0.36859017E+00
  0.78057576E+00  0.11266268E-01  0.12804322E+00
  0.27438768E+00  0.52504374E+00  0.62491559E+00
  0.75532828E+00  0.49767289E+00  0.87708447E+00
  0.23343274E+00  0.11657831E-01  0.37776582E+00
  0.74984785E+00  0.42912244E+00  0.62812905E+00
  0.22129565E+00  0.96589517E+00  0.14514609E+00
  0.21323208E+00  0.17191364E-01  0.63297581E+00
  0.70290151E+00  0.51943225E+00  0.12843592E+00
  0.22318684E+00  0.23966534E-01  0.88632375E+00
  0.71353770E+00  0.47579627E+00  0.36779167E+00
  0.27829874E+00  0.99867646E+00  0.26062283E+00
  0.74963964E+00  0.51576088E+00  0.74234454E+00
  0.24420830E+00  0.28371166E-01  0.75089477E+00
  0.72079851E+00  0.48806821E+00  0.24664163E+00
  0.25046550E+00  0.97847680E+00  0.12820233E-01
  0.76893715E+00  0.46551789E+00  0.50157405E+00
  0.23921766E+00  0.11628684E-01  0.50413178E+00
  0.72921003E+00  0.53023164E+00  0.32113543E-02
  0.74938865E+00  0.97216134E+00  0.75241522E+00
  0.22461544E+00  0.47798100E+00  0.23111693E+00
  0.24865974E+00  0.51833267E+00  0.74346192E+00
  0.76871876E+00  0.98263108E+00  0.24681184E+00
  0.25436219E+00  0.51641034E+00  0.48321123E+00
  0.76621926E+00  0.39407775E-01  0.35420393E-02
  0.72017930E+00  0.96581255E+00  0.50250174E+00
  0.22624980E+00  0.50096527E+00  0.99304046E+00
  0.22295513E-01  0.23988305E+00  0.37927302E+00
  0.50695478E+00  0.75219185E+00  0.87302635E+00
  0.50440702E+00  0.25158224E+00  0.62490121E+00
  0.99212601E+00  0.73176715E+00  0.11608344E+00
  0.99129533E+00  0.26544715E+00  0.86935332E+00
  0.50624819E+00  0.74509031E+00  0.38239013E+00
  0.63151237E-02  0.76933971E+00  0.62423772E+00
  0.49320832E+00  0.25906144E+00  0.12550356E+00
  0.14086815E+00  0.37783030E+00  0.39122860E-01
  0.63239643E+00  0.86100493E+00  0.56071879E+00
  0.63464389E+00  0.13271981E+00  0.94938233E+00
  0.15952777E+00  0.63147085E+00  0.43348076E+00
  0.34414266E+00  0.39882632E+00  0.93425335E+00
  0.83775390E+00  0.85671780E+00  0.45141012E+00
  0.87060375E+00  0.14461573E+00  0.57966739E-01
  0.37039215E+00  0.60581307E+00  0.54328542E+00
  0.87722771E+00  0.79880494E-01  0.19468983E+00
  0.39793786E+00  0.62601016E+00  0.69868096E+00
  0.85686974E+00  0.87976023E+00  0.30143021E+00
  0.35736573E+00  0.41862358E+00  0.79234964E+00
  0.13138527E+00  0.56315272E+00  0.29517279E+00
  0.64589633E+00  0.10057936E+00  0.80580355E+00
  0.12594999E+00  0.36543654E+00  0.18905682E+00
  0.66012275E+00  0.86419035E+00  0.70469433E+00
  0.84404545E+00  0.65013355E+00  0.94912984E+00
  0.34635597E+00  0.98755966E-01  0.44314418E+00
  0.87602123E+00  0.38182390E+00  0.55801213E+00
  0.36840663E+00  0.87599503E+00  0.54951563E-01
  0.14316006E+00  0.13202982E+00  0.55180162E+00
  0.63337383E+00  0.64463825E+00  0.49006102E-01
  0.12755695E+00  0.91711014E+00  0.95016623E+00
  0.66977763E+00  0.37011142E+00  0.44351778E+00