Na88 Sn16 P8 Se96                       
   1.00000000000000     
    14.0793397336999995    0.0000000000000000    0.0000000000000000
     0.0000000000000000   14.0793397336999995    0.0000000000000000
     0.0000000000000000    0.0000000000000000   28.1586794673000007
   Na   Sn   P    Se
    88    16     8    96
Direct
  0.9911996847173929  0.0111985474646741  0.1229925191125495
  0.4977627006681076  0.5500860004859792  0.7508935571071664
  0.5027497035857070  0.5183524025558194  0.8723578124504779
  0.9717399952818205  0.9645261643395537  0.4254415394487933
  0.5216160780478476  0.0178677012837544  0.8756065728832045
  0.0666853534205238  0.4563242071973678  0.3603502655807133
  0.9857550373101145  0.4328127513979128  0.1144811306525270
  0.2519312709771628  0.1872689521372899  0.1259699598502267
  0.7961264609655783  0.7199122639460165  0.6221872196896477
  0.7010056322180577  0.3029147309008340  0.8505589325553818
  0.7213283861154109  0.6817999285231270  0.3609758446072925
  0.2737260750088934  0.2526489095434725  0.8797639188033872
  0.7514078626863907  0.2304704303597918  0.1255021082704182
  0.2849841129321820  0.7917894664215996  0.6190178805456610
  0.0197268897408709  0.9836225082915296  0.8629786634074619
  0.4920814191597777  0.5148292681239920  0.2685089911557140
  0.0668144868090914  0.9983066238686088  0.6242742673746198
  0.0362709193430493  0.4174086760062864  0.6247831784218965
  0.5051734502693451  0.9375379470445053  0.1202354738451490
  0.0323462931106045  0.5435747130623347  0.8502376181850483
  0.5161732911061442  0.9809582449862287  0.3966422048222689
  0.2729551760397588  0.2478140366734020  0.3645166777620746
  0.7252926112150858  0.7392227053225795  0.9023685163306829
  0.7675520270094889  0.4978931593391351  0.6146189645259353
  0.2343200511428346  0.4928487641011138  0.1290373258184949
  0.2639608958707400  0.2733568866818089  0.6287443042608916
  0.7576081781332463  0.7195345005786854  0.1872344778941261
  0.6662428299003281  0.2298915380153230  0.3872476276913039
  0.4997185052804501  0.7271236212939679  0.4920047347953608
  0.4991100930806550  0.2641521578427906  0.9974978922705152
  0.0074766747837674  0.7468245292543904  0.4841407509428350
  0.5210687911208881  0.8111643758546251  0.7436955568884385
  0.9556563492585279  0.7527632724703877  0.2560784090499539
  0.7526677885048229  0.2607507651918589  0.6509826617874459
  0.0191448743862874  0.7578255054028584  0.9802949922792544
  0.5035745527641136  0.2033327792721808  0.5014567492864307
  0.4896344256291518  0.7576390427259206  0.0106147168080833
  0.2375534618275473  0.2347172019349433  0.2395325780956206
  0.3035939539466632  0.7499415479963079  0.7406221677115677
  0.2112909639891905  0.7569661339660311  0.2375168161314461
  0.0020518709524443  0.9854985102201473  0.2603791782121828
  0.5661381843711274  0.2956611083055217  0.7629916344007448
  0.4623983586886341  0.0633435371907850  0.7536809639319862
  0.9736207057382913  0.4960983594878330  0.2535940003728007
  0.0769038086162750  0.2500564400416295  0.0062337535321350
  0.7622519890864294  0.7273554016746202  0.4998916464213768
  0.2566533017160433  0.7191568756218940  0.4929500717577201
  0.7070567125478470  0.2853136788890199  0.0002009242545744
  0.9913621482536956  0.9763226457560268  0.7478835890191466
  0.5462356160383064  0.2224312004694059  0.2581276212880103
  0.9666258288861589  0.6335845483453276  0.7271701170624519
  0.5067692218850124  0.9539418806022536  0.2760437401936119
  0.2492586436876254  0.2406444056424402  0.4956827129860532
  0.7839546069188184  0.7830868035160216  0.0175450042478512
  0.7634026584972984  0.2464143798472240  0.4946791476304955
  0.2361415547687561  0.7534037641033885  0.0166437669637749
  0.0099941349678197  0.0275810586440869  0.9993329654519498
  0.5006716114587320  0.4740924471274111  0.5094876846337614
  0.5248260718666190  0.5256762964987833  0.9879000426196004
  0.0312656449678424  0.1810064388580440  0.5098454096045664
  0.5001077913011871  0.9918267740973170  0.9866182110542663
  0.9953314833652206  0.4944472514210263  0.4785235448985311
  0.0062882859180082  0.4901740489025659  0.9820152792957059
  0.5095059881377180  0.9878070657848698  0.6002910847775529
  0.9747314325525124  0.2333409890724132  0.2230030545660540
  0.7231918148058528  0.7221231081133931  0.7618032916572424
  0.2010205024287148  0.7292614986022398  0.3630187963369713
  0.0262471195329828  0.2498971055651185  0.7277169952125753
  0.5915075452981321  0.7116996218275292  0.2608996527635272
  0.3030658011545151  0.2829362543997900  0.7538118324504989
  0.7864446572729464  0.2238005132568188  0.2729386262288830
  0.2222259072930922  0.7564259471188609  0.8830098077968845
  0.4526502649742387  0.5084596125495814  0.1259542747714198
  0.7854692852476913  0.9868073332094084  0.6298466828898400
  0.8046449191189095  0.0769407874749411  0.8893189986826768
  0.3672698835128503  0.5407475739746390  0.3879044122827527
  0.2211239453365174  0.4884259175325958  0.8815591256433059
  0.7628636899273141  0.0054647762457421  0.3749201681690151
  0.7434999654716475  0.9779688272311644  0.1465662508472145
  0.2181518454693496  0.5449425243035337  0.6221661936356467
  0.8247907784042503  0.4789671834289959  0.8712606494500610
  0.2366000053082620  0.0277110906463269  0.3739097004750565
  0.5071619651376061  0.5381462461388393  0.6219385315260749
  0.2567262188330842  0.9565984802551430  0.1403605888431425
  0.2808738958623639  0.0222874917982810  0.6289709398692281
  0.7544230519375551  0.4891709840923212  0.1192424744461131
  0.2362255973836571  0.0101946281747703  0.8834979867029268
  0.7738621194782469  0.4342679185100874  0.3751814580240626
  0.2920181417557703  0.9915647187120106  0.2553717443682160
  0.7863100442405668  0.5117320225502494  0.7506609331392090
  0.2267994559286924  0.0058299904790389  0.7516347634513142
  0.7056941790731068  0.4625328310985800  0.2435916336460587
  0.2588409675381815  0.0097808933996958  0.0029619663148014
  0.7355086786640221  0.4647815635373777  0.5038429573652389
  0.2578678138089334  0.9942279934602917  0.5033910597956448
  0.7554949347379148  0.5362595540052022  0.9938344051488669
  0.7357560019589776  0.0125842849179460  0.7549459557237869
  0.2126108855583201  0.5142326285804627  0.2476485390353041
  0.2585117460573977  0.5244327175459665  0.7532276728024400
  0.7526739472419123  0.9920507475947578  0.2530479362520281
  0.2484109178126130  0.4853546257875751  0.4984738287272666
  0.7488534756663942  0.0167609858078902  0.9972596130218961
  0.7481645060437330  0.9662694506205614  0.5035281321985065
  0.2534052931107522  0.4878978969263963  0.0043330032393812
  0.9863971093623826  0.2319308744630424  0.3695775548661623
  0.4911077922677312  0.7749629578653751  0.8773573180422303
  0.5297396737876220  0.2624751263041115  0.6227004271812965
  0.9905900360448070  0.7475091176481150  0.1329159933983692
  0.0108335817910275  0.2573540951755396  0.8667123523555427
  0.4968908175750868  0.7440647933262075  0.3677570404038680
  0.0183589739768665  0.7498605224519629  0.6217811624663220
  0.4983252673489866  0.2434525627458530  0.1191201848931445
  0.1666975147603967  0.3815683586854117  0.0598546314879116
  0.6582698945740852  0.8740976257866370  0.5703233821932339
  0.6476560369371751  0.1344533254658266  0.9450597443651244
  0.1523301128582562  0.5861002924467549  0.4389457553824164
  0.3467988040544850  0.3818885233187772  0.9493534299302238
  0.8217813836451079  0.8577003827633992  0.4422027215430444
  0.8670982573035088  0.1680874805512982  0.0346175312122430
  0.3493791563928409  0.5845674570078674  0.5455617343415883
  0.8641781727292982  0.0956689226504916  0.1949653756339643
  0.3652767886354759  0.5937509381164162  0.6884080920826247
  0.8591686485540716  0.9054482114984626  0.3146697434753687
  0.3613986337851428  0.4411845312933551  0.8151069020811583
  0.0997456444396301  0.5899935131109714  0.3014213283412645
  0.6413807849885430  0.1244313781421254  0.8046373271858206
  0.1032481261389909  0.4032946622816522  0.1919566048994520
  0.6045166736420126  0.9551507832061276  0.6960325304566768
  0.8686058665052857  0.6261810365823103  0.9438050701695759
  0.3587397833378228  0.0909686288141864  0.4530318536694590
  0.8648790417832848  0.3693490932299369  0.5400655467166079
  0.3746678671658820  0.9042060503729366  0.0508522180026053
  0.1588535338693689  0.0966906119667204  0.5583591621010237
  0.6410794238694393  0.6366340869469190  0.0464481404203031
  0.1544127414026448  0.9069537910905463  0.9511524827890573
  0.6170755279818768  0.3669317139410987  0.4500358828531166
  0.6168205945606352  0.3763074525614825  0.3110378040000466
  0.1397865137627204  0.8768286920018030  0.7956670807330333
  0.1423222735704048  0.1172751941926423  0.6932420491139583
  0.6259102833260670  0.5596382246280708  0.1823255939808101
  0.9133811185817607  0.4269464465284687  0.7006966962321332
  0.3948839808701451  0.8866703257383044  0.2046198767166610
  0.3830828486959728  0.1123794343796900  0.3048029942800377
  0.8724559061228375  0.6314938316335335  0.8106019359209286
  0.1656117409987096  0.0660690163031345  0.0686556713703341
  0.6416177228434359  0.5804217436825641  0.5537682333769034
  0.6574059474818515  0.4433578562009925  0.9308136005122396
  0.1571230871192291  0.9165737157186831  0.4443325264034166
  0.3489514553844663  0.1268946794363298  0.9498562902559442
  0.8288611166223223  0.5768587798652391  0.4461819179933997
  0.8445008770570682  0.3966479330969546  0.0296533651936025
  0.3775781754373084  0.8835206879619094  0.5477937990462282
  0.1733577752373363  0.0741221614550947  0.2035820119981109
  0.6705677504420683  0.6139417128794818  0.6912198892210063
  0.1626711776066682  0.9025943851757258  0.2993373184906639
  0.6417794249246012  0.4627850489691083  0.8031568874613820
  0.7966961626885967  0.6054599707440147  0.2830455465368764
  0.3094690264799035  0.1177958760667707  0.8107056515365189
  0.8347842855415559  0.3782088865441217  0.1936335490194570
  0.3381473187787175  0.9254500960077262  0.6963257872533359
  0.8451347378505466  0.9144711956829861  0.9471422884751715
  0.3368072153342678  0.3769873014109702  0.4366779518657267
  0.8684715571246805  0.0785670956985180  0.5359371007305835
  0.3549925882506485  0.6006392052181667  0.0531569980559043
  0.1426236312013002  0.3691454126770657  0.5484724472793784
  0.6498603410603350  0.9350008785817200  0.0533008291814443
  0.1455758225550361  0.6021939259884654  0.9542388063829835
  0.6425979326207594  0.0687179868536598  0.4433367227805116
  0.3043319315281923  0.3995088933079461  0.2981004314618212
  0.8279542143317027  0.8982417324168481  0.8097499792562612
  0.8537877646380754  0.0989735097349163  0.6978939573505664
  0.3277094494996793  0.5931751967273519  0.2005680805265223
  0.1785166451793974  0.4148241325062733  0.6940723138934605
  0.6438377739286032  0.8917794804729547  0.2076605107212707
  0.6458748038661684  0.0874885947992480  0.3001036582377455
  0.1517883089498369  0.6517286366129623  0.7872845645727067
  0.0678642178912993  0.1323381242725584  0.3199352599384996
  0.5684585775435907  0.6909425747222817  0.8208094486845622
  0.5827487936767116  0.3673876438506045  0.6729104016405406
  0.0900325312816279  0.8462577222329519  0.1776304483883664
  0.4224499001918161  0.1679764948637475  0.6672423755165114
  0.9301051271314702  0.6319914301047315  0.1774482590440470
  0.9309972209500037  0.3401543741322291  0.3174783558427930
  0.3921784318642898  0.8628233063272445  0.8294876936780210
  0.0904979964559719  0.1441703054363843  0.9124270380189734
  0.5460613618653225  0.6195970756990971  0.4125059671435716
  0.0939939515918208  0.8425721972902757  0.5703011510703685
  0.5674792949943054  0.3587475934479610  0.0784814359862716
  0.9573581942329376  0.6381627989078141  0.5739186581752559
  0.4256065275477277  0.1371045843814226  0.0776960390513579
  0.9512726834770407  0.3537314922948572  0.9251590211181800
  0.3781822876665255  0.8065621295217191  0.4118547394987248
  0.9240072175715571  0.8154760731363032  0.6785047963364198
  0.3809984630242622  0.3146488428268387  0.1640037351349725
  0.8864227802188482  0.2148472882858973  0.8258337412611559
  0.4189321697863044  0.6664814946347870  0.3115247267396895
  0.1115688685062808  0.3504803366885072  0.8229946801545887
  0.6091444909354619  0.8464461130474396  0.3478932655096997
  0.1210190338336611  0.6770283130949822  0.6668895251263462
  0.5980271198371421  0.1683777922653464  0.1673773352952398
  0.4299181793456090  0.3674560048030674  0.5814374259356858
  0.8750591219856002  0.8403302289915017  0.1136795894591889
  0.8807935138078097  0.1599275447950574  0.4157441324561026
  0.4180231390621225  0.6791639232362249  0.9250535755939221
  0.0905999424722106  0.3029196460578484  0.4198624596983555
  0.5860854660923198  0.8684615659545453  0.9232675828549943
  0.6264281862458515  0.1659178386303876  0.5851453224651525
  0.0533186486155076  0.6775248633283361  0.0712339644835107
 
  0.47394975E-02  0.19635855E-02  0.40726398E-02
  0.86033084E-02 -0.26566381E-02  0.16899833E-02
 -0.45284319E-02  0.71097438E-02  0.10347603E-01
 -0.25314746E-02  0.33019886E-03  0.30759467E-02
  0.32564291E-02 -0.29035457E-02  0.39070746E-02
 -0.27651814E-03 -0.26515320E-02  0.18441144E-02
 -0.76000829E-02 -0.11681642E-02  0.20251309E-02
 -0.32184250E-02  0.80303866E-02 -0.58042760E-02
  0.20714739E-02  0.85723989E-02 -0.12208264E-02
  0.54919905E-03  0.90963646E-02 -0.31411357E-02
 -0.53207963E-02 -0.12648437E-02  0.44846630E-02
  0.23076201E-02  0.12421755E-02 -0.72047342E-03
  0.25108755E-02 -0.11551358E-03  0.12192490E-02
  0.15699287E-02  0.47030599E-02  0.22201211E-02
  0.71785092E-02  0.42568173E-02 -0.47073211E-02
  0.38469634E-02 -0.27588675E-02  0.45335245E-02
 -0.18771629E-02  0.46915340E-02 -0.25187816E-02
  0.64014364E-02  0.15360470E-02 -0.89775328E-02
 -0.86558971E-02  0.65063978E-02 -0.89358900E-02
 -0.61363900E-02 -0.17272188E-02  0.74015186E-02
 -0.96892425E-03  0.46120508E-02  0.39836226E-03
  0.72424379E-02 -0.38735693E-03  0.16530183E-02
 -0.84033158E-02  0.83580614E-02  0.21607517E-02
  0.21414035E-02  0.56193145E-02 -0.34923684E-02
 -0.47567347E-02  0.76308851E-02 -0.35461414E-02
  0.18530457E-02  0.13244377E-02  0.33280675E-02
  0.11021289E-01 -0.54494394E-02  0.81599470E-02
  0.34783309E-02  0.84317260E-03 -0.20571287E-02
  0.98287721E-03  0.66688204E-02 -0.28131793E-02
  0.38285027E-02  0.52575689E-02 -0.48074630E-02
 -0.60705021E-04  0.10095900E-01  0.47337361E-02
 -0.45968078E-02 -0.31055191E-02 -0.39422164E-02
 -0.19848785E-02  0.54717628E-02 -0.30236741E-02
  0.29334369E-03  0.71711616E-02 -0.87561334E-02
  0.78591362E-02 -0.28631998E-02  0.13025056E-01
  0.18214502E-02 -0.42945303E-02  0.74466909E-02
  0.70366550E-02  0.22236977E-02  0.38299009E-02
  0.28529359E-02  0.26629041E-02  0.77067209E-02
  0.55300040E-03  0.21742067E-02  0.28206869E-03
  0.29459028E-02  0.66031265E-02 -0.39897243E-03
 -0.14027802E-02 -0.42543353E-02  0.13060573E-02
 -0.88031111E-02 -0.77845140E-02 -0.44609926E-02
  0.51022106E-03  0.63314456E-02  0.75652843E-02
  0.25591541E-02  0.95316642E-02  0.29418222E-02
 -0.37881653E-02  0.21759478E-02  0.45741961E-02
  0.31519066E-02  0.90505005E-03 -0.79631313E-02
 -0.24325491E-02 -0.10466227E-02  0.19829201E-03
 -0.66871874E-02  0.85714067E-03  0.51751465E-02
  0.38532754E-02  0.96793830E-02 -0.41807595E-02
  0.48016254E-02  0.52913680E-02 -0.91876839E-03
 -0.37868024E-02 -0.18541251E-02 -0.27067824E-02
  0.87289284E-02  0.10544184E-02 -0.13941071E-02
  0.32433353E-02  0.25166020E-02 -0.11103070E-01
  0.73019284E-03  0.16274200E-02 -0.72913865E-02
  0.13438850E-01 -0.16770160E-02 -0.54032551E-02
 -0.18302236E-03 -0.39140323E-02  0.38060713E-02
  0.72367541E-02  0.52166018E-03 -0.45396681E-02
  0.11118759E-01  0.24444101E-03 -0.11226977E-02
  0.42966429E-02 -0.19024429E-02 -0.46996636E-02
  0.46850954E-02  0.51252011E-02 -0.33638459E-02
  0.41071813E-02 -0.24043123E-02 -0.11468469E-02
  0.40995600E-02 -0.20482044E-02 -0.34212451E-02
 -0.84770214E-03  0.18300412E-03  0.10620324E-01
 -0.46255283E-03  0.27090835E-02  0.12671343E-01
  0.10421831E-02 -0.31390094E-02 -0.57516990E-02
  0.44836307E-02 -0.30387520E-02 -0.74623137E-02
  0.43959573E-02  0.31252093E-02  0.11903364E-02
 -0.95427832E-02 -0.25063032E-02  0.12455371E-01
  0.63952497E-02  0.40660542E-02  0.34106882E-03
 -0.72069588E-02 -0.11479301E-02 -0.91611851E-02
  0.41783341E-02  0.82378510E-03  0.25726596E-02
 -0.39797201E-02  0.82810409E-02 -0.52667947E-02
  0.70485356E-02 -0.96805724E-04  0.37624559E-02
  0.76485315E-02  0.50126444E-02  0.91376585E-02
 -0.31100870E-02  0.60861925E-02 -0.57568035E-03
  0.73475109E-02 -0.33801166E-02  0.89864028E-03
  0.67057906E-03 -0.46371891E-02 -0.19882976E-02
 -0.78119850E-02  0.33200406E-02  0.12113631E-01
 -0.25774862E-02  0.42164216E-02  0.52014870E-02
  0.51194472E-02  0.59883760E-02  0.45021996E-02
  0.25854531E-02  0.22507758E-02  0.60511364E-02
  0.98388130E-02  0.64789736E-03  0.11908057E-01
 -0.51368709E-02  0.55943959E-02 -0.10246586E-01
  0.48744391E-02  0.29285016E-02 -0.14159911E-01
  0.14611622E-02  0.12380055E-01 -0.51487636E-02
  0.37252563E-02 -0.35528047E-03 -0.40741360E-02
  0.60854227E-02  0.42927306E-02 -0.61110145E-02
 -0.45667394E-02  0.69784872E-03 -0.79022148E-02
 -0.42031739E-02  0.63686228E-03  0.20576787E-02
 -0.28118641E-02  0.77264231E-03  0.12047074E-02
 -0.48230319E-02 -0.41733963E-02  0.19040268E-02
 -0.12596847E-03  0.19188471E-02  0.39290156E-02
 -0.38516487E-02  0.41072096E-02  0.36338841E-03
  0.12870844E-04 -0.36240490E-03  0.21429442E-02
  0.38307573E-03 -0.21063746E-02  0.77762997E-03
 -0.13931017E-02 -0.17040017E-02 -0.35807170E-02
 -0.17181863E-02  0.46566011E-02 -0.12688214E-02
 -0.26333498E-02 -0.14656748E-02  0.32319495E-02
  0.65645934E-02 -0.59868271E-02 -0.27815234E-02
 -0.50318645E-03  0.15447170E-02  0.27306303E-03
  0.15463994E-02  0.71704510E-03  0.29111048E-03
  0.22295668E-02 -0.42041936E-03  0.65307620E-03
 -0.28340101E-02 -0.91302799E-03  0.21654334E-03
  0.12527023E-02 -0.13027054E-02  0.12708059E-02
  0.13252649E-02 -0.44396246E-03 -0.26191802E-02
 -0.36558252E-05 -0.34587767E-02  0.44507172E-02
  0.37141527E-03 -0.49729789E-02  0.47279152E-04
 -0.10243203E-02 -0.16362945E-02 -0.27711448E-02
 -0.70666011E-03  0.27713372E-02  0.70299120E-02
  0.29143967E-02 -0.16654616E-02  0.78969395E-03
  0.38914899E-02  0.27658859E-02  0.22319080E-02
  0.50486970E-02  0.43949759E-02  0.43079274E-02
 -0.88993021E-03  0.26115361E-02  0.41518245E-02
  0.37442572E-02  0.64795320E-02 -0.17681139E-04
  0.46298446E-03 -0.12574165E-02  0.34978313E-02
 -0.16414212E-02  0.69255703E-04 -0.26361435E-02
  0.46620849E-02  0.21271378E-02  0.31405305E-02
 -0.12836545E-02  0.55047790E-05 -0.91613808E-04
 -0.58967817E-02 -0.43589590E-02 -0.12490816E-02
  0.43112832E-02 -0.38468578E-02  0.11478566E-02
  0.52090329E-03 -0.38506749E-02 -0.89722068E-04
  0.26617213E-02  0.30588018E-02 -0.19018101E-02
 -0.25692707E-03  0.94607649E-03  0.22822919E-02
 -0.76621374E-02  0.46821801E-02 -0.61011983E-03
 -0.43130349E-02 -0.54016344E-03 -0.16591821E-02
 -0.35947273E-03 -0.80200819E-03 -0.48685852E-02
  0.91818413E-03  0.62688475E-03  0.25272775E-02
  0.44121166E-02 -0.10495502E-02 -0.53112234E-02
  0.50270914E-02 -0.23685422E-02  0.57880347E-03
 -0.22025528E-02  0.71676164E-03 -0.32482801E-02
  0.33676828E-03 -0.17438460E-02 -0.46619191E-02
 -0.36601301E-03  0.10789476E-02 -0.18677127E-02
 -0.22428941E-02  0.10836428E-02 -0.80497230E-03
  0.16505494E-02 -0.16852195E-02  0.36598291E-03
  0.84242795E-04 -0.38336517E-02 -0.34628658E-02
  0.65699804E-02 -0.16192017E-02 -0.26210644E-02
 -0.33569245E-02 -0.52859479E-03  0.18603392E-02
  0.30454332E-02 -0.97429549E-03  0.27689418E-03
  0.39447436E-02  0.28845395E-02  0.14217166E-02
  0.49585789E-02 -0.89291541E-03  0.41413617E-02
 -0.13902444E-02 -0.13510597E-02 -0.19442616E-03
 -0.11100348E-02 -0.19595260E-02  0.33108693E-02
 -0.49621752E-02 -0.53286717E-03  0.91891006E-03
 -0.41253584E-03 -0.19793612E-02  0.54915701E-03
 -0.13051089E-02  0.64690924E-03 -0.11921595E-02
  0.10358964E-02 -0.41169069E-02 -0.11610073E-02
 -0.35922841E-03  0.66754092E-02 -0.45026021E-02
  0.38596987E-02  0.23913487E-02 -0.11727626E-02
 -0.93075278E-03  0.82438078E-03  0.19097028E-02
 -0.51562873E-02  0.37018174E-02 -0.29569512E-03
  0.28594406E-02 -0.19732677E-02  0.46804162E-03
 -0.57394911E-02 -0.10588694E-02  0.31307644E-02
  0.21874717E-02 -0.15955582E-02 -0.27163223E-02
 -0.22970997E-02 -0.13044609E-02 -0.10780944E-02
  0.27728305E-02 -0.92174823E-03 -0.10672572E-02
  0.18109678E-02  0.32257137E-02 -0.25661303E-02
 -0.79299852E-03 -0.20581218E-02  0.96128713E-03
 -0.67363974E-02  0.35448458E-02  0.14549548E-02
 -0.13725137E-02 -0.79620078E-02 -0.67534093E-02
  0.12737108E-02 -0.47698854E-03 -0.22814996E-02
 -0.37714711E-02 -0.36512758E-02 -0.30538817E-02
  0.18794486E-02 -0.19320986E-02  0.54108937E-02
  0.19810938E-02  0.63344377E-03  0.51553897E-02
  0.76803392E-03 -0.84587873E-03  0.14957456E-02
 -0.48694905E-02  0.50518171E-02 -0.20185558E-02
  0.98603421E-04  0.55341062E-02  0.28455978E-02
 -0.39519788E-02 -0.37951748E-03  0.86172225E-03
 -0.68476203E-03 -0.42353532E-02  0.18514011E-02
  0.22927578E-02 -0.81635733E-02 -0.10933207E-02
 -0.34040161E-02  0.15726518E-02 -0.44473812E-02
 -0.55837862E-02  0.54302486E-03 -0.53509725E-02
 -0.10157209E-03 -0.33272185E-02 -0.16888832E-03
  0.22320849E-02  0.13739464E-03  0.50322542E-02
 -0.39313181E-02  0.28220841E-02  0.14386525E-02
  0.38374723E-02  0.18754632E-02  0.41531749E-02
  0.30292153E-02 -0.28571466E-02 -0.14113229E-02
 -0.12342094E-02 -0.78846038E-02 -0.22889456E-02
 -0.22972784E-02  0.52310110E-03 -0.49699173E-02
 -0.57025718E-03 -0.23528494E-02 -0.32067758E-02
 -0.35375537E-02  0.13015573E-02 -0.24342563E-03
  0.21859800E-02  0.20111107E-02  0.88514227E-03
  0.23077689E-02  0.30537131E-02  0.85983141E-03
 -0.25803445E-02 -0.14258883E-02 -0.37865443E-02
 -0.24766803E-02 -0.40617899E-02  0.26436620E-02
 -0.37024833E-02  0.16683564E-02  0.46035550E-02
 -0.12664448E-03  0.40248507E-02  0.57665830E-02
 -0.57469268E-03 -0.49542265E-02  0.13122081E-02
  0.20878005E-02  0.32498047E-02  0.20522462E-02
  0.21313265E-02 -0.49007410E-05  0.43226739E-02
 -0.96758276E-03 -0.24857025E-02 -0.40779667E-02
 -0.18424302E-02 -0.25826254E-02 -0.63004371E-02
  0.76724618E-02 -0.71814356E-02 -0.33006619E-02
 -0.55313231E-02 -0.62379396E-02  0.28009596E-02
  0.98894969E-03 -0.27289528E-02  0.77415152E-03
 -0.62014131E-02 -0.29569620E-02 -0.11474242E-03
 -0.31586849E-02 -0.10778656E-02  0.29607313E-02
  0.18353658E-02  0.22231522E-02 -0.10709321E-02
  0.20775425E-02  0.23074274E-02  0.42035331E-03
 -0.10887176E-02  0.17598289E-02 -0.31414303E-02
 -0.11005198E-02 -0.18994212E-02 -0.28821673E-03
 -0.22204184E-02 -0.11864204E-02 -0.13747476E-02
  0.23648584E-02  0.32634921E-02 -0.87781088E-03
  0.56772665E-02  0.41734895E-03 -0.40215592E-02
 -0.48575562E-03 -0.28286152E-02  0.17585825E-02
 -0.30845374E-02 -0.27173712E-04  0.58705362E-04
 -0.33699598E-03  0.65434867E-03  0.14639518E-02
  0.28903150E-02  0.48957446E-03 -0.40323041E-02
  0.16618676E-02 -0.30152790E-02 -0.20086821E-02
 
           1
   2.00000000000000     
  0.59591343E+00  0.11691330E-02  0.00000000E+00  0.00000000E+00
  0.99187294E+00  0.11477479E-01  0.12328178E+00
  0.49898482E+00  0.54970862E+00  0.75101359E+00
  0.50210643E+00  0.51936236E+00  0.87309276E+00
  0.97138039E+00  0.96457307E+00  0.42566001E+00
  0.52207866E+00  0.17455246E-01  0.87588408E+00
  0.66646073E-01  0.45594755E+00  0.36048125E+00
  0.98467543E+00  0.43264681E+00  0.11462497E+00
  0.25147409E+00  0.18840969E+00  0.12555771E+00
  0.79642072E+00  0.72112999E+00  0.62210051E+00
  0.70108365E+00  0.30420689E+00  0.85033583E+00
  0.72057256E+00  0.68162025E+00  0.36129437E+00
  0.27405388E+00  0.25282536E+00  0.87971275E+00
  0.75176454E+00  0.23045402E+00  0.12558871E+00
  0.28520712E+00  0.79245755E+00  0.61917557E+00
  0.20746612E-01  0.98422720E+00  0.86264432E+00
  0.49262789E+00  0.51443737E+00  0.26883099E+00
  0.66547832E-01  0.99897307E+00  0.62409537E+00
  0.37180257E-01  0.41762687E+00  0.62414554E+00
  0.50394386E+00  0.93846219E+00  0.11960079E+00
  0.31474606E-01  0.54332936E+00  0.85076332E+00
  0.51603565E+00  0.98161340E+00  0.39667050E+00
  0.27398398E+00  0.24775901E+00  0.36463409E+00
  0.72409890E+00  0.74040999E+00  0.90252199E+00
  0.76785622E+00  0.49869139E+00  0.61437092E+00
  0.23364435E+00  0.49393275E+00  0.12878546E+00
  0.26422412E+00  0.27354503E+00  0.62898068E+00
  0.75917378E+00  0.71876040E+00  0.18781405E+00
  0.66673693E+00  0.23001131E+00  0.38710152E+00
  0.49985813E+00  0.72807094E+00  0.49180493E+00
  0.49965394E+00  0.26489901E+00  0.99715644E+00
  0.74680515E-02  0.74825867E+00  0.48447697E+00
  0.52041580E+00  0.81072323E+00  0.74341556E+00
  0.95537439E+00  0.75354055E+00  0.25586365E+00
  0.75270946E+00  0.26176944E+00  0.65036075E+00
  0.20261281E-01  0.75741878E+00  0.98122011E+00
  0.50383329E+00  0.20272273E+00  0.50198566E+00
  0.49063400E+00  0.75795492E+00  0.10886740E-01
  0.23795873E+00  0.23509547E+00  0.24007996E+00
  0.30367251E+00  0.75025040E+00  0.74064220E+00
  0.21170944E+00  0.75790412E+00  0.23748848E+00
  0.18526031E-02  0.98489417E+00  0.26047194E+00
  0.56488768E+00  0.29455530E+00  0.76267479E+00
  0.46247084E+00  0.64242932E-01  0.75421830E+00
  0.97398424E+00  0.49745235E+00  0.25380295E+00
  0.76365692E-01  0.25036554E+00  0.65586406E-02
  0.76269972E+00  0.72748397E+00  0.49932606E+00
  0.25630775E+00  0.71900820E+00  0.49296416E+00
  0.70610678E+00  0.28543544E+00  0.56849451E-03
  0.99190951E+00  0.97769762E+00  0.74758665E+00
  0.54691770E+00  0.22318285E+00  0.25806236E+00
  0.96608791E+00  0.63332117E+00  0.72697786E+00
  0.50800918E+00  0.95409166E+00  0.27594472E+00
  0.24971937E+00  0.24100189E+00  0.49489411E+00
  0.78405833E+00  0.78331798E+00  0.17027126E-01
  0.76531168E+00  0.24617616E+00  0.49429538E+00
  0.23611556E+00  0.75284777E+00  0.16914097E-01
  0.11022131E-01  0.27655162E-01  0.99901053E+00
  0.50225105E+00  0.47412717E+00  0.50940794E+00
  0.52543642E+00  0.52540605E+00  0.98756624E+00
  0.31931173E-01  0.18173448E+00  0.50960649E+00
  0.50069123E+00  0.99148524E+00  0.98653676E+00
  0.99591383E+00  0.49415630E+00  0.47828055E+00
  0.61678680E-02  0.49020005E+00  0.98276960E+00
  0.50944028E+00  0.98819190E+00  0.60119108E+00
  0.97487948E+00  0.23289509E+00  0.22259453E+00
  0.72382872E+00  0.72169145E+00  0.76127327E+00
  0.20164496E+00  0.72970544E+00  0.36310334E+00
  0.24891547E-01  0.24954108E+00  0.72860165E+00
  0.59241600E+00  0.71227721E+00  0.26092388E+00
  0.30204204E+00  0.28277319E+00  0.75316115E+00
  0.78703820E+00  0.22391753E+00  0.27312135E+00
  0.22166058E+00  0.75760229E+00  0.88263573E+00
  0.45365152E+00  0.50844586E+00  0.12622151E+00
  0.78655578E+00  0.98751939E+00  0.63049569E+00
  0.80420312E+00  0.77805344E-01  0.88927811E+00
  0.36831361E+00  0.54026742E+00  0.38796824E+00
  0.22121920E+00  0.48776720E+00  0.88141790E+00
  0.76175398E+00  0.59363950E-02  0.37578055E+00
  0.74313383E+00  0.97856778E+00  0.14693569E+00
  0.21887907E+00  0.54579319E+00  0.62248597E+00
  0.82515805E+00  0.47928691E+00  0.87169044E+00
  0.23799763E+00  0.27803126E-01  0.37475548E+00
  0.50643226E+00  0.53894094E+00  0.62121076E+00
  0.25741864E+00  0.95701448E+00  0.13935487E+00
  0.28108146E+00  0.24046105E-01  0.62860524E+00
  0.75495223E+00  0.48912052E+00  0.11895310E+00
  0.23709004E+00  0.10804420E-01  0.88306395E+00
  0.77321340E+00  0.43436705E+00  0.37462019E+00
  0.29142107E+00  0.99165519E+00  0.25551789E+00
  0.78591061E+00  0.51184178E+00  0.75074650E+00
  0.22611433E+00  0.52371507E-02  0.75177000E+00
  0.70567628E+00  0.46280541E+00  0.24387070E+00
  0.25829383E+00  0.10364331E-01  0.29877764E-02
  0.73551051E+00  0.46473008E+00  0.50399516E+00
  0.25792223E+00  0.99392878E+00  0.50344629E+00
  0.75529704E+00  0.53601750E+00  0.99358008E+00
  0.73551193E+00  0.13245765E-01  0.75485584E+00
  0.21223681E+00  0.51402443E+00  0.24787809E+00
  0.25944426E+00  0.52358228E+00  0.75303011E+00
  0.75260247E+00  0.99227018E+00  0.25306733E+00
  0.24863059E+00  0.48545648E+00  0.49849451E+00
  0.74917019E+00  0.16701264E-01  0.99730600E+00
  0.74776193E+00  0.96613975E+00  0.50354351E+00
  0.25358324E+00  0.48771284E+00  0.44232636E-02
  0.98658537E+00  0.23186781E+00  0.36939152E+00
  0.49110727E+00  0.77447163E+00  0.87767343E+00
  0.52979243E+00  0.26176870E+00  0.62270379E+00
  0.99044453E+00  0.74727668E+00  0.13271917E+00
  0.10733199E-01  0.25774777E+00  0.86721166E+00
  0.49730481E+00  0.74382821E+00  0.36781313E+00
  0.18911768E-01  0.75025342E+00  0.62193969E+00
  0.49904245E+00  0.24407688E+00  0.11942616E+00
  0.16657110E+00  0.38193933E+00  0.60149519E-01
  0.65880177E+00  0.87501806E+00  0.57032213E+00
  0.64772180E+00  0.13427471E+00  0.94530818E+00
  0.15209695E+00  0.58611013E+00  0.43875852E+00
  0.34746106E+00  0.38219069E+00  0.94957649E+00
  0.82159904E+00  0.85770116E+00  0.44219621E+00
  0.86626061E+00  0.16746828E+00  0.34528814E-01
  0.34999158E+00  0.58402100E+00  0.54564326E+00
  0.86425217E+00  0.95121926E-01  0.19495900E+00
  0.36565489E+00  0.59418545E+00  0.68827301E+00
  0.85913215E+00  0.90558260E+00  0.31483185E+00
  0.36031021E+00  0.44184964E+00  0.81506357E+00
  0.99132969E-01  0.58991678E+00  0.30130348E+00
  0.64132972E+00  0.12431745E+00  0.80429153E+00
  0.10337856E+00  0.40338371E+00  0.19213611E+00
  0.60514342E+00  0.95500169E+00  0.69565530E+00
  0.86931998E+00  0.62584458E+00  0.94384618E+00
  0.35842691E+00  0.91070446E-01  0.45280114E+00
  0.86492688E+00  0.36910138E+00  0.53973443E+00
  0.37461587E+00  0.90435932E+00  0.50719562E-01
  0.15853493E+00  0.96844546E-01  0.55830199E+00
  0.64131389E+00  0.63639470E+00  0.46474135E-01
  0.15442471E+00  0.90640921E+00  0.95090653E+00
  0.61800881E+00  0.36670170E+00  0.44984972E+00