Na88 Sn16 P8 Se96                       
   1.00000000000000     
    14.0793397336999995    0.0000000000000000    0.0000000000000000
     0.0000000000000000   14.0793397336999995    0.0000000000000000
     0.0000000000000000    0.0000000000000000   28.1586794673000007
   Na   Sn   P    Se
    88    16     8    96
Direct
  0.0477831778806945  0.9947986012683112  0.1387858485838096
  0.4848731891096129  0.5168660679766821  0.6194061405169690
  0.5092918362614706  0.4847012483575390  0.8561441406208121
  0.0340818052608638  0.9948880756895211  0.3809953140908868
  0.4763256952422998  0.0481320637846637  0.8748042807269866
  0.0313830630744128  0.4974839002962979  0.3818036948120062
  0.0044295408241957  0.5094678382959291  0.1485978925065717
  0.2445432950306989  0.2459459883259261  0.1129955576705287
  0.7254112976802691  0.7357007544098425  0.6176163523755958
  0.7419471784665582  0.2722592476805095  0.8870701158113066
  0.7632918249834743  0.7435040176467658  0.3688904466096936
  0.2605200827979470  0.2495545044591183  0.8911074977753670
  0.7728266718439638  0.2536272092151903  0.1296017985165295
  0.2347498387528711  0.7544187016648526  0.7396906700431287
  0.9982759605528574  0.0115721835807409  0.8756132580461110
  0.5084400723450289  0.4829780167603802  0.3699708220801341
  0.7534320125009114  0.9692338141926594  0.6123551301304188
  0.9728687493276226  0.4767815943493809  0.6291668701119038
  0.5275757519251573  0.9960265924159259  0.1235173257644730
  0.0250383898963887  0.5079574601600603  0.8702641437511109
  0.4960878040976294  0.0032763645397256  0.3704374267704096
  0.2962727718407548  0.2456838350010425  0.3756708832120468
  0.7586073488256255  0.7596244455762010  0.8748585084300909
  0.7329765379638659  0.2467437114893519  0.6251388173195599
  0.2649750186852204  0.7264387082763170  0.1239044830421761
  0.2384535071552071  0.2888096869067948  0.6312126980274332
  0.7512720267416787  0.7752186449426530  0.0988492061092975
  0.7566087348997006  0.2031705037424353  0.3904415007714501
  0.5083807389355831  0.7182025695544416  0.4999895547834249
  0.4986003063634759  0.5154211467241530  0.9854608328919878
  0.0191140376434257  0.5853100179752582  0.5028519715935782
  0.4529417616813629  0.7615780879284997  0.7340693987508202
  0.0048293384574097  0.7068948475096980  0.2565958126533921
  0.9942089141448801  0.2516712055689623  0.7507780716366760
  0.9924826353302101  0.9862306443846741  0.9987334267116639
  0.5113572097998292  0.2347226599409626  0.4896052619077864
  0.5031238540895050  0.7528480421184613  0.0060081942031285
  0.4903779427789865  0.2407888506161999  0.2540997264921577
  0.0160864942766734  0.7577416884663689  0.7719823174312049
  0.4703824507045374  0.7220865644604779  0.2489014032013872
  0.0347834158507108  0.0039193452980984  0.2522434917368205
  0.5122131085777394  0.4737111624894169  0.7308692518604187
  0.4511465698339328  0.0381979509861184  0.7497038610663065
  0.0002553106720596  0.4549455699856658  0.2618172609850286
  0.5198302943673865  0.2649919693600490  0.9985386746401156
  0.7659244918199722  0.7180091309074735  0.4898206043593119
  0.2539930429875307  0.7808992075835216  0.5054768699051476
  0.7502917579595703  0.2812096375218993  0.0056253243749041
  0.9544145995185049  0.0085184548867400  0.7184533906649344
  0.5063450878776178  0.4940427313643911  0.2453526037287778
  0.9978637547143732  0.4991264311101651  0.7490736029713105
  0.5205995648572429  0.9674234278226272  0.2533956860462571
  0.2378523751469840  0.2758301448610812  0.5071346991684945
  0.7399897541943617  0.7841773229986845  0.9945080308066878
  0.7347910123921568  0.2219098237126272  0.5057795456079235
  0.2131202721240592  0.7425004566386550  0.0007939316829437
  0.0116690198709282  0.2324199248667982  0.0053854208448953
  0.5209322770183756  0.4583343609124431  0.5039974004454058
  0.5104658680069006  0.5086927280137250  0.1135989159833388
  0.9944797840232457  0.9244958550508051  0.5110935474174650
  0.5033247469983774  0.9906582256644475  0.0011144611040893
  0.0256059674659223  0.2871779406021349  0.5044881410163439
  0.0012263234265525  0.5326225400232835  0.0113453057389152
  0.5262180977031322  0.9667299991677545  0.4996626150207671
  0.2412564811756642  0.2316319299518679  0.2624756905658543
  0.7193335457685608  0.7504759869240095  0.7523396507452268
  0.2453232782914504  0.7436782900790495  0.3614997835229354
  0.2239739588901599  0.2626777211384323  0.7513518253754607
  0.7629717985274900  0.7560617559778143  0.2520846731160435
  0.7364826626453098  0.2473600745343353  0.7541179151646727
  0.8019650510737224  0.2565750229707507  0.2575949907806225
  0.2464855254208370  0.7459815178748463  0.8673240067328483
  0.2444606218355290  0.4587926315886792  0.1233110137296830
  0.4576021611893841  0.9928480767695406  0.6282872007931899
  0.7107762490486943  0.0217548198711371  0.8695804751841997
  0.2769201875027152  0.4998248532997344  0.3697243654320418
  0.2810841502707794  0.4979750909948381  0.8777522998991316
  0.7584952514335287  0.9595984560112937  0.3609580903698515
  0.7744757525517793  0.0122239098729723  0.1316055344752360
  0.2420160306716961  0.5920207927160736  0.6292883283020939
  0.7709588181205432  0.5185420890726082  0.8825340186740654
  0.2744172156090435  0.9915348748078288  0.3678319202086328
  0.7389545089916852  0.4816782523435168  0.6192112957729494
  0.2732961808962496  0.9834557942432132  0.1171377156150581
  0.1838732637509951  0.9920522604524261  0.6304186237125076
  0.7404405994785386  0.5348665336617453  0.1230785703601605
  0.2385298210056272  0.9960875391613007  0.8728676123906770
  0.7812200619558882  0.4501532934606743  0.3688320969807281
  0.2747956907779233  0.9721955407509272  0.2446816762401935
  0.7520877356053454  0.5057382430355302  0.7481516460178311
  0.2054107380159727  0.0265373868880224  0.7542113918912143
  0.7365986695918422  0.5089877424193415  0.2451195052882570
  0.2554188412262671  0.9815512409105426  0.9966795123529772
  0.7788395543471334  0.4629446241612306  0.5008658488519330
  0.2579290937923225  0.0339476994833566  0.5082322429490772
  0.7515238714679398  0.5415609498664525  0.0028934694074623
  0.6955488368332899  0.0096412250836609  0.7516205292060553
  0.2408360580472634  0.4811051105933550  0.2461159136092913
  0.2684566287309288  0.5135942603004267  0.7551186844855752
  0.7977945996064056  0.9956065375582758  0.2481589507492997
  0.2597850899043750  0.5256269362665585  0.4991133097620477
  0.7464599956220859  0.0335933973637677  0.0048658225152238
  0.7694567801778477  0.9759005709639870  0.4877653085461534
  0.2473140393503316  0.4592687642230643  0.9974772038686178
  0.0250855292596276  0.2411587557761603  0.3790430272128708
  0.4945505813025914  0.7593134580633465  0.8654765936809860
  0.4990157598558747  0.2485200316905610  0.6215817114420421
  0.0057942212069620  0.7518674591518215  0.1207315517700200
  0.9999462113848923  0.2623791261302811  0.8765424145610123
  0.5214641374540904  0.7363180683091121  0.3707860421954959
  0.9812316404502385  0.7463375417835629  0.6251944514376130
  0.5242782926181450  0.2474350296888344  0.1232984622263614
  0.1341999650187093  0.3785918902604445  0.0537626555709932
  0.6754931572039206  0.8558825877442272  0.5420720641639224
  0.6301919749182782  0.1241759076432042  0.9518921375971852
  0.1685566478862457  0.6236773945160015  0.4382815443085231
  0.3602241190306070  0.3720060482421829  0.9439089348464628
  0.8670664707411104  0.8714237106527825  0.4349068653751348
  0.8655546866143482  0.1238635801200978  0.0552579914862584
  0.3711076399984712  0.6131766531475474  0.5478998979727155
  0.8974596669935375  0.1094312426954622  0.2066290343093908
  0.3700443273599013  0.6149852958549905  0.7017883157164426
  0.8993637279918690  0.8941667743637965  0.3020103870360437
  0.3477800789066581  0.3854091828235380  0.8046664433510269
  0.1444266726334482  0.5799166654025444  0.3055436264587132
  0.6101358624562015  0.1213462637774530  0.8030606730849075
  0.1252031471653487  0.3756846525240596  0.1976856687523860
  0.6017142380581287  0.8928477855648086  0.6993202185542513
  0.8676091727717129  0.6363585904407382  0.9491149067412310
  0.3683629612693390  0.1232063678722824  0.4559553797729881
  0.8662011724552315  0.3653846400356426  0.5647820883063187
  0.3557982285273533  0.8704616546034861  0.0425008481551765
  0.1408081037505725  0.1313868601573346  0.5533398626370423
  0.6417843601030504  0.6244807400405765  0.0583520332172906
  0.1462710350035918  0.8909356161646732  0.9375698718019643
  0.6700677007653416  0.3605789008330185  0.4459340997844925
  0.6536916892921925  0.3885840983477437  0.2932415834096284
  0.1047594814722431  0.9140826295147929  0.8049199456368888
  0.1123954154289716  0.1243514399274928  0.6967469269552802
  0.6285795029390806  0.6152663946920420  0.1937098019132222
  0.8653992071660762  0.3834234214238765  0.7113308342915937
  0.3871769715552241  0.8779913577453601  0.1858563893677648
  0.3887322834259787  0.0788003216895055  0.2976601625678175
  0.8623590937243560  0.6141240644730739  0.7987262958311639
  0.1382937451990648  0.0727571903550832  0.0502006511026144
  0.6542949496576479  0.5754688754355833  0.5367029542406025
  0.6419712725819214  0.4321931901728803  0.9487191153710458
  0.1610317462004993  0.9425511577819925  0.4511467304014377
  0.3505910353677880  0.0985261546917446  0.9553350984032164
  0.8642790127259402  0.5575454713716080  0.4420323843353751
  0.8535624440709999  0.4369761064559418  0.0514650371526942
  0.3610707296101973  0.9143040268069217  0.5510718112125531
  0.2014254992057529  0.0968374658900990  0.1914581700129392
  0.6517116233671403  0.5964057194216392  0.6905402825020560
  0.1693058216278262  0.8906251045354306  0.2994273398124211
  0.6529277397363332  0.3975879678650678  0.8086675439002253
  0.8544552743516924  0.5898562177850961  0.3006966323663893
  0.3207900421079438  0.1241495268412871  0.8074149587995534
  0.8410133719352577  0.4091023417573944  0.1902944760736511
  0.3029621230052613  0.9137006203009097  0.6946067923217286
  0.8377714232983815  0.9405098468376514  0.9459051513591560
  0.3598497772154128  0.4055995926339318  0.4544038844599894
  0.8491425898923736  0.0884796315020460  0.5443737185281655
  0.3507429504030535  0.5608579278696351  0.0530969348734833
  0.1474861075775199  0.4266630990411812  0.5544807867798585
  0.6480919536348783  0.9178301601141970  0.0513047272864878
  0.1612934666724946  0.5744072898463825  0.9453340169717594
  0.6405365820821386  0.0702941184880327  0.4442481256281334
  0.3509096365167635  0.3827166177819697  0.3027906442140701
  0.8112416637224986  0.9144213411049097  0.7963206204565455
  0.7906379384153572  0.1018759199965975  0.6859276610334311
  0.3509361352283000  0.5786731158790152  0.1976219042871089
  0.1589691683331932  0.4144734517617000  0.6994144943686611
  0.6810330594110737  0.8916488768328782  0.2034173943784421
  0.6956323727908917  0.1016802363252600  0.2999046301567332
  0.1544063482767483  0.6205678301308956  0.7964811054622492
  0.1161251484032961  0.1420020014026245  0.3360364666839324
  0.5917442904983995  0.6715527020096297  0.8217078192063442
  0.5833373800149525  0.3554156265227355  0.6628711905026966
  0.0935955709465553  0.8146946799747009  0.1774154278769526
  0.3862690197028323  0.1756551003234517  0.6685819418008311
  0.8827128634736809  0.6699100513907008  0.1542666060242121
  0.9252589687240906  0.3211627166953656  0.3310300560978091
  0.3945487318596314  0.8550243224332325  0.8209618258088509
  0.0859470539246362  0.1646043064808095  0.9177478296094584
  0.6109674134153790  0.6535532788580003  0.4235702472250495
  0.1017261576632518  0.8152064310250177  0.5862886765805981
  0.6180901062675057  0.3578871323707142  0.0864459552454544
  0.9009582175785077  0.6407293667275887  0.5806721759665404
  0.4439420805035837  0.1500886567655660  0.0772131070887744
  0.9108402406954865  0.3576534599352282  0.9226168967348982
  0.4280224484218263  0.8365000492067840  0.4092876322283757
  0.8831636999204371  0.8415823180876241  0.6649856811103965
  0.4292080728156516  0.3416188358644217  0.1666698414250345
  0.9132023142940811  0.1727218924832258  0.8300861218105267
  0.4241561763662411  0.6429566166311206  0.3280106449416965
  0.1050710269288758  0.3416085526636973  0.8329465161591937
  0.5973458255119942  0.8196328420215475  0.3150008117236490
  0.0514802553208060  0.6611649948078402  0.6809032982844813
  0.6160292884316243  0.1582585370410346  0.1704902148140484
  0.4164481256902571  0.3425279559440316  0.5742228289428544
  0.9433699764330279  0.8490718070313417  0.0726023281097010
  0.9376957360973640  0.1609437677996736  0.4312908126939975
  0.4096459984171100  0.6584865884380213  0.9079794325715219
  0.1232318111478058  0.3379202590611219  0.4188039676578899
  0.5795067262299326  0.8511289981731126  0.9147446022977667
  0.5853657555328601  0.1308746792405954  0.5849588351730592
  0.0968324873453705  0.6593996569946915  0.0821211757856891
 
  0.69641831E-02  0.76726016E-02 -0.13464285E-02
  0.75503167E-02  0.39506429E-02 -0.20635027E-02
 -0.24247780E-02  0.62536398E-02 -0.17606615E-02
  0.26074575E-03 -0.74188437E-02 -0.67820631E-02
 -0.49333370E-02 -0.33922437E-02  0.44739049E-03
  0.14729795E-02 -0.13946518E-02 -0.83846357E-02
  0.43462595E-02  0.52188013E-02 -0.83166544E-03
 -0.14843353E-02 -0.34143579E-03 -0.48918186E-02
 -0.68691598E-02  0.47023154E-03 -0.50450408E-02
  0.18638561E-02 -0.14261352E-02  0.29851259E-02
  0.23424376E-02 -0.31179092E-02  0.38786728E-02
  0.54163592E-03 -0.97820193E-03  0.50373617E-02
 -0.10795440E-01  0.13483747E-02  0.26874668E-02
 -0.41197149E-02 -0.34038900E-02  0.36101386E-02
  0.90889412E-03 -0.11651372E-01  0.41623497E-02
  0.45213880E-02  0.50546818E-02  0.30115079E-02
 -0.11262310E-02  0.40203105E-02  0.23562272E-02
 -0.94570113E-03 -0.73341628E-02  0.41883393E-02
  0.62021197E-03 -0.64993961E-03  0.15696686E-03
  0.13630076E-03 -0.34152277E-02  0.15885679E-02
 -0.44192178E-02 -0.11320624E-02  0.75772898E-02
 -0.66375411E-02 -0.10395494E-02  0.21739092E-02
  0.16031131E-02 -0.16912327E-02  0.10508310E-02
  0.56584425E-02 -0.66695714E-03  0.46262767E-02
 -0.49806199E-02  0.90073870E-03  0.92794758E-02
 -0.31579627E-02  0.18343624E-02  0.50393810E-02
  0.64060768E-02  0.26921520E-03 -0.18458498E-02
  0.85161413E-03  0.87645158E-03  0.59582032E-02
  0.99620894E-02 -0.90305781E-03  0.61449430E-02
  0.74455017E-02 -0.30077200E-02  0.10284373E-02
 -0.79713654E-03  0.87522330E-03  0.78665339E-02
  0.62694145E-02  0.43506084E-02 -0.70443169E-02
 -0.22944914E-02  0.45468393E-02 -0.22343783E-02
  0.67534157E-02 -0.30029423E-02 -0.44675628E-02
  0.32516688E-02  0.41969167E-02  0.37869498E-03
 -0.10899779E-02  0.19869064E-02  0.71855686E-02
  0.45036534E-02  0.35668001E-02  0.98017108E-02
  0.60755394E-02  0.67541227E-03 -0.54042511E-02
  0.52682519E-02 -0.19694046E-02  0.53914290E-02
 -0.72578441E-02 -0.18370580E-02  0.80129874E-03
 -0.23084641E-02 -0.34413851E-02 -0.21650680E-02
  0.18804155E-02 -0.54050880E-02 -0.13628313E-02
  0.30639344E-02  0.19452479E-02  0.47273310E-03
 -0.19293091E-02  0.40363384E-02 -0.47038154E-02
  0.46239983E-02  0.95089181E-02  0.68118069E-03
 -0.27217080E-03  0.29405607E-02 -0.48454128E-02
  0.81206073E-02  0.12739355E-02  0.13969665E-02
 -0.22354597E-02 -0.60918229E-02  0.41805639E-02
 -0.35919498E-02  0.16938584E-02  0.51121691E-02
  0.70856209E-02 -0.47221261E-02 -0.18745186E-02
  0.17291341E-02  0.37136081E-04 -0.56064840E-02
 -0.11338454E-02  0.16055833E-02 -0.43324398E-02
 -0.22760305E-02 -0.16088751E-02  0.11289785E-02
 -0.40713282E-02  0.60089312E-02 -0.54849754E-03
  0.81959483E-03 -0.22994104E-02 -0.32659437E-02
 -0.16638727E-02 -0.30181042E-02  0.24248119E-02
  0.32354720E-02  0.37554139E-02  0.12821719E-02
  0.16308390E-02  0.41949515E-02 -0.38635247E-02
 -0.81590090E-02 -0.76276925E-02  0.44321731E-02
  0.54847789E-03  0.24661777E-02 -0.81372704E-03
 -0.21547251E-02 -0.35280760E-02 -0.15557647E-02
 -0.67532428E-03 -0.15608732E-02 -0.27743122E-02
 -0.43170263E-02 -0.48627221E-02 -0.13391362E-02
  0.77524805E-04  0.24756217E-02  0.42729691E-02
  0.14974978E-02  0.31030206E-02 -0.72255265E-02
  0.21468448E-02  0.72596207E-02  0.46724713E-02
  0.13435120E-01 -0.37765395E-02 -0.11605123E-01
  0.45096078E-02  0.12719450E-02  0.84530815E-03
 -0.29379527E-02  0.23586163E-02 -0.80671036E-02
  0.16270881E-02 -0.30467340E-02 -0.30777599E-02
 -0.60357277E-02 -0.18571999E-02  0.61069101E-02
 -0.49242938E-03 -0.10198010E-02 -0.50312721E-02
 -0.23468336E-02  0.48386067E-02  0.11422974E-01
  0.61813901E-02  0.13925467E-01 -0.10172309E-03
 -0.63780517E-02  0.47173961E-02 -0.38051336E-02
 -0.62660728E-02  0.29237858E-02 -0.15423852E-02
 -0.24286361E-02 -0.35011969E-02 -0.39573025E-02
 -0.22660868E-02 -0.28219706E-02  0.67891004E-03
 -0.24994213E-02  0.20922859E-02 -0.11468324E-02
  0.79469792E-03 -0.19152900E-03 -0.64479139E-02
  0.51038411E-03  0.33927334E-02  0.25559177E-02
 -0.48899452E-02 -0.17060132E-02 -0.11576980E-02
 -0.24909535E-02 -0.29832783E-02  0.15493753E-02
  0.17833821E-03  0.19350791E-03 -0.10420340E-02
  0.63883413E-03 -0.11234744E-02 -0.16262361E-02
 -0.60172586E-03  0.19884155E-02 -0.46648162E-02
 -0.28756578E-02  0.28962148E-02 -0.45528603E-02
 -0.37720546E-02  0.10143811E-02 -0.13593408E-03
  0.35062169E-03 -0.75840932E-03  0.11600473E-02
 -0.22553794E-02 -0.34506680E-02  0.35382732E-02
 -0.34658130E-02 -0.73444742E-03 -0.32496818E-02
  0.30590263E-02  0.22024973E-02 -0.11927163E-02
 -0.16326177E-02 -0.28507233E-02 -0.95590322E-04
  0.19673277E-03 -0.25269875E-02 -0.61430022E-03
 -0.79592145E-03  0.61530819E-03  0.11219256E-02
  0.14977126E-02  0.43218111E-02  0.30833026E-02
 -0.11915352E-02 -0.22182571E-03 -0.67740048E-03
  0.96152276E-03  0.21182272E-02 -0.21760348E-02
 -0.14958658E-02  0.21208142E-02 -0.29364027E-02
 -0.43620207E-03 -0.26506333E-02  0.18302088E-02
  0.15563517E-02 -0.19187852E-02 -0.31748310E-02
 -0.65960191E-03  0.21501186E-02  0.66491955E-03
 -0.28255641E-02  0.87669591E-03  0.42291689E-03
 -0.74488563E-03  0.14683561E-02  0.11328040E-02
 -0.10408895E-02 -0.55324811E-03  0.48828526E-03
  0.45798786E-02 -0.27620588E-02 -0.16835983E-03
 -0.16627242E-02 -0.15387976E-02 -0.16868563E-02
 -0.15006128E-02 -0.27124636E-02  0.24905351E-02
 -0.14923387E-02  0.32797663E-03 -0.45583706E-02
 -0.69798754E-03 -0.11064959E-02 -0.76182460E-02
 -0.31801463E-02 -0.19223510E-02  0.34787661E-02
 -0.19634835E-02  0.33599449E-02  0.77004239E-03
  0.48113826E-03 -0.17129522E-02  0.27947541E-02
  0.28748293E-02 -0.11344350E-02  0.70605785E-03
 -0.64071526E-03 -0.26735248E-02 -0.37680168E-02
  0.19705176E-02  0.25787975E-02 -0.24208368E-02
  0.25222367E-02 -0.52793524E-02 -0.33488100E-02
  0.23268891E-03 -0.37894058E-02  0.10687792E-02
  0.49099105E-03 -0.81144399E-03 -0.41709478E-02
 -0.56393785E-02  0.17073793E-04 -0.36289153E-02
  0.21386697E-02  0.54433841E-02  0.18896556E-02
 -0.88270689E-03 -0.14156126E-02 -0.47220147E-03
 -0.12304788E-02  0.16162615E-02  0.26223288E-02
 -0.35659724E-02 -0.17335838E-02  0.13447712E-02
 -0.68174371E-03  0.14396356E-02 -0.95156445E-03
  0.31596212E-03  0.16405189E-02 -0.51334336E-03
 -0.49632243E-03  0.21391481E-02  0.63099302E-04
 -0.57468356E-02 -0.16820388E-02  0.18660520E-02
 -0.25271835E-02 -0.13773630E-02  0.86865286E-03
 -0.38174606E-03 -0.16940470E-02 -0.97624193E-03
 -0.35665086E-02  0.30903699E-02 -0.17126700E-02
  0.10554840E-03  0.27484686E-02  0.95616640E-03
 -0.46787928E-03  0.92007304E-03 -0.22926997E-02
  0.40384316E-02  0.61610256E-03 -0.78021986E-03
  0.20622818E-02  0.17372581E-02  0.15811127E-04
  0.47759115E-02 -0.11531674E-02 -0.44517173E-02
 -0.71802923E-03 -0.25454397E-02 -0.21869129E-02
 -0.52592521E-03 -0.14161392E-02  0.77258986E-02
  0.53964399E-04  0.13344878E-02  0.20026956E-02
  0.68330565E-04  0.92440090E-03 -0.31177385E-02
 -0.11161142E-02  0.15433240E-02 -0.43058247E-02
  0.19871228E-03 -0.18386440E-02 -0.98281883E-04
  0.36337432E-02 -0.29247495E-02  0.53293390E-04
 -0.18802524E-02 -0.11807656E-02  0.63010860E-03
 -0.15822930E-03 -0.32186327E-02  0.55370350E-03
  0.29043566E-02  0.35663038E-02  0.18376671E-02
 -0.31503494E-02 -0.24453478E-02 -0.43027950E-02
 -0.10635314E-02 -0.13378222E-03  0.14433194E-02
 -0.21334102E-02 -0.34086540E-02 -0.81265779E-03
  0.33166948E-02  0.86364884E-03  0.15401103E-02
  0.90105936E-03 -0.43486127E-02 -0.47826440E-02
 -0.30730989E-03 -0.40866839E-03  0.61863032E-03
  0.64577289E-03 -0.61824495E-03  0.26074352E-02
  0.33659833E-02 -0.18083560E-02  0.35912653E-02
  0.60844363E-02 -0.50047939E-03  0.21619187E-03
  0.30638002E-02  0.36349346E-02 -0.26232625E-02
 -0.17067177E-02  0.40167447E-02 -0.24020688E-02
 -0.70214457E-03  0.31708663E-03 -0.23611527E-02
 -0.83017019E-03 -0.18860938E-02  0.28395928E-02
 -0.12994923E-02  0.51769412E-02  0.21459873E-02
 -0.41413267E-02 -0.34979389E-02 -0.11293019E-02
 -0.31520091E-02 -0.72416038E-03 -0.19088688E-02
 -0.14385785E-02 -0.30117850E-02 -0.14549630E-02
  0.45018329E-02 -0.28246040E-02 -0.11260928E-02
 -0.12925977E-03  0.67335628E-03  0.72928009E-03
  0.18098849E-02 -0.15985733E-02 -0.23156118E-03
  0.35773199E-03 -0.36793537E-03  0.14939158E-02
 -0.88766975E-03 -0.36307581E-02 -0.24355891E-02
 -0.70662489E-03  0.12699825E-02 -0.76178664E-03
  0.44668099E-02 -0.37146311E-02 -0.12002258E-02
 -0.12344916E-03  0.10179303E-02  0.18260115E-02
 -0.19425453E-02  0.19199301E-02 -0.48878986E-02
  0.79213729E-03 -0.34164618E-02 -0.15182505E-02
 -0.89750357E-03 -0.27169586E-02  0.21816611E-02
  0.14484463E-02  0.13321061E-02  0.31703019E-02
 -0.34476243E-02 -0.23220064E-03 -0.13514461E-02
  0.21346951E-02 -0.98446134E-03 -0.68889763E-03
 -0.83519074E-03  0.98788123E-03 -0.10050322E-02
  0.42687773E-02  0.39121324E-02 -0.87112544E-03
 -0.43795110E-02  0.57411270E-03  0.16561873E-02
 -0.28403378E-02  0.47516212E-03 -0.30415259E-02
 -0.45301556E-02  0.35164034E-02  0.26144933E-02
 -0.94970084E-03  0.28544509E-02  0.44144074E-04
 -0.26918552E-02 -0.31928386E-02  0.47720543E-02
  0.43104951E-02  0.36576076E-03 -0.21157246E-03
  0.29417905E-03 -0.30948553E-02  0.27839545E-02
  0.77360716E-03 -0.37839322E-03 -0.11671935E-02
 -0.19888053E-02 -0.22334521E-02  0.25518619E-02
  0.40105870E-02  0.37271868E-02  0.58627160E-03
 -0.28339106E-02  0.34849384E-02  0.84221635E-03
 -0.15265121E-02  0.18389620E-02 -0.78196287E-03
  0.12792357E-02 -0.60963149E-03  0.49699211E-02
  0.62850776E-03  0.37578430E-02  0.87234224E-03
  0.12237010E-02 -0.83056595E-03 -0.96395980E-03
  0.16812818E-02  0.12958560E-02  0.11701717E-02
 -0.18019315E-03 -0.32812410E-03 -0.81652618E-03
 -0.28144358E-02 -0.70318835E-03 -0.16463810E-02
  0.49859286E-03  0.25283989E-02  0.79365537E-03
 -0.10436152E-02  0.32027671E-02  0.14131409E-02
 -0.67587871E-03  0.21382017E-02  0.11407414E-02
  0.17187332E-02  0.48105685E-04  0.69540875E-03
  0.81491073E-03  0.17189974E-02  0.29822531E-02
  0.20197641E-02  0.36133371E-03 -0.17773369E-02
 -0.75202159E-03 -0.20761758E-02  0.15610259E-02
  0.36567102E-02 -0.70443005E-03  0.12720949E-02
  0.25175843E-02  0.70446684E-03  0.18350436E-02
 -0.12271011E-03 -0.85413233E-03  0.18541531E-02
  0.50590967E-02 -0.21627617E-03  0.25215646E-02
 
           1
   2.00000000000000     
  0.90790352E+00  0.26084469E-03  0.00000000E+00  0.00000000E+00
  0.48772455E-01  0.99588851E+00  0.13869022E+00
  0.48594573E+00  0.51742727E+00  0.61925958E+00
  0.50894739E+00  0.48558959E+00  0.85601909E+00
  0.34118845E-01  0.99383421E+00  0.38051361E+00
  0.47562490E+00  0.47650188E-01  0.87483606E+00
  0.31592303E-01  0.49728579E+00  0.38120817E+00
  0.50469362E-02  0.51020918E+00  0.14853882E+00
  0.24433244E+00  0.24589749E+00  0.11264811E+00
  0.72443552E+00  0.73576755E+00  0.61725802E+00
  0.74221194E+00  0.27205666E+00  0.88728214E+00
  0.76362457E+00  0.74306111E+00  0.36916593E+00
  0.26059702E+00  0.24941555E+00  0.89146528E+00
  0.77129316E+00  0.25381875E+00  0.12979268E+00
  0.23416462E+00  0.75393517E+00  0.73994708E+00
  0.99840507E+00  0.99170815E-02  0.87590889E+00
  0.50908235E+00  0.48369605E+00  0.37018472E+00
  0.75327203E+00  0.96980491E+00  0.61252248E+00
  0.97273441E+00  0.47573976E+00  0.62946435E+00
  0.52766385E+00  0.99593427E+00  0.12352847E+00
  0.25057752E-01  0.50747232E+00  0.87037697E+00
  0.49546004E+00  0.31155527E-02  0.37097561E+00
  0.29532990E+00  0.24553616E+00  0.37582529E+00
  0.75883507E+00  0.75938420E+00  0.87493314E+00
  0.73378033E+00  0.24664897E+00  0.62546740E+00
  0.26426751E+00  0.72656666E+00  0.12456357E+00
  0.23800491E+00  0.28907026E+00  0.63157063E+00
  0.75218202E+00  0.77525689E+00  0.98718103E-01
  0.75672971E+00  0.20329501E+00  0.39086469E+00
  0.50979587E+00  0.71807429E+00  0.50042601E+00
  0.49965796E+00  0.51499389E+00  0.98553388E+00
  0.19000803E-01  0.58543435E+00  0.50341070E+00
  0.45383235E+00  0.76219610E+00  0.73356907E+00
  0.45034011E-02  0.70754074E+00  0.25643711E+00
  0.99516825E+00  0.25124463E+00  0.75046076E+00
  0.99294454E+00  0.98682683E+00  0.99876032E+00
  0.51120238E+00  0.23500490E+00  0.49011562E+00
  0.50376361E+00  0.75335471E+00  0.67043711E-02
  0.49124099E+00  0.24088479E+00  0.25371588E+00
  0.16834861E-01  0.75746193E+00  0.77236525E+00
  0.46935146E+00  0.72182561E+00  0.24895832E+00
  0.34455494E-01  0.34304893E-02  0.25208972E+00
  0.51248023E+00  0.47294336E+00  0.73077246E+00
  0.45158181E+00  0.38474278E-01  0.74973744E+00
  0.99998125E+00  0.45551894E+00  0.26148317E+00
  0.52048714E+00  0.26634273E+00  0.99858706E+00
  0.76588583E+00  0.71842684E+00  0.48947645E+00
  0.25514659E+00  0.78108017E+00  0.50557609E+00
  0.74997421E+00  0.28034428E+00  0.59222533E-02
  0.95390436E+00  0.87590711E-02  0.71881649E+00
  0.50735162E+00  0.49337194E+00  0.24521946E+00
  0.99810938E+00  0.49913171E+00  0.74867540E+00
  0.52043850E+00  0.96765150E+00  0.25308797E+00
  0.23752906E+00  0.27560160E+00  0.50721489E+00
  0.73941141E+00  0.78503090E+00  0.99446907E+00
  0.73490744E+00  0.22158319E+00  0.50554758E+00
  0.21288392E+00  0.74207173E+00  0.96615651E-03
  0.12128626E-01  0.23295339E+00  0.54764885E-02
  0.52116394E+00  0.45893026E+00  0.50372299E+00
  0.50930686E+00  0.50760920E+00  0.11391372E+00
  0.99455770E+00  0.92484618E+00  0.51103575E+00
  0.50301866E+00  0.99015706E+00  0.10039613E-02
  0.25510036E-01  0.28695622E+00  0.50429109E+00
  0.61308071E-03  0.53193178E+00  0.11250192E-01
  0.52622911E+00  0.96708167E+00  0.49996611E+00
  0.24146920E+00  0.23207272E+00  0.26196249E+00
  0.71963851E+00  0.75150723E+00  0.75267152E+00
  0.24723177E+00  0.74314182E+00  0.36067552E+00
  0.22461456E+00  0.26285840E+00  0.75141186E+00
  0.76255446E+00  0.75639680E+00  0.25151170E+00
  0.73671379E+00  0.24692728E+00  0.75389931E+00
  0.80110766E+00  0.25631120E+00  0.25802874E+00
  0.24641557E+00  0.74583665E+00  0.86696666E+00
  0.24412725E+00  0.45947997E+00  0.12412234E+00
  0.45848024E+00  0.99482622E+00  0.62827998E+00
  0.70987023E+00  0.22424936E-01  0.86931021E+00
  0.27603008E+00  0.50024018E+00  0.36961482E+00
  0.28073916E+00  0.49747774E+00  0.87747123E+00
  0.75817335E+00  0.95919759E+00  0.36100631E+00
  0.77412070E+00  0.12521124E-01  0.13152408E+00
  0.24212892E+00  0.59199359E+00  0.62883036E+00
  0.77103132E+00  0.51902403E+00  0.88271556E+00
  0.27372259E+00  0.99129253E+00  0.36774969E+00
  0.73860066E+00  0.48125447E+00  0.61932134E+00
  0.27332151E+00  0.98348328E+00  0.11706370E+00
  0.18396401E+00  0.99189267E+00  0.63030312E+00
  0.74035512E+00  0.53514899E+00  0.12274725E+00
  0.23812133E+00  0.99649895E+00  0.87254424E+00
  0.78068423E+00  0.45029739E+00  0.36882244E+00
  0.27484550E+00  0.97208781E+00  0.24476407E+00
  0.75176735E+00  0.50524807E+00  0.74840296E+00
  0.20491841E+00  0.26433057E-01  0.75398058E+00
  0.73703321E+00  0.50930061E+00  0.24503479E+00
  0.25518692E+00  0.98114629E+00  0.99667272E+00
  0.77886750E+00  0.46258566E+00  0.50082222E+00
  0.25781603E+00  0.34035105E-01  0.50831193E+00
  0.75173662E+00  0.54217487E+00  0.31124642E-02
  0.69537958E+00  0.96097143E-02  0.75157242E+00
  0.24097264E+00  0.48140601E+00  0.24596136E+00
  0.26824414E+00  0.51389553E+00  0.75491012E+00
  0.79773264E+00  0.99523001E+00  0.24828894E+00
  0.26000617E+00  0.52535437E+00  0.49888781E+00
  0.74636630E+00  0.33898826E-01  0.49130491E-02
  0.76905540E+00  0.97602511E+00  0.48779535E+00
  0.24720823E+00  0.45947735E+00  0.99755766E+00
  0.24937669E-01  0.24108017E+00  0.37907771E+00
  0.49520116E+00  0.75892110E+00  0.86546464E+00
  0.49877957E+00  0.24830144E+00  0.62146190E+00
  0.55810560E-02  0.75148215E+00  0.12090844E+00
  0.99973422E+00  0.26242572E+00  0.87621865E+00
  0.52136499E+00  0.73616089E+00  0.37024495E+00
  0.98077989E+00  0.74606447E+00  0.62544153E+00
  0.52399938E+00  0.24791232E+00  0.12335316E+00
  0.13426831E+00  0.37834856E+00  0.53961156E-01
  0.67590153E+00  0.85572144E+00  0.54212221E+00
  0.63010096E+00  0.12379613E+00  0.95162451E+00
  0.16883656E+00  0.62404372E+00  0.43810960E+00
  0.36058241E+00  0.37125611E+00  0.94367108E+00
  0.86709952E+00  0.87088542E+00  0.43498278E+00
  0.86562443E+00  0.12374831E+00  0.54961746E-01
  0.37030655E+00  0.61317908E+00  0.54764215E+00
  0.89776347E+00  0.11020449E+00  0.20676325E+00
  0.36991894E+00  0.61478421E+00  0.70175478E+00
  0.89918894E+00  0.89439637E+00  0.30219664E+00
  0.34727352E+00  0.38516292E+00  0.80476196E+00
  0.14432983E+00  0.58012117E+00  0.30547604E+00
  0.61018075E+00  0.12157930E+00  0.80302421E+00
  0.12513264E+00  0.37598852E+00  0.19769015E+00
  0.60089789E+00  0.89260885E+00  0.69945276E+00
  0.86725018E+00  0.63616293E+00  0.94917660E+00
  0.36830873E+00  0.12296572E+00  0.45588604E+00
  0.86569454E+00  0.36582363E+00  0.56466044E+00
  0.35581322E+00  0.87085208E+00  0.42568761E-01
  0.14074164E+00  0.13151756E+00  0.55317702E+00
  0.64235803E+00  0.62456826E+00  0.58296617E-01
  0.14656399E+00  0.89118240E+00  0.93757099E+00
  0.67074613E+00  0.36041509E+00  0.44561791E+00