Na88 Sn16 P8 S96                        
   1.00000000000000     
    13.4813327813000008    0.0000000000000000    0.0000000000000000
     0.0000000000000000   13.4813327813000008    0.0000000000000000
     0.0000000000000000    0.0000000000000000   26.9626655626000016
   Na   Sn   P    S 
    88    16     8    96
Direct
  0.2889909153400056  0.0177913608744337  0.1233951370820302
  0.7300305022749547  0.4762162809524627  0.6322431424887707
  0.5460496638421264  0.4997721728196007  0.7499736029534986
  0.0098133412990235  0.0551382391751092  0.5023346486236744
  0.2182220713383936  0.9709358711798496  0.8745882135187565
  0.7635557046216921  0.7343884061277602  0.3642401286196327
  0.0393252288451843  0.4742012576305371  0.1208272273708844
  0.0051633476971630  0.4878555232630778  0.2526351380326911
  0.7393141169157516  0.0042284793082766  0.6266260214340514
  0.7947837931677847  0.2651928191196533  0.9791842327666765
  0.7422651520121495  0.0014614558879052  0.3742129020140228
  0.2601696802602963  0.2306385841610051  0.8792106632763922
  0.7434726228652742  0.0161822935651623  0.1192010582910626
  0.2045148055627248  0.7651787657989136  0.7420643410337039
  0.9674505104661925  0.0301291807536702  0.7533981695691787
  0.2587192265102203  0.2732786035878778  0.3750605200797298
  0.0027285159583402  0.9931962664898407  0.6456941270319079
  0.9744727462745053  0.4697356591020160  0.6057231499600048
  0.4922767678989802  0.9403650696732115  0.1138997584808128
  0.2390639984014231  0.4765680790405910  0.8737277894158363
  0.5129601722077791  0.0078504163919925  0.2441737250657780
  0.0104610370899210  0.2329039398162289  0.2314952503513105
  0.7446298956746030  0.2690708005660668  0.8735481002119738
  0.7591478208538102  0.2403729595817333  0.6129480264631657
  0.2103411375756528  0.7331078602301846  0.0039540535558257
  0.2077835732011729  0.5706780362402739  0.6274908892401831
  0.7569298238810194  0.4652860504181114  0.1276220180458922
  0.7901910002555573  0.2726712170050098  0.3863677354879315
  0.4908275378023941  0.8249430190309053  0.5054209016215210
  0.2505979337159689  0.2411346903330009  0.9982280701961141
  0.0207742009511419  0.5181721771961424  0.3588250213290932
  0.4873294448262421  0.9995643713072202  0.7532181840653330
  0.5180082398028213  0.7476118615143736  0.2437032000558614
  0.5036743760657236  0.2568564124076503  0.7453167381711084
  0.0216923996280043  0.9889994743797836  0.1579490682441267
  0.2085983225336213  0.2765300277637797  0.5054087108441279
  0.4968397708899345  0.6867448114358690  0.0034906216010980
  0.2752148212393531  0.2549736646771045  0.2510595534545999
  0.9309797114983660  0.7422188127509076  0.7529418118355909
  0.7808757083867158  0.7351316835872226  0.2453250157004480
  0.0075812755967843  0.9676030540003314  0.3740258095756762
  0.7100158767462329  0.7466762350600158  0.7681279366895478
  0.6985581785129287  0.9751291284777643  0.8784598309115061
  0.3054380888009278  0.5638386347587968  0.3803014852129080
  0.2468982595506379  0.2577893918070167  0.7712092126909261
  0.7425760549234067  0.7457568108035462  0.5010208504774935
  0.2235877474673871  0.7774323466930523  0.5064443465399063
  0.5145816560930260  0.0289870372774220  0.0047103600528576
  0.8198811796747227  0.2458942486415361  0.7543939053389822
  0.5054986436260062  0.2436815114085921  0.2743378600992117
  0.0142944455645405  0.4943805626792485  0.8810538904702124
  0.5053680545736965  0.5165601175499328  0.2734486508595760
  0.2469610054788774  0.2354601957702294  0.6493495334625111
  0.9506033628071111  0.7588160765497467  0.9791778985200695
  0.7642694916100329  0.2268328166123646  0.4980781486738388
  0.9995887233257608  0.9790216097811858  0.0324527507581859
  0.0153300974039489  0.2510778129261122  0.0204448062668591
  0.5009751838077044  0.5398842698449792  0.4859866756869890
  0.5140394863768977  0.2577220103859642  0.9878213503078643
  0.9675662471714170  0.4558925627181263  0.4773521039920560
  0.4563925383473120  0.0457571069053774  0.8635607037689821
  0.9772266018515047  0.7859799874011701  0.5180329864847809
  0.0048692983306657  0.4697859922425863  0.9956669868982285
  0.5070898267707563  0.0588951404655770  0.5135010443533392
  0.7809890266254569  0.2494586989180122  0.2648086693540883
  0.7177350492969277  0.7339704590925392  0.9672756193718475
  0.2704179597200834  0.7564008214464457  0.2421928301111657
  0.4736722877891981  0.2809975700032392  0.4953541802436838
  0.0224059871026622  0.7836662858942828  0.2646735279369302
  0.0302446534498587  0.4274896634482439  0.7282540288879731
  0.7583772670956483  0.2372783218386840  0.1275868650533671
  0.4518169869612428  0.7258754191540675  0.7448308670366058
  0.2405235037998184  0.6956332322745415  0.1188673705479403
  0.4887881955305128  0.9750728867742248  0.6219276567454544
  0.9729711546528188  0.0005084311875392  0.8903847115408428
  0.2317843253580438  0.7668010483532555  0.3802746792178496
  0.4925256525636696  0.4679783299623863  0.8874232984182496
  0.5003630195390237  0.0358044851230534  0.3799779696992085
  0.7638763170222171  0.7648715402477344  0.1090034155059148
  0.5046880132359743  0.5013584342215595  0.5966982447200813
  0.7662919262403253  0.5508054827765124  0.8722353974345658
  0.2891233147084216  0.0198259062418137  0.3900435098092340
  0.7311388266022766  0.7704355960494722  0.6181705338760910
  0.2471418648243354  0.2587760783002881  0.1207828216406276
  0.2424466079256746  0.9787260348879209  0.6343453410774186
  0.4621184845681083  0.4974146596711810  0.1099990016447991
  0.2242778834224106  0.7111068591893801  0.8619104811660391
  0.6861507189803999  0.5057555032547206  0.3811361370772841
  0.2658005519785636  0.0047705792471790  0.2634264879426804
  0.7774421372730257  0.4946287084582706  0.7560481841517553
  0.2154522084377608  0.9982800213836629  0.7491708876722953
  0.7589357234230144  0.4975464958793968  0.2510740424450373
  0.2508505677349851  0.9706908077499369  0.9967066518550065
  0.7362754063917913  0.4739326810781990  0.5018399667673646
  0.2417357862856275  0.0429380494084789  0.5120894509137615
  0.7616824905183739  0.4884273701160019  0.0024513419371874
  0.7218916092758675  0.9894114336895922  0.7474763081892598
  0.2782081471121730  0.5046710549534601  0.2419389290501099
  0.3123212873826745  0.4965068840063182  0.7475180864268547
  0.7592601407337800  0.9937549748905842  0.2457792136039527
  0.2298126427177586  0.5281905295674563  0.4914814072783449
  0.7436278945567758  0.0095933448701340  0.9914288329055300
  0.7568328463494657  0.9935795201185692  0.4940939793805279
  0.2792203938534124  0.4922124612474375  0.9875400855322614
  0.0290425737320199  0.2358934388064650  0.3747492750304463
  0.4893840617625139  0.7414848403246372  0.8765508904563583
  0.4926166459479246  0.2518226479359121  0.6274321084848407
  0.0076037809045433  0.7310919573719953  0.1259208322055737
  0.0280834157786336  0.2510381399371441  0.8685697268380775
  0.4926751109452027  0.7723718832135652  0.3836771660807122
  0.9931817187091685  0.7400008206691118  0.6411383184685379
  0.4957897209467967  0.2249712189228500  0.1257021044072184
  0.1593358884361329  0.3880567115875891  0.0466426987046483
  0.6494863068552986  0.9039833849349618  0.5412450607354828
  0.6495852990054080  0.1240445572918855  0.9427409551658289
  0.1277419563301082  0.6300766351327345  0.4390518472919457
  0.3560607360087242  0.3662291931210070  0.9400122201236946
  0.8580351317948725  0.8839062046648054  0.4467582887207691
  0.8635905751778554  0.0982048802812224  0.0423543589815362
  0.3417878990062529  0.6291070419279776  0.5403486342124216
  0.8521304342839762  0.0908824999270206  0.1917230195912127
  0.3977558495544704  0.5851208678197118  0.6864844781732893
  0.8567309111417817  0.8914229801887971  0.2974951799046917
  0.3913266908070072  0.4023372681790409  0.8132221160659506
  0.1651343958769028  0.6193421784024823  0.2889620653634657
  0.6363768288988081  0.0932515694909882  0.7996448170602641
  0.1596736909595760  0.3858862901595644  0.1932065462268125
  0.6291349512527803  0.8754662651671359  0.6918574002316492
  0.8733080263976855  0.5942610607518636  0.9545974632123311
  0.3509103959844607  0.1522986591330955  0.4520987008855907
  0.8482068509661965  0.3848925877280118  0.5494495989313425
  0.3291736100168800  0.8598269473454430  0.0496845864698961
  0.1432434000185179  0.1237164413450246  0.5731116924793582
  0.6477985422883747  0.5943575148956853  0.0429191836196495
  0.1127009451580480  0.9025947672987087  0.9451097737661976
  0.6412488103627125  0.3712776073994063  0.4495201297814421
  0.6447300247447403  0.3759534934928337  0.3017102491408172
  0.0991067762311899  0.9015610327841264  0.7957111966378974
  0.1300249405377749  0.0936551149064618  0.6924144970994939
  0.6553392631289710  0.6002074509022380  0.1972656668090384
  0.8647471940163962  0.3981310825649006  0.6877427787237478
  0.3756434089634216  0.9181768123086546  0.2011740047550041
  0.3642960457864768  0.1061102102750515  0.3164620408786651
  0.9061410600609973  0.5535018602193470  0.8058140501895917
  0.1538438513597435  0.0872492075383742  0.0502513084881771
  0.6421372334510548  0.5999727524241736  0.5453474528456386
  0.6759954597365750  0.3956159763811318  0.9405829516922000
  0.1310036480623807  0.9387554603693499  0.4625929177204599
  0.3608455188229557  0.0844803177956499  0.9551438192903946
  0.8429437684333827  0.5766681207427048  0.4410452810671088
  0.8703036241479899  0.3849158301041261  0.0558376319972428
  0.3647193278225771  0.9487754111025939  0.5546822975465889
  0.1713229000723132  0.1022505138287834  0.2066509511308295
  0.6829568009860280  0.6136000741509675  0.7088288757205892
  0.1789493384649511  0.9050732268444932  0.3143273426844659
  0.6708099929999031  0.3883717412520567  0.8017836918011653
  0.8631577877241600  0.5985956085319882  0.2996217938784036
  0.3095523404141984  0.1002538333749015  0.8054798073700574
  0.8446970689869510  0.3846065121934627  0.2018060018510592
  0.3226192230633468  0.8911340071179527  0.7098511514119762
  0.8472169860592799  0.9044988249379317  0.9491554289802805
  0.3320820227174912  0.4158407517373202  0.4506043857787486
  0.8571920119849380  0.0790954343236661  0.5557920368163022
  0.3443264337032342  0.5979232372585100  0.0466976850945804
  0.1259432647603244  0.4375611358979108  0.5494254803636894
  0.6506237297454689  0.8969409365337390  0.0443838893577396
  0.1552533104920507  0.5838322667328492  0.9432647689984934
  0.6619509248474535  0.1289971676354117  0.4413387298159014
  0.3643430585096336  0.4055041426385090  0.3036007506717869
  0.8242794479837456  0.8963392548892609  0.8094715846442851
  0.8260235904384710  0.0972744725722954  0.6988402374873277
  0.3867659418577357  0.6020607039989652  0.1924275352906124
  0.2228828172836591  0.3841820525882335  0.6968514329107867
  0.6629651714757234  0.8793530084045367  0.1996759945886904
  0.6549553346140631  0.1005623195661706  0.3041439635857620
  0.1888638490731255  0.5974483212580990  0.7903359890437632
  0.1245840476160265  0.1573946446748170  0.3309909643483069
  0.5582445953357055  0.6525077548016320  0.8330585091099969
  0.5751918136004226  0.3465354499236119  0.6698869024527008
  0.1139996373985694  0.8074268540711294  0.1657307427600940
  0.4191174696615740  0.1404428774967744  0.6764887409838578
  0.9319494602615315  0.6444208956410870  0.1765946559069510
  0.9460372739763236  0.3350553515533857  0.3226622582839699
  0.4214110612649581  0.8359989753429531  0.8251872086091561
  0.1105144244585464  0.1543395560500673  0.9058883477180615
  0.5711770796275296  0.6842221060562123  0.4336253237219223
  0.0948807371327558  0.8357355020033246  0.6047686280230441
  0.5793818470061501  0.3211920471912567  0.0784734052923096
  0.9135957674320641  0.6640267832386607  0.5846286732813509
  0.4013068257768132  0.1391124431074328  0.0820022655579992
  0.9442962298485384  0.3302759136677330  0.9232129863132725
  0.3951668835947251  0.8641554915947046  0.4220022400459790
  0.8871446478060667  0.8230338782751361  0.6752258271032493
  0.4239050104804055  0.3052340406527574  0.1782885319513109
  0.9134655084283787  0.1622486988651017  0.8330099420477013
  0.4119167932023244  0.6997649182607401  0.3337206044320324
  0.0840254700587465  0.3415716127418303  0.8163807273410215
  0.5873222767894417  0.8446489615923222  0.3423869344937311
  0.0756943490302146  0.6482287580120177  0.6828949489232979
  0.5843685946781532  0.1229446881790537  0.1606774366915916
  0.3860386463207369  0.3222979519000299  0.5903852239357860
  0.9340217293981052  0.8404414834547081  0.0940309406052596
  0.9259374324215651  0.1389046924414571  0.4084378114180786
  0.3776336784240641  0.6606584151979182  0.9195154095755661
  0.0935100046544934  0.3380055765285391  0.4233289834977025
  0.5651882813846745  0.8252195755042282  0.9294967625371626
  0.5825766577358840  0.1741487900365616  0.5758458366906705
  0.0694985926543772  0.6508612183627798  0.0666763444151198
 
 -0.30744257E-02 -0.20809963E-02 -0.10388601E-02
 -0.88932957E-02 -0.84012988E-02  0.17088556E-02
 -0.21577315E-02 -0.24763497E-02  0.24020493E-02
  0.21823555E-02 -0.10781721E-02  0.17758041E-02
  0.11453325E-02 -0.44434856E-02 -0.69413113E-02
  0.25144765E-02  0.29109634E-02  0.24003019E-02
  0.63576132E-03 -0.67796013E-02  0.97414655E-03
  0.36287465E-02 -0.54575975E-02  0.24495881E-03
 -0.56939878E-02 -0.40694978E-02  0.42209965E-02
 -0.63093097E-02 -0.82107049E-03  0.31753546E-02
 -0.72113555E-02  0.62580902E-02 -0.27909276E-02
 -0.60476780E-02  0.87068551E-02 -0.38887934E-02
 -0.52429273E-02 -0.94351148E-03  0.24775780E-03
  0.30593369E-02 -0.42951832E-02  0.80278089E-03
 -0.66103775E-03  0.22722876E-02 -0.11848662E-02
 -0.18896804E-02 -0.70743178E-03 -0.21128947E-02
 -0.19768754E-02  0.32275994E-02  0.63431832E-02
 -0.28876982E-02  0.18226665E-02  0.15834144E-01
 -0.33558950E-02  0.60480789E-02 -0.48938375E-02
 -0.28210124E-02  0.36840049E-02 -0.13175548E-02
  0.61719663E-02 -0.40622424E-02 -0.17988528E-02
 -0.25275571E-02 -0.27575586E-02 -0.40892278E-02
 -0.24278358E-02  0.20725065E-02 -0.20450170E-04
  0.22112473E-02 -0.50605966E-03 -0.32785454E-02
 -0.63609040E-02  0.11212458E-01 -0.62542365E-02
  0.48871961E-02  0.75296204E-03  0.38336602E-02
 -0.23762309E-02  0.49876921E-02 -0.22049263E-02
  0.38103700E-02  0.42855898E-02  0.18416815E-02
 -0.26152576E-02  0.72850608E-03  0.14774107E-02
 -0.17271545E-02 -0.41800952E-02  0.73924353E-02
 -0.37736110E-02  0.34079961E-02  0.89095715E-03
 -0.80870482E-02 -0.81155318E-02 -0.53510082E-03
 -0.14582637E-02  0.45489612E-02  0.55223683E-02
 -0.63067163E-02  0.32474985E-04 -0.68404725E-02
 -0.13133208E-02 -0.36628090E-02  0.14664449E-02
 -0.26958376E-02 -0.37527319E-02 -0.93730369E-02
  0.31044001E-02 -0.51860954E-02 -0.30934388E-03
  0.40354098E-02 -0.15945090E-02  0.32667401E-02
  0.56013359E-02  0.10780717E-02 -0.72096996E-02
  0.10329129E-02  0.87247069E-02 -0.36999996E-02
  0.30976252E-02  0.65059157E-03  0.12282759E-02
 -0.45310720E-02 -0.19712714E-02 -0.27360064E-02
 -0.15722327E-01 -0.35887351E-02  0.12324380E-02
  0.16031970E-03 -0.17816398E-03  0.49074809E-02
 -0.86157763E-02 -0.29265334E-02  0.40230828E-02
  0.95486865E-02  0.13217284E-02 -0.31909077E-02
 -0.13267913E-02 -0.21584899E-03 -0.32649793E-02
  0.49993196E-02 -0.22604027E-02  0.11654657E-02
 -0.28650259E-02 -0.97066192E-03 -0.44258170E-02
 -0.74884786E-03  0.41787884E-03 -0.92907962E-03
  0.69081902E-02  0.25363521E-02  0.14854482E-02
 -0.39972485E-02 -0.53786194E-02 -0.13548755E-03
  0.14053321E-02  0.73274153E-02  0.30172483E-02
  0.32941046E-03 -0.56914933E-02  0.16755251E-02
  0.12272702E-02 -0.14671899E-01 -0.73088975E-02
 -0.43334356E-02  0.22187786E-02  0.61250179E-02
  0.64956039E-02  0.48122445E-02  0.18870167E-02
  0.14146205E-02  0.52462093E-02  0.39615128E-02
  0.31479813E-02 -0.27084341E-02  0.92777049E-02
 -0.59001508E-02  0.39478068E-02  0.42177043E-02
 -0.31590476E-02  0.53028793E-02  0.29315212E-02
 -0.18885547E-02 -0.55010656E-02  0.19076753E-02
  0.30427576E-02 -0.32253932E-02 -0.22377660E-02
 -0.10341864E-01  0.22779677E-02 -0.12251249E-01
  0.44798045E-04 -0.41661704E-02  0.10013034E-01
  0.87358266E-02 -0.40154289E-02 -0.36418116E-02
  0.52761084E-03 -0.13701678E-02 -0.24227055E-02
 -0.89349184E-02  0.96049958E-03 -0.32975250E-02
 -0.92045698E-02 -0.12642615E-02  0.12405720E-03
 -0.97505466E-03  0.21734657E-03 -0.50932042E-02
 -0.33495770E-02 -0.49109498E-03 -0.11640928E-01
  0.70486280E-02 -0.77733444E-03 -0.60614062E-02
  0.13751275E-01  0.13495958E-02 -0.13708745E-02
 -0.81779026E-02 -0.46826688E-02 -0.81328369E-02
 -0.26662988E-02 -0.22406339E-02  0.39135129E-02
  0.26422738E-02  0.11730781E-02 -0.51042167E-02
 -0.59082442E-02  0.30974550E-02  0.21085001E-02
  0.10547687E-02  0.31367867E-02  0.15872028E-02
  0.69757048E-03  0.32073111E-02 -0.12966071E-02
  0.11692171E-01  0.19185824E-01 -0.20177407E-02
  0.14069162E-01 -0.10017157E-01  0.13159927E-02
 -0.91271071E-03 -0.37581392E-02 -0.27373262E-02
 -0.28702895E-03 -0.79050865E-02  0.72197007E-03
  0.35000979E-02 -0.13826614E-04 -0.30030710E-02
 -0.28241692E-02 -0.58627675E-02  0.38320502E-03
 -0.22708394E-02 -0.42848013E-02  0.15589171E-02
 -0.23559672E-02  0.59788650E-02  0.42796295E-02
  0.73643498E-02 -0.61277224E-02  0.24602819E-02
 -0.56922633E-03  0.11039258E-02  0.22370152E-03
 -0.17329887E-02  0.20529163E-03  0.31301379E-03
 -0.14040940E-02 -0.18366427E-02 -0.21904747E-02
  0.11947343E-02  0.31045524E-02 -0.63202221E-03
 -0.79121909E-03  0.90044316E-04  0.18615201E-02
  0.13476413E-02  0.37764536E-03 -0.16893951E-02
 -0.37052823E-02 -0.13360491E-02  0.19172007E-03
  0.43256654E-03  0.19849806E-02  0.92123465E-03
  0.58951795E-02 -0.14935485E-02  0.13247071E-03
  0.47743454E-02  0.11344486E-02 -0.37078721E-02
  0.22526763E-02  0.14273889E-02 -0.10211366E-02
 -0.33257591E-03 -0.14188784E-02 -0.13599231E-02
 -0.29172956E-02  0.66522789E-03 -0.17599773E-02
 -0.49166136E-04 -0.87191362E-03  0.23804105E-02
 -0.17050744E-03  0.36435802E-04  0.12621840E-02
 -0.43411138E-03  0.72653879E-03  0.39607752E-03
  0.97177437E-03  0.78387173E-02 -0.31990819E-02
  0.12632716E-03 -0.23109670E-03  0.28208092E-02
 -0.66683820E-02  0.14554002E-02 -0.17901341E-02
 -0.58896425E-02 -0.56236822E-02 -0.40658929E-02
  0.29649284E-02  0.39146773E-02  0.31274471E-02
  0.40859868E-02 -0.45119050E-02  0.17592290E-02
 -0.19426051E-03  0.57312156E-02  0.37584464E-02
  0.12027248E-02  0.25149903E-02  0.54679882E-02
  0.75981765E-02 -0.13009846E-01 -0.14695055E-02
  0.38176499E-02 -0.78168537E-02  0.35231105E-02
 -0.17818145E-02 -0.53522946E-02  0.27853480E-02
  0.28669795E-02 -0.24533397E-03  0.45264576E-02
 -0.19474511E-02 -0.91740207E-03 -0.14611319E-02
 -0.23268922E-02 -0.20384041E-02  0.35034772E-03
 -0.23581197E-02  0.92756799E-02  0.51891402E-02
 -0.11217218E-02  0.12433396E-03 -0.42393389E-02
  0.13178587E-02  0.53839353E-02 -0.53238461E-02
  0.11141188E-02 -0.62621692E-02 -0.49754141E-02
  0.35019160E-02 -0.10221175E-02  0.73992063E-03
  0.13377756E-02 -0.14144221E-03 -0.12550422E-03
  0.11192269E-03 -0.66937371E-02 -0.98081791E-03
 -0.15736150E-02  0.32558659E-02 -0.56152791E-03
  0.57100257E-03  0.52879497E-02  0.21026700E-03
 -0.55257550E-02  0.33227368E-02  0.31179735E-02
 -0.53541437E-02  0.56063355E-03 -0.96149679E-02
  0.62870305E-02  0.33741736E-02 -0.71412969E-04
  0.83226319E-05  0.12318867E-02 -0.15921666E-02
 -0.32692459E-02  0.41323068E-03 -0.61717130E-03
  0.51400286E-02 -0.41881155E-02  0.19406779E-02
  0.12086173E-02 -0.38762947E-02  0.26026091E-02
 -0.14648854E-02  0.42541019E-04 -0.15750037E-02
 -0.59832596E-04  0.25715559E-02  0.22070361E-02
 -0.37277109E-02 -0.23351566E-02  0.55702948E-02
  0.16130189E-02 -0.46872474E-02  0.36455939E-02
 -0.29611963E-02 -0.29149172E-02 -0.46734412E-02
  0.41105765E-02 -0.21912934E-03 -0.14839512E-02
 -0.47845476E-02  0.78812972E-03  0.64150099E-02
  0.41474089E-02 -0.72078894E-02 -0.73408879E-02
  0.31354247E-02  0.46602980E-02  0.13451658E-02
 -0.27912858E-02  0.33364608E-02 -0.60868571E-02
 -0.18834734E-02 -0.56191676E-02  0.84372314E-03
 -0.95770984E-03  0.12271879E-02  0.53271526E-02
  0.10511881E-01 -0.29453599E-02 -0.26328270E-02
 -0.53047605E-02 -0.41781594E-03  0.28943191E-02
 -0.15063717E-02  0.64479220E-02  0.28420829E-02
 -0.17061168E-02  0.16978001E-02  0.85555216E-02
  0.38069601E-02  0.63056800E-03 -0.33799365E-02
 -0.51300165E-03  0.43016444E-02  0.32665241E-02
  0.67376636E-02  0.16450377E-02 -0.35543716E-02
 -0.19463623E-02  0.49077883E-02 -0.51181804E-04
 -0.54712497E-02  0.33798612E-02  0.32776484E-02
  0.23907881E-02  0.12415720E-02 -0.28610839E-02
  0.39019310E-02  0.54971964E-02  0.55151309E-02
 -0.55183304E-02  0.68026526E-02  0.35025837E-02
  0.19330353E-02  0.86936880E-02  0.24964854E-02
  0.51152657E-02  0.58932072E-03  0.75744218E-03
 -0.54319076E-02 -0.40557543E-02 -0.19184202E-02
  0.51954128E-02 -0.26586292E-02 -0.23615132E-02
 -0.34282249E-02  0.25947160E-02  0.18483376E-03
 -0.12077286E-02 -0.56500244E-04 -0.33817717E-02
  0.22495945E-02  0.10630368E-02  0.15603958E-01
  0.55947987E-04  0.14723982E-02  0.73146299E-02
  0.22005242E-02 -0.17879859E-02 -0.33849983E-02
 -0.17709686E-02  0.38851470E-02 -0.68132482E-03
  0.60902465E-02  0.10415836E-02  0.26059088E-02
 -0.60953857E-04 -0.63643521E-02  0.63922303E-03
 -0.75490408E-03  0.50076368E-03  0.64606728E-03
  0.60159679E-03 -0.15335423E-02 -0.42749957E-02
 -0.58387097E-02 -0.29085006E-02  0.14701725E-02
 -0.12423310E-02 -0.26164393E-02 -0.78495677E-03
  0.94718274E-02 -0.87772210E-02 -0.90450451E-03
 -0.81930254E-02 -0.39206920E-04  0.68972535E-02
 -0.97266046E-02 -0.20541988E-04 -0.42237334E-02
 -0.38933572E-02 -0.18164551E-02 -0.37188374E-02
  0.74016649E-02  0.22088574E-02 -0.24369674E-02
 -0.11861780E-02  0.75350360E-02  0.38117379E-03
 -0.14915731E-02 -0.56151446E-02 -0.83691067E-02
  0.35089304E-02 -0.21500619E-02 -0.69371649E-03
  0.20244025E-02  0.11482927E-03 -0.25136716E-02
 -0.63325958E-02  0.50871364E-03 -0.41797276E-02
 -0.78800234E-02  0.33584458E-02  0.60972600E-02
  0.34736493E-05 -0.26255328E-02 -0.24487522E-02
 -0.18584908E-02 -0.49541625E-02 -0.46507042E-03
  0.49861131E-04  0.40118378E-02 -0.18688651E-02
  0.56897646E-02  0.80551279E-02  0.39123108E-02
 -0.31784000E-02  0.63800110E-02 -0.77239342E-03
  0.47576359E-02  0.55743397E-02 -0.23398684E-02
  0.31098979E-02  0.53793695E-02  0.10108309E-02
  0.43254510E-02  0.43090124E-02  0.54894375E-02
 -0.14545397E-03  0.40737176E-02 -0.13661907E-02
 -0.48112058E-03 -0.26346422E-02 -0.56992766E-03
 -0.58665574E-02 -0.15686508E-02 -0.44984828E-02
 -0.21200930E-02  0.44679646E-02  0.25144904E-02
 -0.12654188E-02 -0.43065867E-02  0.20710837E-02
  0.53728437E-02 -0.12422218E-05  0.22712524E-02
  0.14322371E-02 -0.86446581E-02 -0.96154973E-03
  0.61655279E-02 -0.42686899E-02 -0.92987627E-02
  0.70637234E-03 -0.85407498E-02  0.52820936E-02
  0.64413759E-02  0.40762054E-02  0.21826715E-02
 -0.27942992E-02  0.60921598E-02  0.39668873E-03
  0.11306580E-01 -0.27887165E-02  0.20190356E-02
  0.27963501E-02 -0.99586172E-02 -0.24539476E-02
 -0.23706957E-02  0.17669713E-02  0.49203383E-02
 -0.71146186E-03 -0.38319221E-02  0.13399156E-02
 
           1
   2.00000000000000     
  0.11565860E+01  0.24834684E-02  0.00000000E+00  0.00000000E+00
  0.28853481E+00  0.17482638E-01  0.12331808E+00
  0.72871115E+00  0.47496992E+00  0.63236990E+00
  0.54572956E+00  0.49940480E+00  0.75015178E+00
  0.10137101E-01  0.54978289E-01  0.50246637E+00
  0.21839199E+00  0.97027667E+00  0.87407333E+00
  0.76392874E+00  0.73482026E+00  0.36441817E+00
  0.39419546E-01  0.47319548E+00  0.12089949E+00
  0.57016842E-02  0.48704587E+00  0.25265331E+00
  0.73846940E+00  0.36247559E-02  0.62693912E+00
  0.79384779E+00  0.26507101E+00  0.97941977E+00
  0.74119532E+00  0.23898641E-02  0.37400588E+00
  0.25927249E+00  0.23193027E+00  0.87892221E+00
  0.74269482E+00  0.16042321E-01  0.11921944E+00
  0.20496867E+00  0.76454156E+00  0.74212389E+00
  0.96735244E+00  0.30466282E-01  0.75331028E+00
  0.25843889E+00  0.27317365E+00  0.37490379E+00
  0.24352400E-02  0.99367509E+00  0.64616464E+00
  0.97404435E+00  0.47000606E+00  0.60689767E+00
  0.49177891E+00  0.94126232E+00  0.11353675E+00
  0.23864549E+00  0.47711461E+00  0.87363006E+00
  0.51387580E+00  0.72477694E-02  0.24404029E+00
  0.10086066E-01  0.23249485E+00  0.23119193E+00
  0.74426972E+00  0.26937826E+00  0.87354658E+00
  0.75947587E+00  0.24029788E+00  0.61270483E+00
  0.20939748E+00  0.73477127E+00  0.34901353E-02
  0.20850860E+00  0.57078974E+00  0.62777526E+00
  0.75657730E+00  0.46602599E+00  0.12745846E+00
  0.79075628E+00  0.27330700E+00  0.38650435E+00
  0.49043956E+00  0.82505110E+00  0.50553049E+00
  0.25034170E+00  0.24051456E+00  0.99877642E+00
  0.20214373E-01  0.51867776E+00  0.35889111E+00
  0.48612970E+00  0.99836041E+00  0.75317849E+00
  0.51779190E+00  0.74828671E+00  0.24411283E+00
  0.50273875E+00  0.25686123E+00  0.74480933E+00
  0.21497564E-01  0.98845608E+00  0.15805784E+00
  0.20819839E+00  0.27597330E+00  0.50471345E+00
  0.49730032E+00  0.68597544E+00  0.34676755E-02
  0.27581349E+00  0.25473711E+00  0.25130187E+00
  0.93181069E+00  0.74237875E+00  0.75240702E+00
  0.78102894E+00  0.73642602E+00  0.24505056E+00
  0.80408185E-02  0.96769957E+00  0.37411692E+00
  0.70934368E+00  0.74638379E+00  0.76792499E+00
  0.69622572E+00  0.97459673E+00  0.87855125E+00
  0.30546187E+00  0.56381220E+00  0.38066551E+00
  0.24562008E+00  0.25735523E+00  0.77150763E+00
  0.74399263E+00  0.74595289E+00  0.50078416E+00
  0.22339091E+00  0.77740032E+00  0.50620216E+00
  0.51532332E+00  0.28651699E-01  0.47968104E-02
  0.81945614E+00  0.24575025E+00  0.75406561E+00
  0.50538755E+00  0.24374351E+00  0.27426894E+00
  0.15319298E-01  0.49475684E+00  0.88116408E+00
  0.50477505E+00  0.51576218E+00  0.27343860E+00
  0.24716949E+00  0.23654724E+00  0.64957334E+00
  0.95065223E+00  0.75797172E+00  0.97930218E+00
  0.76445156E+00  0.22465619E+00  0.49753600E+00
  0.99894584E+00  0.97935077E+00  0.32907084E-01
  0.16293742E-01  0.25179173E+00  0.20584779E-01
  0.50118505E+00  0.54066256E+00  0.48628053E+00
  0.51450650E+00  0.25732021E+00  0.98850954E+00
  0.96669094E+00  0.45647823E+00  0.47766496E+00
  0.45592388E+00  0.46543806E-01  0.86377815E+00
  0.97694643E+00  0.78516389E+00  0.51817449E+00
  0.53207014E-02  0.46930749E+00  0.99550100E+00
  0.50555558E+00  0.59233084E-01  0.51259229E+00
  0.78099567E+00  0.24884063E+00  0.26555140E+00
  0.71903104E+00  0.73337476E+00  0.96700548E+00
  0.27049623E+00  0.75619755E+00  0.24201312E+00
  0.47234676E+00  0.28114006E+00  0.49510958E+00
  0.21040459E-01  0.78347873E+00  0.26468273E+00
  0.30100001E-01  0.42752191E+00  0.72787623E+00
  0.75788035E+00  0.23720547E+00  0.12672338E+00
  0.45286267E+00  0.72576010E+00  0.74438125E+00
  0.24256355E+00  0.69583345E+00  0.11876568E+00
  0.48757498E+00  0.97437820E+00  0.62132439E+00
  0.97257560E+00  0.17602579E-03  0.89067500E+00
  0.23217632E+00  0.76697508E+00  0.37989607E+00
  0.49164915E+00  0.46843785E+00  0.88757970E+00
  0.50051950E+00  0.36269838E-01  0.38009570E+00
  0.76397980E+00  0.76534736E+00  0.10890724E+00
  0.50642259E+00  0.50420471E+00  0.59654858E+00
  0.76837913E+00  0.54931940E+00  0.87233301E+00
  0.28898791E+00  0.19268374E-01  0.38984046E+00
  0.73109624E+00  0.76926285E+00  0.61822409E+00
  0.24766112E+00  0.25877403E+00  0.12056006E+00
  0.24202763E+00  0.97785627E+00  0.63437377E+00
  0.46178160E+00  0.49677900E+00  0.11011464E+00
  0.22392837E+00  0.71199384E+00  0.86222793E+00
  0.68724324E+00  0.50484644E+00  0.38131863E+00
  0.26571611E+00  0.49343503E-02  0.26344308E+00
  0.77718504E+00  0.49465916E+00  0.75607140E+00
  0.21524391E+00  0.99800755E+00  0.74900841E+00
  0.75911297E+00  0.49800707E+00  0.25102716E+00
  0.25073319E+00  0.97070417E+00  0.99684473E+00
  0.73647533E+00  0.47398871E+00  0.50171465E+00
  0.24118610E+00  0.42739842E-01  0.51210367E+00
  0.76174666E+00  0.48872185E+00  0.25196760E-02
  0.72276618E+00  0.98918986E+00  0.74748613E+00
  0.27891644E+00  0.50483935E+00  0.24166389E+00
  0.31265548E+00  0.49671864E+00  0.74744234E+00
  0.75921080E+00  0.99354448E+00  0.24567834E+00
  0.22937985E+00  0.52828922E+00  0.49135086E+00
  0.74362060E+00  0.94639936E-02  0.99160540E+00
  0.75680755E+00  0.99358493E+00  0.49418760E+00
  0.27915599E+00  0.49232025E+00  0.98756947E+00
  0.29186740E-01  0.23705634E+00  0.37451198E+00
  0.48940280E+00  0.74145056E+00  0.87676013E+00
  0.49162737E+00  0.25203856E+00  0.62729932E+00
  0.67300331E-02  0.73025767E+00  0.12561924E+00
  0.28523273E-01  0.25161890E+00  0.86880171E+00
  0.49328128E+00  0.77170253E+00  0.38380766E+00
  0.99315290E+00  0.74085107E+00  0.64141711E+00
  0.49596815E+00  0.22534433E+00  0.12610770E+00
  0.16046310E+00  0.38612666E+00  0.46533696E-01
  0.65005267E+00  0.90282373E+00  0.54150639E+00
  0.64932096E+00  0.12325053E+00  0.94294756E+00
  0.12816728E+00  0.63004024E+00  0.43938760E+00
  0.35577183E+00  0.36609309E+00  0.93990384E+00
  0.85768993E+00  0.88360380E+00  0.44678428E+00
  0.86324074E+00  0.99580958E-01  0.42739272E-01
  0.34162149E+00  0.62912549E+00  0.54003417E+00
  0.85232594E+00  0.91681224E-01  0.19132811E+00
  0.39792113E+00  0.58419185E+00  0.68611542E+00
  0.85725043E+00  0.89127135E+00  0.29755006E+00
  0.39152515E+00  0.40231628E+00  0.81321281E+00
  0.16515100E+00  0.61834914E+00  0.28888931E+00
  0.63614338E+00  0.93734588E-01  0.79960316E+00
  0.15975840E+00  0.38667077E+00  0.19322214E+00
  0.62831519E+00  0.87595920E+00  0.69208868E+00
  0.87251372E+00  0.59434423E+00  0.95388426E+00
  0.35184310E+00  0.15279923E+00  0.45209340E+00
  0.84820809E+00  0.38507534E+00  0.54933150E+00
  0.32868861E+00  0.85988825E+00  0.49638807E-01
  0.14400594E+00  0.12309512E+00  0.57325565E+00
  0.64797784E+00  0.59378245E+00  0.43112236E-01
  0.11248362E+00  0.90260108E+00  0.94499295E+00
  0.64123993E+00  0.37165911E+00  0.44968384E+00