Na88 Sn16 P8 S96                        
   1.00000000000000     
    13.4813327813000008    0.0000000000000000    0.0000000000000000
     0.0000000000000000   13.4813327813000008    0.0000000000000000
     0.0000000000000000    0.0000000000000000   26.9626655626000016
   Na   Sn   P    S 
    88    16     8    96
Direct
  0.2889999202700710  0.7191234038421193  0.1421634098703944
  0.7747206248690073  0.6554359767354463  0.6264643963203578
  0.5088665755802664  0.4832336654071278  0.9041060817134633
  0.0145586891059007  0.2299460651632634  0.5114973319691043
  0.2670980141353911  0.2408516068851335  0.0064330594242620
  0.0273458223065727  0.2500952222080425  0.2325194735286942
  0.9859568991536126  0.4718944357276783  0.9984404141362564
  0.0035491637903853  0.0149284348603290  0.2697723649639301
  0.7324309440382116  0.9999818259066380  0.6186699581789098
  0.7842539837455930  0.2885910519778561  0.8680667375417808
  0.7918809071007428  0.7762313672418850  0.3843332969335417
  0.4961621569668943  0.2355042299549064  0.9861933458471437
  0.2778412243634799  0.9824435156173218  0.1308313523218385
  0.2525145247502620  0.7248507210382080  0.6301900344869379
  0.2926176335411095  0.9969925880688235  0.8776452687194147
  0.9468296056218226  0.4940204247134477  0.3747560160531282
  0.9902439287999720  0.1405820724339484  0.7645383627678285
  0.0406149096538024  0.4348302827372176  0.7398520777567739
  0.5086468083464734  0.9742074918301966  0.1239669056480941
  0.2933195428714184  0.2704042793916958  0.8746057857336346
  0.2908229201833680  0.9662617981856393  0.3686766489013970
  0.0099532418419365  0.9703090594324769  0.3906800362767236
  0.7710621492836154  0.6999399686819903  0.8692237632390180
  0.7829182922443020  0.7605841945699090  0.5207658145325363
  0.4730935505579936  0.7548049274456951  0.9968357363991949
  0.2719000726501724  0.2729582928296670  0.5173672014924929
  0.7278371651299180  0.4464371757633445  0.1233810438110609
  0.7282183373343072  0.5252737335547008  0.3737214381876094
  0.2840245666318048  0.7913330325283880  0.5023129266291591
  0.7925984005488741  0.7183464559211856  0.9907461080708074
  0.9901373000327428  0.7597475083939743  0.4777461698905391
  0.5408160872786456  0.2120398899432191  0.7637532870000592
  0.9960617195135552  0.4765474629804177  0.2546007253616128
  0.5262038403869099  0.4942842504849899  0.7672429344902065
  0.0243992566434439  0.9251794653001463  0.8649285547333923
  0.5013601334985581  0.5164414252716274  0.4872897696719899
  0.5227545862275110  0.0081641309732878  0.2705523187264934
  0.7203405695654767  0.1864815252555641  0.1918361117895212
  0.5120025197225218  0.7827439873581106  0.7405184196421858
  0.5140724169934341  0.2529282199662550  0.2792467472263007
  0.0335724690058285  0.0050744000278479  0.1359829242771539
  0.0282906260908690  0.7948231314384883  0.7708700473594148
  0.5220146092831017  0.9865655517343225  0.8566472691431142
  0.9914173793301098  0.4451739500977992  0.1166137838755639
  0.2320866943479798  0.2581736797775653  0.1319273223156124
  0.4922562949652362  0.7788298603532132  0.5291631317791659
  0.0258524184490560  0.4949912724721011  0.6306702986716579
  0.7582017481409833  0.2175722780612907  0.0154813317930275
  0.7637310742904889  0.2813839537170030  0.7399781587303076
  0.2039117542198818  0.4631739778544016  0.3843543946213225
  0.2438839593631484  0.2367531129869633  0.7694974007370105
  0.4756208747993745  0.7433613792992575  0.2510673436077450
  0.2592913190322913  0.2353251964768105  0.3699317802748364
  0.7526864279685503  0.7200105428242861  0.1209034940582559
  0.5202498265174980  0.2827368084000473  0.4861361969206973
  0.0587927560188789  0.7185078077665145  0.0025586315909014
  0.0177143853212423  0.0125777930188014  0.9927511942168524
  0.5000919460621593  0.0108037680455137  0.4722889774855958
  0.2131925221306186  0.4974589250497140  0.8724024183886281
  0.0202926455605452  0.4899762845090541  0.4903161571601349
  0.5356389818782183  0.9844616882925958  0.9840080092540407
  0.7942474618176756  0.2800649640214261  0.4593350798747753
  0.9988328045625323  0.2672749142343216  0.9913728986709971
  0.7013162540346709  0.9669401681858193  0.3923710108299399
  0.2701092022777916  0.2419376294359310  0.2331374428981668
  0.5397332127178510  0.5620641219349701  0.6246733619184335
  0.4599510154536456  0.5115088109823360  0.1432573466572008
  0.7579506171981889  0.2885045032751487  0.6023629521947313
  0.5035707279119284  0.5123081022223049  0.2613925353588555
  0.2538677244370136  0.1887760337607417  0.6448148709545055
  0.8084659836676490  0.9558061774949623  0.1120046170197946
  0.3003460350678185  0.4742072752524482  0.6258289757480999
  0.2362779927779687  0.5024129345689445  0.1209722584947104
  0.4890343892679697  0.0019709413496977  0.6463021650820530
  0.7757298455811212  0.9883896957980632  0.8677929835264445
  0.2202821597719224  0.7328824965241515  0.3661542510646451
  0.2710021135874462  0.7190512728440875  0.7653639564569056
  0.7631053327870465  0.2123376492591884  0.3561905205154991
  0.7644057414724899  0.7407662079810712  0.2622201680045632
  0.2098021667029564  0.9836307364408646  0.6274231317025459
  0.9361380970564815  0.4990876259251363  0.8638993282131500
  0.0107079275053318  0.9966735485539431  0.5311460484633644
  0.7709195272995898  0.7855871227299669  0.7308173121543046
  0.0157651438904061  0.7440962272803505  0.2663929275932547
  0.9786625288679258  0.9536259357041761  0.6820986449519754
  0.4957381875850712  0.4527083913315285  0.0178584661507090
  0.2925148027374439  0.7490325927389628  0.9035972597321282
  0.4920366144890415  0.5062315272934494  0.3870299474683629
  0.2702503136376577  0.9802997309985932  0.2474100656551519
  0.7783047896925792  0.5364410648934788  0.7542202137912374
  0.2720069245106130  0.9802387731807322  0.7494933224833584
  0.7365818050175305  0.4890387379275039  0.2573205749783254
  0.2788403587232412  0.9939078262051299  0.0015092708115642
  0.7602112332623788  0.4930074156691596  0.4998840651500436
  0.2504127844762190  0.0377601595598129  0.5066049883860789
  0.7440162459586572  0.4621877633288033  0.9975274448641358
  0.7546220149119413  0.0437528734397590  0.7392754681437398
  0.2305812687889435  0.4742404125770773  0.2576879068119273
  0.2658409109246895  0.4788793483978866  0.7458635875816294
  0.7748429348464760  0.9874196498613611  0.2430944460647766
  0.2655294192130616  0.5344435385662776  0.5106556422740210
  0.7667941152487605  0.9818268379334171  0.9936335859028682
  0.7432852546218870  0.0319731282346153  0.4985593982786324
  0.2545755828992455  0.4956624714886261  0.0041938798589150
  0.0039025925817413  0.2241609447672044  0.3782598754051539
  0.5293434302032244  0.7470988261816294  0.8839885591589771
  0.5141573696626478  0.2565641750067307  0.6271663497165911
  0.0069781584952606  0.7209946823232503  0.1194238711168080
  0.0284168148990049  0.2296348505249491  0.8638575130333277
  0.4985577695991759  0.7535667477497913  0.3777263551372131
  0.0064985576470242  0.7617387731960101  0.6077331952177509
  0.5102776618183008  0.2433089766336331  0.1248489608975449
  0.1466142292314430  0.3828310716350280  0.0478025026082619
  0.6418301839505931  0.9065076881882431  0.5426902698709895
  0.6684756147699564  0.0915295153721088  0.9432259984303514
  0.1761225130861937  0.6406628501259777  0.4556310217651584
  0.3632525475299858  0.3905633582494171  0.9570548378813958
  0.8442225927609480  0.9134109561582314  0.4541117283852527
  0.8784233455294849  0.0867772803028497  0.0496117968547482
  0.3780979193985960  0.6274530657760821  0.5633870790726073
  0.8912084470608499  0.0907199971283556  0.1961449703524946
  0.3681807249875462  0.5963382773815773  0.7026942098942512
  0.8630690973089006  0.8847925589420148  0.3088135713257115
  0.3554108321447581  0.3986993086261750  0.8180800403156006
  0.1163275239039822  0.5671803317834211  0.3074904612989046
  0.6867665394132797  0.1174308151973078  0.8122212344207739
  0.1565551250646381  0.3869431349479077  0.1958828063831285
  0.6485277778802607  0.9351242220730858  0.7049353083910735
  0.8648987307617970  0.5600401896839140  0.9451824741142864
  0.3555854353591979  0.1328397581227602  0.4548218449617935
  0.8793693979361424  0.3867176729313053  0.5351549991624566
  0.4008396732913662  0.9201681521941656  0.0503122046556137
  0.1616833577582522  0.1340511541226538  0.5641300154927195
  0.6531120687247106  0.5676041652867990  0.0513881790132171
  0.1649630669470155  0.9000567835635080  0.9449860887965724
  0.6546405180610652  0.3952605493852732  0.4498826563172769
  0.6241329706632782  0.4047694606632990  0.3136815057020226
  0.1894125844318340  0.8762670136748822  0.8120736342552864
  0.1400367294112035  0.0827815028788208  0.7054384270618833
  0.6379329032366680  0.6123167411829704  0.2123167216221898
  0.8722716003000081  0.4559758041272882  0.6878166192807104
  0.3684150953148893  0.8729327934744561  0.1924429773325461
  0.3526399719633321  0.0901011094373008  0.3057299932583169
  0.8844026686328115  0.6594734321899486  0.7991829235389789
  0.1627561321574673  0.0853752396317397  0.0495630300286259
  0.6488414085369715  0.5849317575261583  0.5580020396897524
  0.6388596401487219  0.3474961028405285  0.9547754664537987
  0.1428570113007720  0.9444433047404796  0.4527814989831184
  0.3748061178384332  0.1051073359339598  0.9486292534769293
  0.8403377406459174  0.6051653826040116  0.4480534417680590
  0.8461876833147985  0.3732956284222106  0.0525813690183675
  0.3560905299490243  0.9348580936118037  0.5601992404724089
  0.1636838988057384  0.1171616474429020  0.1956457587075763
  0.6470904840000259  0.6298718425654015  0.7035704324820398
  0.1539119393211056  0.8879435508517890  0.3027508570565333
  0.6969829217745037  0.4269822425035050  0.8068576005573103
  0.8679746485370792  0.5998325112648526  0.2983271002089571
  0.3809641418888634  0.0825396596247291  0.7954696092079903
  0.8479373101880369  0.3927594386438662  0.2037801011547327
  0.3442203698918998  0.8852505279074895  0.6880513547165799
  0.8638614106441126  0.8703230083862191  0.9443116389035239
  0.3436887546892128  0.4186599230668689  0.4525791602254600
  0.8608342951045049  0.1113479937732609  0.5540643797610790
  0.3539869042142625  0.5935661119629339  0.0649256273366972
  0.1532896841570927  0.4459332658956158  0.5622935613248256
  0.6894507658591018  0.8619610403077290  0.0440674901056069
  0.1560624295527707  0.5963525687836135  0.9515153870494153
  0.6491928623941606  0.1428897438581668  0.4372926694592407
  0.3401387921677863  0.3767445643137882  0.3047922791242577
  0.8908632039652710  0.9373946108322624  0.7859974688069036
  0.8395444276184157  0.1503200720424621  0.6836031582567801
  0.3473475210896981  0.5864082259417052  0.2223161468505213
  0.2045736012779927  0.3638013501414869  0.6912705428859430
  0.6696167860505977  0.8875475700264477  0.1819411827962125
  0.6817386349828519  0.1105257513267013  0.2870744550634858
  0.1331609980066026  0.5642519346656615  0.7866944736455599
  0.0761254623102779  0.1289428393740912  0.3374910911636195
  0.5992429262132575  0.6554354756922693  0.9359441599071975
  0.6100757605809463  0.3468061151005257  0.6633853698439915
  0.9263329294394587  0.7985277904714854  0.1734130299696057
  0.4371394204701561  0.1602036854390093  0.6833484838348431
  0.9191819882615484  0.6425706142129057  0.0749428276477812
  0.9177644633382674  0.3072109163690631  0.3286894523065970
  0.6379871808148964  0.8289821498813663  0.8379755258752396
  0.0973450712579001  0.3292797219115278  0.9144888584902765
  0.5935129538356287  0.6689994632946896  0.4172259526983316
  0.0995614045289723  0.8436279155317875  0.5660118162058062
  0.3940759383528077  0.3039059942968461  0.0742394569299756
  0.9746538986138751  0.6444817602251798  0.5646798701361637
  0.4632993747975545  0.1387119883749311  0.1787299076901838
  0.1338012526227422  0.1229482221479520  0.8422815452298176
  0.4137830861049445  0.8295831457271318  0.4260053420350657
  0.8758427113050838  0.8375471938220393  0.6139707554223062
  0.5776968175497739  0.3480390181517863  0.1682104339418625
  0.9455328090341913  0.3149300457211847  0.8154487792574227
  0.4054252551485170  0.6641308878100309  0.3333242160810835
  0.9168530127465212  0.1444274279316111  0.9038905526990423
  0.5957173455169144  0.8427929682346593  0.3355749024751831
  0.0736136650895701  0.7182683365431830  0.6729973606172209
  0.5999717669661361  0.1441760510980731  0.0876312358870842
  0.4293768492379043  0.3460845584094270  0.5790739257470201
  0.0930363812948548  0.8228019416605886  0.0861058813469420
  0.9241237855441939  0.1349456806209044  0.4272349829371141
  0.4400219235584212  0.6683336692916700  0.8370502762476499
  0.0961495177663130  0.3248646782446134  0.4159929973918658
  0.4580442480361121  0.8618196937270848  0.9214020581527707
  0.5968669996802770  0.1545109318833323  0.5925878170233155
  0.0912344243693699  0.6166959170907782  0.1617514107701035
 
 -0.27623036E-02  0.20473170E-02 -0.50315184E-02
  0.93188157E-02 -0.15360493E-02  0.63210913E-03
 -0.81617552E-02  0.32674471E-02 -0.68306703E-03
 -0.12553220E-02 -0.38102402E-02  0.27109700E-03
 -0.56757405E-02 -0.28386519E-02  0.70993523E-02
  0.40220886E-02  0.65723445E-02 -0.54027526E-02
  0.12039976E-01 -0.14457816E-02  0.18546318E-02
  0.36103212E-04  0.11782724E-01 -0.18577600E-02
  0.15114740E-02 -0.16512408E-02  0.16075486E-03
  0.46986802E-02 -0.24523668E-02  0.62469335E-02
 -0.67461746E-02 -0.94266434E-02  0.35773042E-03
 -0.92846301E-03  0.37932743E-02 -0.26957414E-02
  0.91104515E-02  0.66207238E-02  0.43343623E-02
  0.25877404E-02  0.53595695E-02  0.38355711E-02
 -0.37664876E-02 -0.72445428E-02  0.11459825E-01
  0.34386825E-03 -0.94181688E-02  0.75558907E-02
  0.66939333E-02  0.27411212E-02 -0.99635420E-02
 -0.64184522E-02  0.36585476E-02  0.86314768E-02
  0.12005131E-02  0.12459165E-01  0.66813242E-02
  0.54279858E-03 -0.21367323E-01  0.43504672E-02
  0.16116412E-02  0.12929287E-02 -0.15498790E-02
  0.87972382E-02  0.23349719E-02 -0.20632049E-03
  0.34310729E-02  0.86883987E-02  0.69308765E-02
 -0.11520999E-02 -0.94261712E-02 -0.75639750E-02
  0.52827477E-02 -0.12249613E-02 -0.30170007E-02
  0.94378715E-02  0.10346566E-02 -0.76250971E-02
  0.26959460E-02 -0.12381117E-03 -0.15002105E-02
  0.12324188E-03 -0.43287500E-02 -0.25633424E-02
 -0.61944463E-03 -0.19654792E-02 -0.28037833E-02
  0.64873688E-02 -0.33135453E-02  0.71527604E-02
  0.57151783E-03 -0.38380763E-02  0.26754150E-02
  0.31390635E-02 -0.49643559E-02 -0.44478032E-02
  0.75547283E-02 -0.41385534E-02  0.64987261E-02
 -0.11148466E-01 -0.87444423E-02  0.54748027E-02
 -0.24272802E-02  0.97629948E-02  0.30044262E-02
 -0.61612876E-02  0.34604588E-02 -0.66882277E-03
 -0.10974845E-01  0.17531889E-03  0.31759119E-02
  0.29792152E-02  0.80047495E-02 -0.57960528E-02
 -0.95944729E-03  0.10213485E-01  0.12278011E-02
  0.78889198E-02  0.23165962E-02  0.44482372E-02
  0.98444440E-03  0.80592154E-02  0.13164705E-02
  0.11907470E-01  0.55079668E-03  0.48454939E-02
  0.63839025E-02 -0.10655322E-01  0.70633409E-05
 -0.18078662E-02 -0.74751599E-03  0.20541541E-02
  0.45852788E-02  0.60809556E-02 -0.11425873E-02
  0.20105295E-02 -0.26937297E-02 -0.24106679E-02
  0.26916651E-02 -0.35702102E-02  0.41084167E-03
  0.38594025E-02  0.29619130E-02  0.52602223E-02
 -0.76024183E-02 -0.64203873E-03 -0.94404579E-03
  0.10429133E-01 -0.77172822E-03  0.15546576E-02
  0.13638351E-01  0.63695899E-02 -0.24330817E-02
  0.27299050E-02  0.17092370E-02 -0.33410323E-02
 -0.77893294E-04 -0.12546813E-01 -0.10000322E-02
 -0.88386555E-02 -0.36261752E-02 -0.34530638E-02
  0.35234695E-02  0.17504823E-02  0.22749700E-03
  0.11995309E-03 -0.68970930E-02 -0.65207380E-02
  0.47958929E-02  0.81033729E-02 -0.39499794E-02
  0.95828047E-02 -0.16229900E-02 -0.19816854E-02
  0.14950025E-02 -0.50224586E-03 -0.60803715E-02
 -0.27980245E-02  0.20655592E-02  0.68247130E-02
 -0.65237341E-02 -0.56897041E-02  0.79260936E-02
  0.23889676E-02 -0.58830011E-03 -0.85176023E-02
  0.52404093E-02 -0.79573096E-02 -0.30408176E-02
  0.51560449E-02  0.58069598E-02 -0.47010264E-02
  0.54679730E-02  0.35416484E-02 -0.92195457E-02
  0.25136303E-02  0.14621033E-02 -0.12992314E-02
  0.10886155E-02  0.31254875E-02  0.61780758E-02
 -0.10683217E-03  0.69615783E-02  0.11825646E-01
 -0.83666286E-02  0.72200520E-02  0.15085011E-02
  0.52328273E-02  0.47604559E-02  0.47875473E-02
 -0.22910780E-02  0.52027004E-02  0.35617135E-02
  0.28610433E-02  0.63652222E-02  0.60773003E-02
  0.37269009E-02  0.84445901E-02  0.48436589E-02
 -0.23408897E-02 -0.50609721E-02  0.57642241E-02
  0.51034082E-03 -0.18080420E-02 -0.20143322E-02
 -0.51271593E-02  0.48505534E-02 -0.44634541E-02
 -0.24247414E-02 -0.39609808E-02 -0.33276514E-02
  0.47224286E-02 -0.90739415E-02  0.14171408E-02
 -0.84909089E-02 -0.55962539E-02  0.69744235E-03
 -0.12980193E-02 -0.63160976E-02 -0.32507154E-02
  0.32165979E-02  0.15525202E-02 -0.36635500E-02
 -0.78732128E-02 -0.90914339E-03  0.66815298E-02
  0.42815768E-04  0.43007898E-02 -0.10247674E-02
 -0.65322121E-02  0.76397821E-02  0.17198172E-02
  0.70131794E-03 -0.56308003E-02 -0.63850938E-02
 -0.44706450E-02 -0.43928893E-02 -0.10937593E-02
  0.44979114E-02  0.72371951E-02  0.14200757E-02
 -0.21276684E-03 -0.12824798E-01 -0.61262760E-03
 -0.38134785E-02 -0.38981076E-02  0.25698482E-02
 -0.10387330E-02  0.13716798E-02 -0.13005952E-02
 -0.13944397E-02  0.11333930E-02  0.41368715E-02
 -0.29809621E-02  0.30783000E-02 -0.81211269E-03
  0.20880892E-02  0.26409543E-02 -0.20586494E-03
 -0.12953856E-02 -0.18306420E-03  0.49162662E-03
 -0.71758626E-03  0.20841814E-02 -0.13480239E-02
 -0.23586620E-02 -0.13359172E-02  0.17037346E-02
  0.49741951E-02 -0.12847060E-02 -0.44687872E-02
  0.17962835E-02  0.34160605E-02 -0.19609608E-02
  0.23513056E-02  0.85256929E-03 -0.11099330E-02
 -0.12815687E-02 -0.12787119E-02  0.96139854E-03
 -0.31823873E-02 -0.52911704E-03  0.17153536E-02
  0.25148327E-02  0.13776547E-02  0.16350209E-02
 -0.35472989E-02 -0.22284976E-02  0.19768371E-02
 -0.38118042E-02 -0.24006836E-02 -0.22556499E-03
 -0.31986209E-02 -0.41842976E-02  0.84123617E-02
  0.71051875E-02 -0.78785222E-02 -0.49918213E-03
 -0.33677420E-02 -0.40004131E-02 -0.25376400E-02
  0.71395528E-03  0.25360438E-03 -0.18351819E-03
  0.65623941E-02  0.93560159E-03  0.54126999E-03
 -0.19618997E-02  0.57457893E-02 -0.69556995E-03
  0.19344868E-02  0.24997271E-02  0.46974089E-02
  0.38208994E-02 -0.54039733E-02  0.40419324E-02
 -0.33816720E-03 -0.20258743E-02  0.23791375E-02
  0.38856784E-03 -0.48207435E-02 -0.20860555E-02
 -0.74432650E-02 -0.10391155E-01 -0.98634051E-02
  0.92707029E-03 -0.32737772E-02 -0.70661954E-02
 -0.80657121E-02  0.14434939E-02  0.10854487E-02
 -0.19724685E-02 -0.33442759E-02 -0.74178202E-02
 -0.52090122E-02 -0.74149487E-02  0.54099041E-02
 -0.20922894E-02  0.60446905E-03 -0.87188255E-02
  0.96253502E-02 -0.60931766E-02  0.55115232E-02
 -0.66685381E-02 -0.22999256E-02  0.28665186E-02
 -0.40424587E-02  0.12789253E-01 -0.90818523E-03
 -0.24258209E-02 -0.10576619E-02 -0.47659054E-02
  0.52607860E-03  0.26683494E-02 -0.67621301E-02
 -0.17299709E-02 -0.13910472E-02  0.48829730E-02
 -0.50856320E-02 -0.48171466E-03 -0.16250682E-02
  0.17127336E-04 -0.51409898E-02  0.48032635E-02
 -0.50024826E-02 -0.47362014E-02 -0.27298195E-02
  0.44734264E-02  0.57784403E-02 -0.41181404E-02
 -0.91783891E-02 -0.41912148E-02 -0.35013519E-02
  0.14469117E-02 -0.57917215E-02 -0.77665299E-02
 -0.24714945E-02  0.55483071E-03 -0.38404535E-02
  0.40983151E-02  0.98867012E-02 -0.62242113E-02
 -0.23760709E-02 -0.81399211E-02  0.55691246E-02
  0.11679946E-03  0.20832590E-02  0.40577350E-02
 -0.97142181E-03 -0.29034410E-03 -0.87395695E-06
 -0.18912479E-02 -0.12398485E-02  0.85958945E-02
  0.50895349E-02 -0.22902413E-02  0.10043677E-03
  0.39227159E-02 -0.12721233E-02 -0.44814845E-02
  0.19757989E-02  0.22781501E-02  0.82241875E-03
 -0.92377373E-03  0.78964726E-04 -0.38348121E-02
  0.10989963E-02 -0.35032406E-02 -0.68690599E-02
 -0.18219272E-02  0.34155876E-02  0.60520961E-02
  0.14088871E-02 -0.26194849E-02  0.12378435E-02
 -0.47121634E-03 -0.11539983E-02  0.49801224E-02
  0.44519417E-03  0.86966632E-02  0.61584447E-02
 -0.31487962E-02  0.16161845E-02  0.36026628E-02
 -0.28449668E-02  0.43577812E-02  0.22298148E-02
  0.64679204E-02 -0.52449416E-02  0.40057945E-02
  0.80630605E-02  0.52725859E-02 -0.13592270E-02
  0.16525902E-02  0.36451582E-02 -0.52088907E-02
  0.11219110E-02 -0.49258401E-02 -0.47560462E-02
  0.64724144E-02  0.56860322E-02 -0.27439545E-02
  0.16383303E-02 -0.32810497E-02 -0.12132082E-02
  0.21037231E-03 -0.12277640E-02 -0.73095464E-02
 -0.11578146E-02  0.37575127E-02 -0.31471017E-02
 -0.38900332E-02  0.78013220E-02 -0.13931887E-02
 -0.38110588E-02  0.42908893E-02 -0.25641837E-02
 -0.96101838E-02  0.28711211E-02 -0.53280702E-03
  0.64484397E-02 -0.59315081E-02  0.32866879E-03
 -0.22762989E-02 -0.41036362E-02 -0.62217283E-02
  0.53961943E-02 -0.61288114E-02 -0.24488674E-02
 -0.21363959E-02  0.64406878E-02 -0.20730299E-02
  0.49663211E-02 -0.19941089E-02 -0.27993918E-02
  0.10144345E-03 -0.43592231E-02  0.24590781E-02
  0.23421626E-02  0.54917268E-02  0.25868616E-02
  0.36165661E-02  0.18505777E-03 -0.10935485E-01
 -0.65300842E-02 -0.12850836E-02  0.28504454E-02
  0.55901296E-02 -0.73437017E-02  0.23101029E-02
  0.50890438E-03 -0.11074273E-01 -0.89972331E-02
 -0.15783317E-02 -0.10194091E-01  0.89652234E-03
 -0.12760252E-02 -0.34102978E-02  0.20663565E-02
 -0.24941323E-03 -0.46272091E-02  0.22755066E-02
  0.65619737E-02 -0.42985824E-02  0.57616911E-02
 -0.17762029E-02  0.25497422E-02 -0.62718394E-04
 -0.16217410E-02 -0.47639025E-02 -0.14371747E-02
 -0.27160952E-02  0.68773243E-02 -0.56237694E-02
 -0.24665930E-02 -0.42145099E-02  0.49437689E-02
 -0.68268079E-02 -0.62107128E-02 -0.23352130E-02
 -0.43814199E-02  0.19980677E-02 -0.38245119E-02
 -0.83110869E-02  0.80485634E-02  0.51982409E-03
 -0.63609114E-02  0.65620949E-02  0.10394343E-02
 -0.64724108E-02  0.34170905E-02  0.21121164E-02
 -0.26186128E-03  0.41336453E-02 -0.51085250E-02
  0.39072313E-02 -0.22308112E-03 -0.97118929E-04
  0.53718718E-02 -0.63840340E-02 -0.12768227E-02
  0.80891535E-02  0.43675730E-02 -0.22438045E-02
 -0.10647833E-01  0.19694327E-02 -0.23289399E-02
  0.79658668E-02  0.28122587E-02  0.21193158E-03
 -0.18915023E-02  0.47950720E-02 -0.11869439E-02
  0.36669764E-02 -0.77591482E-03 -0.21793594E-02
  0.23231137E-02  0.71885206E-02 -0.43613064E-02
 -0.16517771E-02 -0.38011590E-02  0.52959686E-02
  0.36476522E-02 -0.14166842E-02  0.10028610E-01
 -0.86239799E-02  0.21074991E-02 -0.89324771E-03
 -0.69767292E-03 -0.10947908E-02  0.27776730E-02
 -0.21518045E-02  0.40826315E-02  0.14869190E-02
 -0.44790344E-02  0.10189973E-01 -0.63104844E-02
 -0.24955274E-02  0.63934885E-02  0.46073368E-02
  0.59551748E-02  0.42985125E-02  0.23753765E-02
  0.51348358E-02  0.12483929E-02 -0.90524585E-03
  0.30130879E-02  0.46963250E-04 -0.35662486E-02
 -0.34638619E-02  0.55999609E-02  0.52657312E-02
 -0.48944792E-02 -0.61521953E-03 -0.25165746E-03
  0.55319413E-02  0.76616737E-03 -0.40119272E-03
 -0.35106726E-02 -0.69534310E-03  0.18601929E-02
  0.92918496E-02 -0.49004565E-03  0.51307676E-02
 
           1
   2.00000000000000     
  0.10428606E+01 -0.17880268E-02  0.00000000E+00  0.00000000E+00
  0.28859012E+00  0.71942713E+00  0.14179019E+00
  0.77610310E+00  0.65520810E+00  0.62651128E+00
  0.50765575E+00  0.48371840E+00  0.90405541E+00
  0.14372458E-01  0.22938080E+00  0.51151744E+00
  0.26625600E+00  0.24043048E+00  0.69596655E-02
  0.27942512E-01  0.25107025E+00  0.23211872E+00
  0.98774307E+00  0.47167995E+00  0.99857798E+00
  0.35545198E-02  0.16676441E-01  0.26963456E+00
  0.73265518E+00  0.99973686E+00  0.61868188E+00
  0.78495105E+00  0.28822724E+00  0.86853011E+00
  0.79088009E+00  0.77483289E+00  0.38435983E+00
  0.49602442E+00  0.23606697E+00  0.98599338E+00
  0.27919279E+00  0.98342572E+00  0.13115286E+00
  0.25289842E+00  0.72564583E+00  0.63047454E+00
  0.29205886E+00  0.99591784E+00  0.87849532E+00
  0.94688062E+00  0.49262321E+00  0.37531649E+00
  0.99123700E+00  0.14098873E+00  0.76379930E+00
  0.39662711E-01  0.43537304E+00  0.74049233E+00
  0.50882491E+00  0.97605585E+00  0.12446250E+00
  0.29340007E+00  0.26723437E+00  0.87492849E+00
  0.29106201E+00  0.96645361E+00  0.36856168E+00
  0.11258341E-01  0.97065546E+00  0.39066473E+00
  0.77157116E+00  0.70122892E+00  0.86973787E+00
  0.78274737E+00  0.75918579E+00  0.52020474E+00
  0.47387726E+00  0.75462320E+00  0.99661195E+00
  0.27330021E+00  0.27311179E+00  0.51680160E+00
  0.72823712E+00  0.44641881E+00  0.12326976E+00
  0.72823662E+00  0.52463155E+00  0.37353130E+00
  0.28393267E+00  0.79104145E+00  0.50210495E+00
  0.79356082E+00  0.71785488E+00  0.99127668E+00
  0.99022209E+00  0.75917812E+00  0.47794462E+00
  0.54128178E+00  0.21130341E+00  0.76342336E+00
  0.99718249E+00  0.47593349E+00  0.25508278E+00
  0.52454993E+00  0.49298698E+00  0.76764904E+00
  0.24039162E-01  0.92662784E+00  0.86515141E+00
  0.50044609E+00  0.51695480E+00  0.48724016E+00
  0.52112643E+00  0.81901401E-02  0.27078790E+00
  0.72078255E+00  0.18766906E+00  0.19140618E+00
  0.51186018E+00  0.78425919E+00  0.74060949E+00
  0.51524276E+00  0.25327189E+00  0.27957670E+00
  0.33718515E-01  0.62700111E-02  0.13608058E+00
  0.30057138E-01  0.79490484E+00  0.77122947E+00
  0.52296168E+00  0.98498480E+00  0.85664779E+00
  0.99114918E+00  0.44506305E+00  0.11676615E+00
  0.23276694E+00  0.25907581E+00  0.13184257E+00
  0.49255456E+00  0.77843024E+00  0.52898432E+00
  0.26251736E-01  0.49446162E+00  0.63070077E+00
  0.75877430E+00  0.21801169E+00  0.15871517E-01
  0.76260323E+00  0.28128871E+00  0.73990813E+00
  0.20545895E+00  0.46305949E+00  0.38446971E+00
  0.24590725E+00  0.23769806E+00  0.76931692E+00
  0.47602587E+00  0.74361495E+00  0.25081952E+00
  0.25927976E+00  0.23346384E+00  0.36985760E+00
  0.75137518E+00  0.71947259E+00  0.12064736E+00
  0.52077254E+00  0.28299650E+00  0.48615307E+00
  0.58810551E-01  0.71748460E+00  0.20749451E-02
  0.18425872E-01  0.13779955E-01  0.99245820E+00
  0.50151359E+00  0.10562992E-01  0.47214198E+00
  0.21341431E+00  0.49738442E+00  0.87195140E+00
  0.19877549E-01  0.49028272E+00  0.49082239E+00
  0.53467116E+00  0.98361760E+00  0.98459594E+00
  0.79460187E+00  0.27997769E+00  0.45870327E+00
  0.99961024E+00  0.26609442E+00  0.99114734E+00
  0.70208117E+00  0.96780165E+00  0.39202230E+00
  0.27092039E+00  0.24246304E+00  0.23245357E+00
  0.54010612E+00  0.56228103E+00  0.62457699E+00
  0.46011252E+00  0.51197249E+00  0.14371562E+00
  0.75793477E+00  0.28953728E+00  0.60324014E+00
  0.50232951E+00  0.51337922E+00  0.26150443E+00
  0.25464403E+00  0.18948226E+00  0.64517000E+00
  0.80812609E+00  0.95657802E+00  0.11226881E+00
  0.30077048E+00  0.47515158E+00  0.62627977E+00
  0.23683089E+00  0.50366572E+00  0.12133154E+00
  0.48868711E+00  0.12201295E-02  0.64672974E+00
  0.77580556E+00  0.98812147E+00  0.86764357E+00
  0.21952153E+00  0.73360209E+00  0.36582317E+00
  0.27064240E+00  0.71846365E+00  0.76511712E+00
  0.76380592E+00  0.21099150E+00  0.35629564E+00
  0.76314609E+00  0.73993599E+00  0.26227190E+00
  0.20960960E+00  0.98269372E+00  0.62718200E+00
  0.93661529E+00  0.49931795E+00  0.86362758E+00
  0.95399105E-02  0.99653867E+00  0.53164166E+00
  0.77092588E+00  0.78622516E+00  0.73074130E+00
  0.14796069E-01  0.74522961E+00  0.26652050E+00
  0.97876657E+00  0.95279059E+00  0.68162502E+00
  0.49507495E+00  0.45205669E+00  0.17777335E-01
  0.29318208E+00  0.75010625E+00  0.90370260E+00
  0.49200505E+00  0.50432893E+00  0.38698450E+00
  0.26968457E+00  0.97972143E+00  0.24760069E+00
  0.77815069E+00  0.53664456E+00  0.75412374E+00
  0.27180005E+00  0.98040692E+00  0.74980018E+00
  0.73613957E+00  0.48949541E+00  0.25726034E+00
  0.27915013E+00  0.99429962E+00  0.14940004E-02
  0.76001906E+00  0.49298026E+00  0.49992053E+00
  0.25030633E+00  0.38069355E-01  0.50650500E+00
  0.74366633E+00  0.46198958E+00  0.99765382E+00
  0.75535995E+00  0.43562283E-01  0.73894399E+00
  0.23084775E+00  0.47474720E+00  0.25754245E+00
  0.26618973E+00  0.47900583E+00  0.74578126E+00
  0.77465281E+00  0.98722995E+00  0.24316576E+00
  0.26505730E+00  0.53436504E+00  0.51078288E+00
  0.76716720E+00  0.98203122E+00  0.99375487E+00
  0.74275900E+00  0.31642523E-01  0.49870603E+00
  0.25401009E+00  0.49530632E+00  0.41771482E-02
  0.34280667E-02  0.22354019E+00  0.37888388E+00
  0.53039751E+00  0.74593002E+00  0.88395153E+00
  0.51365775E+00  0.25597070E+00  0.62697812E+00
  0.70840761E-02  0.72103231E+00  0.11941026E+00
  0.29390368E-01  0.22977365E+00  0.86389766E+00
  0.49826672E+00  0.75441915E+00  0.37767476E+00
  0.67855451E-02  0.76210962E+00  0.60808163E+00
  0.51084450E+00  0.24250728E+00  0.12514878E+00
  0.14656406E+00  0.38253053E+00  0.47978979E-01
  0.64188783E+00  0.90579252E+00  0.54253553E+00
  0.66737138E+00  0.89987953E-01  0.94249436E+00
  0.17626005E+00  0.64017717E+00  0.45510688E+00
  0.36205597E+00  0.39077751E+00  0.95713535E+00
  0.84392997E+00  0.91291482E+00  0.45356150E+00
  0.87765057E+00  0.85677248E-01  0.50013085E-01
  0.37778752E+00  0.62754274E+00  0.56274035E+00
  0.89263640E+00  0.89816054E-01  0.19655380E+00
  0.36719143E+00  0.59599708E+00  0.70290684E+00
  0.86246939E+00  0.88668989E+00  0.30874621E+00
  0.35505095E+00  0.39854240E+00  0.81772652E+00
  0.11640557E+00  0.56757619E+00  0.30698887E+00
  0.68650989E+00  0.11722445E+00  0.81258344E+00
  0.15580065E+00  0.38687167E+00  0.19576226E+00
  0.64853032E+00  0.93436154E+00  0.70529160E+00
  0.86415660E+00  0.55933756E+00  0.94497999E+00
  0.35624908E+00  0.13369701E+00  0.45451638E+00
  0.87800775E+00  0.38609589E+00  0.53489528E+00
  0.40105433E+00  0.91930893E+00  0.49736110E-01
  0.16131670E+00  0.13413347E+00  0.56384514E+00
  0.65372007E+00  0.56907089E+00  0.50926488E-01
  0.16461057E+00  0.89884920E+00  0.94539919E+00
  0.65465785E+00  0.39556961E+00  0.45018365E+00