Na88 Sn16 P8 Se96                       
   1.00000000000000     
    14.0793397336999995    0.0000000000000000    0.0000000000000000
     0.0000000000000000   14.0793397336999995    0.0000000000000000
     0.0000000000000000    0.0000000000000000   28.1586794673000007
   Na   Sn   P    Se
    88    16     8    96
Direct
  0.0157746030265395  0.0248285416353892  0.1071546677147051
  0.5037890496412966  0.5257108844859365  0.6277402655842428
  0.5028022555695459  0.4823367195742911  0.8820082389229461
  0.0443272114968957  0.9729462961478700  0.3693594729976393
  0.2414344617550689  0.9970546595604499  0.8716631765105364
  0.9770393996528675  0.5007889735348858  0.3669359310684107
  0.2906784736748312  0.3797763765078174  0.1155543707232960
  0.2800779332405626  0.9961605483450469  0.1247898721868267
  0.7441535029425335  0.9929246069255012  0.6222856652493498
  0.7229764343489885  0.2588801942039625  0.7562486555831863
  0.7560164197962062  0.7734244768060463  0.3769258900600800
  0.2685176929477451  0.2126190353705235  0.0046481022095996
  0.7504546411312374  0.2271517060282890  0.1736332235741474
  0.0247058019467712  0.7373320051111623  0.7623122417991205
  0.0168861359647340  0.0212327900209034  0.9786089584469840
  0.4433980340520000  0.4920422135715996  0.3686015216353133
  0.0177932262558110  0.0387908912230184  0.6145277712376559
  0.0259205793088112  0.4966898096062276  0.6152715208390365
  0.5046840051831364  0.9316930926059481  0.1247284659880819
  0.9826817570853454  0.5171469031684384  0.8661302678293694
  0.5174815523127935  0.9963869140787722  0.3654715737094508
  0.2651925445361151  0.2642145006501244  0.3928726529474783
  0.8103427744507509  0.7820057352964408  0.8820994387788980
  0.7426400260122098  0.2461434344903074  0.6381115074448012
  0.8375412183593945  0.7506059413350414  0.2395321695994358
  0.2807014878927478  0.0750713323957357  0.6211427185603775
  0.7775221451852646  0.7806218469896610  0.0048699455287961
  0.7478448961543376  0.2728267926103827  0.3698527364658196
  0.5166688477164356  0.7575434469458009  0.4985213892528744
  0.5098952532098872  0.2858464064115006  0.0078587652870516
  0.0055712129831044  0.5297983728803473  0.5060618820070441
  0.2888280127205807  0.7685158515215437  0.7485874544739822
  0.5048637769262942  0.7293084136674260  0.2435035398848955
  0.9904844473318480  0.2488184144834641  0.7546842214903869
  0.0154168241604681  0.2691680203583055  0.0019061942759522
  0.4954402002046658  0.2409196243526844  0.4873409174341546
  0.4957570057559965  0.9920706387311743  0.0016737056661377
  0.2201794185402169  0.2295141067261366  0.2491995847675641
  0.7397401544976188  0.7622156147066627  0.7586075738425037
  0.2222557098479129  0.7384785802846336  0.2603512842412405
  0.0326859727598333  0.9608518947934459  0.2384645339979625
  0.4894473980756722  0.6394246503193864  0.7561157353836196
  0.4908954782062389  0.0082052149004534  0.7422739296787441
  0.9815747940089704  0.4979142790830633  0.2425209501574564
  0.7736561632979843  0.2602402628846400  0.9998570955661279
  0.7864511333617440  0.7286409048423731  0.5041293308764275
  0.2497169904866251  0.7867465772333483  0.5030117589579134
  0.7654824582834922  0.2532475172208103  0.8807674064310036
  0.9934970160034023  0.0001218603585333  0.7652501835739695
  0.4724425465565548  0.4347608508996617  0.2483074360204614
  0.0064162122669372  0.5051189080980634  0.7446188735647424
  0.5340127396353052  0.9765878708135967  0.2507571418822754
  0.2843932575736107  0.2686057153447118  0.5174675814489300
  0.0111354626881583  0.7212220162245582  0.0080807670483331
  0.7435780262255809  0.2223849844101636  0.5075010979025080
  0.5005035998662822  0.7187829836109133  0.0179217043064097
  0.0175453093618960  0.4828610449003623  0.9866974907926229
  0.5086202698410089  0.5029519904737098  0.4884128348935223
  0.5339526748817481  0.4640405104908013  0.1243565853677473
  0.0054542324555495  0.0284576523981308  0.4843969211692644
  0.5018016627202748  0.0076362853348893  0.8741903080919791
  0.0001154117823642  0.2585073001314802  0.5063710896836934
  0.0398424094744982  0.4828904284075052  0.1215920415411870
  0.5165270337130600  0.0092391634046891  0.5145078336588012
  0.9876536623214341  0.2245704134993182  0.2390231982373812
  0.7392800464299752  0.7390538550553269  0.6203535565489193
  0.2485385359987932  0.7646112296578241  0.3929954757227848
  0.2365307895909197  0.2648689209436678  0.7529095541220499
  0.7355710237506052  0.7435778050551577  0.1275294899639990
  0.4957431281831602  0.2839028039197452  0.7562866780427743
  0.5341562447180784  0.2389699005991366  0.2510349441054986
  0.2555329692812058  0.7074798182160791  0.8824095731426996
  0.2320136407686484  0.7137880336474850  0.0009163010333529
  0.5238766622208865  0.9878315114689266  0.6296625732112019
  0.7480551251366272  0.0095413986443830  0.8740132425824401
  0.2417062383159816  0.4874150360751659  0.3820279197573949
  0.2483162149929783  0.4786161752561581  0.8718509959129980
  0.8098465745287525  0.0145250540514364  0.3763903926671713
  0.7779428797191690  0.9943060700811851  0.1237158870613036
  0.2946450006509958  0.4647750748766021  0.6257524326144991
  0.7379740089570863  0.5361974734456804  0.8749958622265012
  0.2779809626612022  0.0407192881624363  0.3708329569774354
  0.7719165282986783  0.4974838103628578  0.6199797214265441
  0.2697676789042253  0.6733906681107897  0.1382457368698103
  0.2459038087925543  0.7471124557370643  0.6190780404007193
  0.7522798076341772  0.4992336910963273  0.1352649888146638
  0.2853517789229608  0.2431581751917279  0.8704363369772800
  0.7143261529964454  0.5068226467522133  0.3803856403471847
  0.2692019155692588  0.9909457463935960  0.2403950644426620
  0.7519137791798226  0.5146838201486232  0.7533536698598841
  0.2257417008154541  0.0102527444489137  0.7437524040741175
  0.7233445847193871  0.4892631735030770  0.2604342179183393
  0.2625764351158276  0.9688733964221466  0.9908960459320842
  0.7635536256869070  0.4700337197650808  0.4999513396572475
  0.2650297350612156  0.0203924741342209  0.5042885698117688
  0.7490621837575728  0.5360802779264173  0.0066941466763405
  0.7407454541011936  0.0119707799500376  0.7534547695351849
  0.2346335957731577  0.4735119659036487  0.2589786255043731
  0.2636941739242673  0.5130388247520770  0.7347061831580258
  0.7764464358135339  0.9955529126819445  0.2532856062774666
  0.2563379034900113  0.5352150655802966  0.4967907640663989
  0.7623675485770766  0.0211323906357657  0.9951803968216623
  0.7483117171120893  0.9857840218062432  0.4953475857508158
  0.2665592305870033  0.4749281905199709  0.9928365411563311
  0.0169992444096509  0.2468250055036158  0.3734654684214241
  0.5191983915775469  0.7583177780868230  0.8765766757823151
  0.5050748084467356  0.2445003330139968  0.6275325755577301
  0.0207936198466954  0.7485466624810523  0.1269460678835120
  0.9997827435230014  0.2484011223237032  0.8745299104432012
  0.5031975867694731  0.7404637540521317  0.3706654937935713
  0.9945540658561829  0.7609624502735408  0.6245960341468373
  0.5145067132993500  0.2218110039733856  0.1186476615381842
  0.1488009667351813  0.3715390709605023  0.0405813231567917
  0.6517499054843059  0.8803142419707435  0.5536753616083318
  0.6554373468951800  0.1318461359045544  0.9432527463940159
  0.1354592956161605  0.6410439025708505  0.4524175200047783
  0.3691225725678312  0.3652020321935642  0.9444048952056072
  0.8458334879796174  0.8753989079641561  0.4464492699822915
  0.8791839867627886  0.1464562626050551  0.0406838276476113
  0.3712167932831655  0.6476767353061098  0.5481980937962337
  0.8860890705939570  0.0861516349701817  0.1915516831278691
  0.3421226124188399  0.6347928086496257  0.6859239778292429
  0.8846855672773732  0.8884404852824520  0.3100189742749421
  0.3828707721916210  0.4533719482296251  0.7937683273473999
  0.1422573128021897  0.6008171935988896  0.3074789658339167
  0.6306396860199361  0.1033402986917054  0.8066178908416164
  0.1273768235668897  0.3884393926228070  0.2055546030154752
  0.6452489619347773  0.8998565604279317  0.7011840450675417
  0.8677925886466442  0.6272861308544538  0.9559642569821152
  0.3691941457470480  0.1146019437571221  0.4512727355391911
  0.8740917017915991  0.3844388640411540  0.5553794465742447
  0.3683648200136547  0.8621727482729532  0.0493777884812214
  0.1539405133298370  0.1320142292966538  0.5459884569378024
  0.6563635849824080  0.6310630149360641  0.0663448858061672
  0.1603984952505477  0.8660540428569078  0.9385728965801359
  0.6487790909625510  0.3658413909156704  0.4522442698606160
  0.6197863365721512  0.3923725120603446  0.3185926407080094
  0.1534182659129615  0.8902168324088682  0.7990403062125007
  0.1136117578387468  0.0933454875440547  0.6920432122722197
  0.6153667128924701  0.5653913075443090  0.2053343678554845
  0.8457742411051485  0.3926607668510020  0.7072842875662446
  0.3670982380327106  0.8775413975553092  0.1935696020549925
  0.3908808335059722  0.0897902075956936  0.2833039448842793
  0.8543084871362597  0.6274521623910534  0.8002226957700511
  0.1685234246678283  0.0740103408747191  0.0479054635124513
  0.6600730902863488  0.5990928430954751  0.5488264760199952
  0.6502791945313732  0.4238085520220652  0.9591419268392680
  0.1741817900025307  0.9181405138486223  0.4452519270479456
  0.3712994628185453  0.0799409056211286  0.9452643818569271
  0.8493537200206140  0.5700546860675105  0.4404393913011048
  0.8684788628946468  0.4369534533122605  0.0535449986694616
  0.3621900522857723  0.9011382988064505  0.5526903386568456
  0.1597446479061665  0.0783532842022311  0.1895750022693475
  0.6456912102670537  0.6056995315819005  0.6991997730798786
  0.1825125593402019  0.9119355130284577  0.3064957890450006
  0.6806925819077588  0.3990198380747271  0.8145854746882480
  0.8254031102280918  0.6022983728764056  0.3048759408541321
  0.3230131191460288  0.1210631008676285  0.7937976135565159
  0.8354696407038282  0.3901899233265958  0.2118442141253472
  0.3286937237799890  0.9176284721301455  0.6866930932442156
  0.8508633958604853  0.9199911460490749  0.9395296008744437
  0.3424005758778432  0.4168142789009024  0.4460658197011915
  0.8649729145860613  0.0848746949152414  0.5491937149843762
  0.3630869269561557  0.5575602919792321  0.0529643749561353
  0.1637425007877837  0.4292805119152304  0.5492774451103198
  0.6706623180220378  0.9161671202676610  0.0496454783305187
  0.1556030771557039  0.5862592560202452  0.9409839160223266
  0.6410856601112399  0.0845382975017549  0.4445729420303030
  0.3425752391986769  0.3534304428571386  0.3027732510037323
  0.8364362513837877  0.8943518219834045  0.8045821460556204
  0.8412084076772534  0.1315423337446789  0.7080605885689981
  0.3587921122863377  0.5752278706119188  0.2167921082810768
  0.1488011572701906  0.4004311129438884  0.6944676358437933
  0.6921519271202832  0.8777234701742050  0.2072162081262149
  0.6826879354904178  0.1114891632125696  0.3012472092603259
  0.1540083805849351  0.5964513336625977  0.8001116445264375
  0.1107892111147343  0.1554593316033575  0.3310019235887167
  0.6136526347932733  0.6730202452924433  0.8351669866028684
  0.5912189046249091  0.3463033639251710  0.6707800808635023
  0.1125635055071400  0.8244599020074778  0.1811248736412557
  0.4266478670275701  0.1465495239674534  0.6711009357155449
  0.9206408836876357  0.6503926554669173  0.1665421063439781
  0.9403912630387483  0.3215752896998524  0.3124900578302899
  0.4270790105459575  0.8420709776760587  0.8275437447621659
  0.1099298775057469  0.1793822749961428  0.9174193372961293
  0.5788880818248202  0.6375175093294264  0.4138998163301173
  0.1056888987278237  0.8567041714618492  0.5983497423305369
  0.6394468596588603  0.2885143345935974  0.0883407122672445
  0.9321965656852578  0.6676892382086783  0.5685315164534156
  0.4176332282926202  0.1540978415429795  0.0664588665953422
  0.9131087863098003  0.3513274492507650  0.9192166026723162
  0.4350502246934592  0.8366508126207215  0.4204544611865216
  0.8769425881806666  0.8337725188981103  0.6628242999124515
  0.4370347101129476  0.3175127417426247  0.1684882016511312
  0.9074936169779996  0.1488198830768361  0.8347384091597738
  0.4007095830349353  0.6710155139632509  0.3241566734493151
  0.0839781788314089  0.3446335096913015  0.8248735696702469
  0.6080942841860704  0.8103067708491565  0.3241020323845629
  0.0624249467256638  0.6614079077648302  0.6744492637994826
  0.5663831322193617  0.1076289626896232  0.1650430567208626
  0.4405545668798889  0.3532495418518268  0.5764890952204997
  0.9310832449051383  0.8471445894236647  0.0850376354457602
  0.9130458343290359  0.1743278558978419  0.4251942647757542
  0.4332520248760807  0.6590485652278004  0.9156540839886259
  0.0955714823686231  0.3593340885173739  0.4162328227783469
  0.5966870946089227  0.8618074078919405  0.9238174226304648
  0.5944111987369289  0.1626561940283687  0.5732203064571760
  0.1101895888099987  0.6466015946426074  0.0878919091467885
 
  0.92729427E-02 -0.26959473E-02  0.70905634E-02
 -0.25158278E-02 -0.23723416E-02 -0.35915691E-02
  0.38345356E-02  0.15821098E-02 -0.12387576E-02
 -0.18064225E-02 -0.21541690E-02 -0.38342623E-02
  0.28510581E-03  0.66049504E-03 -0.19210149E-03
 -0.11765544E-02  0.13312242E-02  0.45822516E-02
 -0.35198602E-02  0.31868301E-02 -0.36505588E-02
 -0.47234497E-02  0.35220811E-02 -0.29495655E-02
 -0.96662185E-03 -0.11867126E-02 -0.65532720E-02
  0.30207822E-04 -0.76798377E-02 -0.65121316E-02
  0.12419115E-01 -0.10326121E-02 -0.70822819E-03
  0.35958801E-02  0.12308345E-02 -0.29974317E-02
  0.22768985E-02 -0.58167260E-02 -0.21811204E-02
  0.53427790E-03  0.34957716E-03  0.26671552E-02
 -0.53803876E-02  0.10988639E-02  0.96676978E-03
  0.11070271E-02  0.40764256E-02  0.29815992E-02
 -0.39438290E-02  0.23281583E-02  0.36841458E-02
 -0.15171811E-02  0.74020180E-02 -0.76194610E-02
  0.51973914E-02 -0.81996262E-02 -0.44179298E-02
 -0.19444143E-02 -0.35593684E-02 -0.20369262E-02
  0.37551750E-02  0.34387520E-02  0.59500120E-02
 -0.22548453E-02 -0.36361584E-02  0.23590246E-04
 -0.25529899E-02 -0.10965501E-02  0.60405044E-02
 -0.17268687E-03 -0.51945810E-02 -0.16340666E-03
  0.13847377E-02 -0.67834905E-02  0.76627634E-03
  0.28355283E-02  0.48633657E-02 -0.29468671E-02
 -0.25085709E-03 -0.32525244E-02  0.40814957E-02
  0.10760812E-03 -0.37251980E-02  0.76640309E-03
  0.11469630E-01 -0.30433129E-02 -0.14842813E-02
  0.24033475E-03  0.13462029E-02 -0.47638366E-02
 -0.65990930E-02  0.89695854E-02  0.48021165E-02
 -0.67681041E-02  0.24185540E-02 -0.27408710E-02
  0.91089821E-03 -0.53596731E-02  0.68174871E-02
  0.24829272E-03  0.43100278E-03  0.34271108E-02
 -0.53781545E-02 -0.17879857E-02  0.17094123E-02
 -0.82385000E-02  0.33574114E-02  0.49754571E-02
 -0.53955473E-02 -0.52127548E-02 -0.39221124E-02
  0.27260804E-04 -0.43963113E-02 -0.11251590E-01
 -0.67781043E-02 -0.32275359E-02  0.62326476E-02
 -0.17470842E-02 -0.14118884E-02  0.34383285E-02
 -0.67246952E-02 -0.16225639E-02 -0.18135369E-02
  0.41946101E-02 -0.32683626E-02  0.35650347E-02
 -0.17544676E-02  0.64361593E-02  0.37078774E-02
 -0.20699737E-02  0.24190082E-02  0.41000389E-02
  0.59996539E-04 -0.33794574E-02 -0.24167690E-02
  0.40317601E-02 -0.14782887E-02 -0.38846004E-02
 -0.50738881E-02 -0.70263972E-02  0.27867259E-02
 -0.34910437E-02 -0.48884888E-02  0.18350178E-02
 -0.20858949E-02 -0.10603391E-01  0.31506464E-02
  0.48331833E-02 -0.35652564E-02 -0.67721246E-02
  0.20791060E-02  0.25383685E-02  0.14092588E-02
 -0.59008012E-03  0.18770063E-02  0.18408993E-02
  0.99951208E-04 -0.45863434E-03 -0.32652729E-03
  0.47227697E-02  0.16668468E-02 -0.77209454E-02
 -0.10562745E-01  0.73128955E-02 -0.17816460E-03
 -0.30638931E-02 -0.15751174E-02 -0.82115718E-02
  0.10567963E-02 -0.41632733E-02  0.63339616E-03
  0.13627821E-02 -0.31871975E-02 -0.86994922E-03
  0.22192602E-02  0.49837097E-02  0.72884571E-02
  0.48704547E-03 -0.70674149E-03 -0.50119345E-02
 -0.37593496E-02  0.10587688E-02 -0.21245348E-02
  0.20776856E-03 -0.15863951E-02  0.54943571E-02
  0.39300192E-02 -0.31439959E-03  0.36808893E-02
 -0.56028320E-04  0.93131305E-04 -0.32086716E-02
  0.10971361E-01 -0.44351753E-02  0.33775733E-03
 -0.43641230E-02 -0.86458014E-02  0.21925845E-02
 -0.10138402E-01  0.60303982E-02 -0.31700647E-02
  0.14918848E-04  0.50748241E-02  0.17802761E-02
 -0.12348235E-02 -0.61038590E-03  0.37300799E-02
  0.15037211E-02  0.18612862E-02 -0.64083766E-02
  0.50010316E-02 -0.16277661E-02 -0.29762206E-02
 -0.49206266E-02  0.42053763E-02  0.73280305E-03
  0.44237174E-02  0.21724758E-02 -0.75925598E-02
  0.32831571E-02 -0.91189565E-02 -0.16043773E-02
  0.62413095E-02  0.15640235E-02 -0.41051139E-02
  0.25986447E-02  0.13489196E-01  0.31324941E-02
 -0.14092900E-04  0.60760575E-03 -0.85654508E-02
 -0.12644178E-02 -0.14660799E-02  0.11609493E-01
 -0.29379650E-02  0.16127621E-02 -0.60951923E-03
 -0.31959814E-02  0.80661575E-03  0.42048362E-03
  0.60058317E-02 -0.57915415E-02  0.51876210E-02
  0.12526118E-02  0.83424817E-03  0.32760125E-02
 -0.38975687E-02  0.38089856E-02  0.69336392E-02
  0.28154042E-03 -0.14291400E-02  0.72350102E-02
  0.25088143E-02 -0.15356292E-02  0.73444357E-02
 -0.26752723E-02  0.72430760E-02  0.47495914E-04
  0.28839557E-02 -0.31947328E-02  0.21525212E-02
  0.23374159E-02  0.17096555E-02  0.46851196E-02
  0.22574223E-02 -0.86520421E-03 -0.96836311E-04
 -0.81371341E-03 -0.18326627E-02  0.86086090E-03
 -0.98444900E-03  0.28875992E-02 -0.98219535E-03
  0.22531248E-02  0.27643938E-02  0.33456100E-03
 -0.28603204E-02  0.58530095E-03 -0.18642993E-02
 -0.77009390E-03  0.65412710E-03 -0.11841317E-02
  0.95869828E-03  0.28993206E-02  0.12974412E-02
 -0.33790336E-03  0.63149661E-03 -0.19954414E-02
  0.21794381E-02 -0.29734461E-02  0.87248823E-03
  0.10572095E-02 -0.25522924E-02  0.60247721E-03
  0.12227537E-02  0.20489448E-02  0.31608695E-02
 -0.20728538E-02 -0.32582431E-03  0.23115255E-02
 -0.25220923E-02  0.11474798E-02 -0.23982060E-02
  0.29953774E-03 -0.25236560E-02  0.80910601E-03
  0.30919576E-02 -0.46209800E-02 -0.11633185E-02
  0.13433340E-03 -0.17163783E-02 -0.12235027E-03
  0.18700135E-02 -0.69295066E-03 -0.12114937E-02
 -0.14952138E-02  0.33168208E-02 -0.16726668E-02
 -0.61537299E-03  0.49546734E-03  0.19723475E-02
 -0.48656367E-03 -0.41911195E-02  0.24821302E-02
 -0.96515217E-03  0.21896488E-02  0.35686934E-03
 -0.22797166E-02  0.26725283E-02 -0.85922036E-02
  0.33389146E-02  0.40726009E-02  0.21666003E-02
  0.29884968E-02 -0.96510986E-04  0.22096912E-04
  0.10792930E-02  0.35641365E-02 -0.18366173E-02
 -0.32138727E-02 -0.26910686E-02  0.19681100E-02
 -0.87062834E-03  0.21228222E-02 -0.22747905E-02
 -0.42673835E-04  0.26340272E-02 -0.43100114E-03
  0.31027148E-02  0.24040020E-02  0.10754543E-02
 -0.13547221E-02  0.60700434E-03  0.12764083E-02
 -0.13195927E-02 -0.85007897E-03 -0.43639734E-02
 -0.19809534E-02  0.61827883E-03  0.53009222E-02
  0.90700858E-03  0.49746965E-02  0.28312073E-03
 -0.59473705E-03  0.19717537E-02  0.33609404E-03
  0.27746698E-02 -0.17012332E-02  0.43324908E-02
 -0.64782618E-02  0.96778068E-03 -0.61376733E-03
 -0.69090932E-03  0.15369192E-03  0.11513646E-02
  0.34489224E-02 -0.76511085E-04  0.13778213E-02
 -0.43103430E-02 -0.92204878E-03 -0.10703512E-02
  0.36061200E-03 -0.30452676E-02 -0.67258870E-03
 -0.26935633E-02  0.65238819E-03  0.11437115E-02
  0.42709855E-02  0.18177372E-03 -0.34928254E-02
 -0.43761542E-03 -0.12226440E-02 -0.36228362E-02
 -0.59792426E-03  0.48789081E-03 -0.61875439E-03
 -0.22356351E-02  0.40384203E-02 -0.18276254E-02
  0.24410487E-02  0.12663162E-03 -0.10529911E-02
 -0.53205082E-02  0.53066820E-02  0.26623640E-02
 -0.83446956E-03  0.36632271E-02 -0.72809420E-03
 -0.94704922E-03  0.26266811E-02 -0.57459606E-03
  0.92147772E-03  0.15765313E-02  0.35634764E-02
 -0.85872545E-03 -0.12299168E-02  0.25638873E-03
 -0.19912061E-02  0.18756244E-02  0.17984505E-02
 -0.27440621E-02  0.81843118E-04 -0.13446136E-02
 -0.18129675E-03  0.10999865E-02  0.46677035E-03
  0.17036354E-02 -0.11392994E-02 -0.27011742E-03
  0.22962197E-02 -0.11400510E-02  0.23830491E-02
  0.25209517E-03 -0.36848076E-02 -0.21332392E-02
  0.25400283E-02  0.65065535E-03 -0.17425567E-02
  0.10151093E-02  0.43571295E-02  0.21008320E-02
  0.21901761E-02 -0.12970137E-02  0.31250122E-02
 -0.21131869E-02 -0.29218631E-02  0.48548211E-03
 -0.18959430E-03  0.71278822E-03  0.92990934E-03
 -0.13450915E-02  0.22275000E-02 -0.71437892E-03
  0.60451735E-03  0.56227919E-03 -0.97338989E-04
  0.23436039E-02 -0.23570521E-02  0.21677473E-02
 -0.18459661E-04  0.19181173E-02  0.23971726E-02
  0.10447413E-02 -0.22171565E-02  0.23553765E-02
  0.95942050E-03  0.22076585E-02 -0.39151276E-02
 -0.99876322E-03  0.99496931E-03  0.16777594E-02
 -0.23112690E-02  0.53981938E-03 -0.12067157E-02
  0.41901318E-02 -0.38743921E-02  0.25008406E-03
 -0.16144076E-02 -0.55172841E-03  0.16009844E-02
  0.11138416E-02  0.70978758E-02 -0.46543062E-03
  0.13436717E-02 -0.15999598E-02  0.85967490E-03
  0.21416359E-02 -0.10530472E-02  0.26252232E-03
  0.47868339E-03  0.29907870E-03 -0.41570565E-04
 -0.75532213E-03 -0.21297600E-02 -0.29006297E-02
 -0.11790610E-02  0.69741313E-03 -0.90211967E-04
 -0.96482324E-03 -0.47842855E-02  0.60064910E-03
  0.29448421E-02 -0.38938047E-02  0.14736693E-02
  0.56921964E-02 -0.16185737E-02  0.10754788E-02
  0.30309597E-02 -0.23563601E-02 -0.99360634E-03
 -0.23194856E-02 -0.39757619E-03  0.35371707E-03
 -0.11152371E-02  0.36531329E-03  0.19723539E-02
  0.84247290E-03  0.50026646E-03  0.23502760E-03
  0.13093588E-02 -0.11499048E-03  0.26788153E-02
  0.49473676E-03  0.21854657E-02 -0.17089638E-02
  0.41537032E-03 -0.17800618E-02 -0.35659124E-02
  0.20911579E-02  0.27876800E-02  0.14714188E-04
  0.16962592E-02 -0.25087193E-03 -0.60202195E-03
 -0.12147317E-03  0.35353555E-02 -0.48764258E-02
 -0.29924202E-03 -0.46435032E-02 -0.57877840E-02
  0.34660696E-02  0.46263573E-03  0.51138445E-02
 -0.15387080E-02 -0.50321576E-02 -0.10850224E-02
  0.18674849E-02  0.26457550E-03 -0.12957858E-02
  0.31985817E-03  0.90663849E-04 -0.44363619E-03
  0.18639952E-02 -0.31188443E-02  0.31931862E-02
 -0.69387360E-03 -0.10959949E-02 -0.10736545E-03
  0.42001174E-02 -0.51192042E-03 -0.28507690E-02
  0.26258479E-02 -0.10839259E-02  0.29481869E-03
 -0.31295758E-02 -0.10864267E-02  0.50059939E-03
 -0.32612982E-02 -0.27237161E-02  0.11806015E-02
  0.27764011E-02  0.41905151E-02 -0.20448526E-02
 -0.63283344E-02  0.14720866E-02 -0.28821105E-02
 -0.34790984E-02  0.18934023E-02 -0.58750779E-03
  0.23222359E-03  0.74825075E-03  0.28996588E-02
 -0.24522640E-02  0.37084853E-02  0.13215863E-02
  0.27673940E-02 -0.35979212E-02 -0.22525204E-02
  0.10859416E-02 -0.11770041E-02 -0.97242853E-03
  0.11474988E-02  0.10605262E-02 -0.17780401E-03
  0.34142519E-03 -0.11065269E-02  0.41196337E-03
 -0.27365955E-02 -0.12067221E-02  0.37764239E-03
  0.11274185E-02  0.83526035E-03 -0.77709467E-03
 -0.46333073E-03  0.24054744E-02  0.49618235E-03
 -0.18981033E-02 -0.61726435E-03  0.57212853E-04
  0.20929830E-02 -0.50353875E-03 -0.15047676E-03
  0.25109640E-04 -0.10793406E-02 -0.19506903E-02
 -0.56599509E-02 -0.14643302E-02 -0.27055730E-02
 -0.84604948E-03  0.19088691E-02 -0.18172896E-02
 -0.32930766E-02  0.21084517E-02  0.17576024E-02
 
           1
   2.00000000000000     
  0.46846984E+00 -0.61516629E-03  0.00000000E+00  0.00000000E+00
  0.17091844E-01  0.24445577E-01  0.10765828E+00
  0.50343167E+00  0.52537389E+00  0.62748517E+00
  0.50334696E+00  0.48256146E+00  0.88192025E+00
  0.44070605E-01  0.97264029E+00  0.36908714E+00
  0.24147496E+00  0.99714848E+00  0.87164953E+00
  0.97687227E+00  0.50097808E+00  0.36726139E+00
  0.29017847E+00  0.38022907E+00  0.11529509E+00
  0.27940696E+00  0.99666087E+00  0.12458038E+00
  0.74401619E+00  0.99275603E+00  0.62182021E+00
  0.72298073E+00  0.25778926E+00  0.75578612E+00
  0.75778058E+00  0.77327779E+00  0.37687559E+00
  0.26902850E+00  0.21279388E+00  0.44352065E-02
  0.75077808E+00  0.22632543E+00  0.17347831E+00
  0.24781697E-01  0.73738166E+00  0.76250168E+00
  0.16121841E-01  0.21388886E-01  0.97867762E+00
  0.44355529E+00  0.49262128E+00  0.36881329E+00
  0.17232997E-01  0.39121611E-01  0.61478944E+00
  0.25705061E-01  0.49774128E+00  0.61473034E+00
  0.50542231E+00  0.93052832E+00  0.12441468E+00
  0.98240555E+00  0.51664129E+00  0.86598559E+00
  0.51801498E+00  0.99687540E+00  0.36589418E+00
  0.26487224E+00  0.26369798E+00  0.39287433E+00
  0.80998012E+00  0.78184997E+00  0.88252847E+00
  0.74261550E+00  0.24540553E+00  0.63809990E+00
  0.83773792E+00  0.74964233E+00  0.23958660E+00
  0.28110428E+00  0.75762184E-01  0.62093341E+00
  0.77748651E+00  0.78015982E+00  0.51598381E-02
  0.74786018E+00  0.27229762E+00  0.36990717E+00
  0.51829813E+00  0.75711114E+00  0.49841597E+00
  0.50992939E+00  0.28603764E+00  0.75204088E-02
  0.46337979E-02  0.53107252E+00  0.50640296E+00
  0.28786659E+00  0.76885941E+00  0.74839278E+00
  0.50499317E+00  0.72854706E+00  0.24398776E+00
  0.99051972E+00  0.24887964E+00  0.75492764E+00
  0.14652846E-01  0.26891403E+00  0.20276071E-02
  0.49426990E+00  0.24139655E+00  0.48769430E+00
  0.49499056E+00  0.99133016E+00  0.13951335E-02
  0.22018329E+00  0.22888960E+00  0.24840043E+00
  0.73877731E+00  0.76175714E+00  0.75905025E+00
  0.22200753E+00  0.73827802E+00  0.26059550E+00
  0.31730716E-01  0.96062141E+00  0.23833573E+00
  0.49004325E+00  0.63896037E+00  0.75636895E+00
  0.49064625E+00  0.91194850E-02  0.74253729E+00
  0.98128075E+00  0.49825790E+00  0.24281216E+00
  0.77366469E+00  0.25976020E+00  0.99968544E+00
  0.78702385E+00  0.72843091E+00  0.50385342E+00
  0.24899623E+00  0.78574846E+00  0.50320969E+00
  0.76498655E+00  0.25255310E+00  0.88089774E+00
  0.99320071E+00  0.99861563E+00  0.76547396E+00
  0.47312911E+00  0.43425440E+00  0.24782644E+00
  0.67115537E-02  0.50547949E+00  0.74471897E+00
  0.53392892E+00  0.97685450E+00  0.25088789E+00
  0.28440746E+00  0.26854057E+00  0.51744439E+00
  0.11806342E-01  0.72145880E+00  0.75323787E-02
  0.74207757E+00  0.22342380E+00  0.50748844E+00
  0.50006837E+00  0.71855923E+00  0.17338469E-01
  0.17695430E-01  0.48226964E+00  0.98674248E+00
  0.50881386E+00  0.50249924E+00  0.48835105E+00
  0.53426793E+00  0.46474846E+00  0.12487426E+00
  0.55234183E-02  0.28357258E-01  0.48404094E+00
  0.50126764E+00  0.77866857E-02  0.87403941E+00
  0.14492575E-03  0.25828195E+00  0.50676133E+00
  0.40400677E-01  0.48284577E+00  0.12185348E+00
  0.51651907E+00  0.92523929E-02  0.51427993E+00
  0.98921217E+00  0.22394039E+00  0.23904719E+00
  0.73866011E+00  0.73782570E+00  0.62050929E+00
  0.24709835E+00  0.76546786E+00  0.39277032E+00
  0.23653291E+00  0.26558981E+00  0.75303600E+00
  0.73539561E+00  0.74349110E+00  0.12779442E+00
  0.49595673E+00  0.28416720E+00  0.75583152E+00
  0.53486665E+00  0.23873867E+00  0.25082355E+00
  0.25483398E+00  0.70807720E+00  0.88246162E+00
  0.23264204E+00  0.71409664E+00  0.37703144E-03
  0.52434304E+00  0.98653614E+00  0.62954862E+00
  0.74894172E+00  0.97635715E-02  0.87372167E+00
  0.24207538E+00  0.48933120E+00  0.38225041E+00
  0.24831421E+00  0.47870249E+00  0.87124263E+00
  0.80966696E+00  0.14316794E-01  0.37721497E+00
  0.77752554E+00  0.99453517E+00  0.12367260E+00
  0.29419100E+00  0.46488966E+00  0.62578230E+00
  0.73882715E+00  0.53537477E+00  0.87536432E+00
  0.27815890E+00  0.40837795E-01  0.37106564E+00
  0.77136287E+00  0.49802488E+00  0.62047219E+00
  0.26980767E+00  0.67318766E+00  0.13875961E+00
  0.24626019E+00  0.74689432E+00  0.61959969E+00
  0.75189978E+00  0.50026259E+00  0.13526836E+00
  0.28576145E+00  0.24270436E+00  0.87058922E+00
  0.71465819E+00  0.50706551E+00  0.38071841E+00
  0.26952259E+00  0.99082284E+00  0.24038819E+00
  0.75179819E+00  0.51442349E+00  0.75341481E+00
  0.22560186E+00  0.10662934E-01  0.74368264E+00
  0.72366465E+00  0.48965586E+00  0.26045798E+00
  0.26217012E+00  0.96895654E+00  0.99076363E+00
  0.76344423E+00  0.47012664E+00  0.49986724E+00
  0.26516592E+00  0.20804329E-01  0.50438072E+00
  0.74901418E+00  0.53616998E+00  0.65524183E-02
  0.74105505E+00  0.11548396E-01  0.75351674E+00
  0.23478377E+00  0.47314941E+00  0.25902142E+00
  0.26386787E+00  0.51332988E+00  0.73493069E+00
  0.77615198E+00  0.99550663E+00  0.25344978E+00
  0.25597963E+00  0.53537807E+00  0.49662043E+00
  0.76241010E+00  0.20773900E-01  0.99523786E+00
  0.74875094E+00  0.98512760E+00  0.49526496E+00
  0.26657831E+00  0.47468438E+00  0.99282785E+00
  0.17264884E-01  0.24672657E+00  0.37337942E+00
  0.51898599E+00  0.75878894E+00  0.87645787E+00
  0.50498739E+00  0.24457072E+00  0.62767266E+00
  0.20724502E-01  0.74795131E+00  0.12712236E+00
  0.99964564E+00  0.24871217E+00  0.87455526E+00
  0.50287375E+00  0.74084339E+00  0.37005522E+00
  0.99502837E+00  0.76154097E+00  0.62474992E+00
  0.51493124E+00  0.22179729E+00  0.11864923E+00
  0.14895428E+00  0.37204536E+00  0.40450875E-01
  0.65129337E+00  0.87993197E+00  0.55381515E+00
  0.65531367E+00  0.13214769E+00  0.94309118E+00
  0.13545323E+00  0.64141807E+00  0.45238691E+00
  0.36956332E+00  0.36554353E+00  0.94448128E+00
  0.84564105E+00  0.87548513E+00  0.44653993E+00
  0.87899654E+00  0.14633551E+00  0.40373872E-01
  0.37093539E+00  0.64776456E+00  0.54857460E+00
  0.88621791E+00  0.86858301E-01  0.19157179E+00
  0.34203813E+00  0.63507290E+00  0.68594785E+00
  0.88507971E+00  0.88819882E+00  0.31032669E+00
  0.38195052E+00  0.45350942E+00  0.79372473E+00
  0.14215917E+00  0.60083903E+00  0.30756074E+00
  0.63112961E+00  0.10332943E+00  0.80671575E+00
  0.12676453E+00  0.38830841E+00  0.20547858E+00
  0.64530019E+00  0.89942397E+00  0.70113627E+00
  0.86740996E+00  0.62737880E+00  0.95604549E+00
  0.36980085E+00  0.11462777E+00  0.45102465E+00
  0.87402954E+00  0.38426518E+00  0.55512213E+00
  0.36827988E+00  0.86224205E+00  0.49333841E-01
  0.15362294E+00  0.13258790E+00  0.54585865E+00
  0.65671034E+00  0.63108100E+00  0.66270096E-01
  0.15964271E+00  0.86680787E+00  0.93876199E+00
  0.64866055E+00  0.36636176E+00  0.45219256E+00