Na88 Ge16 P8 Se96                       
   1.00000000000000     
    13.9614333504000001    0.0000000000000000    0.0000000000000000
     0.0000000000000000   13.9614333504000001    0.0000000000000000
     0.0000000000000000    0.0000000000000000   27.9228667008000002
   Na   Ge   P    Se
    88    16     8    96
Direct
  0.9762039116035434  0.0777284643850374  0.1210220505715028
  0.5446744751175522  0.4576456389163689  0.4903763634444854
  0.4827515261022856  0.5331858036953967  0.8991879844797950
  0.0444226374693393  0.0121188227620375  0.3750347839845400
  0.2178022092461114  0.9640261116188519  0.8798136789911187
  0.0476994310251090  0.5059461375080305  0.3804109511465366
  0.0297764629441967  0.5452009504101062  0.1213394209272187
  0.2534841402785449  0.2784081217678110  0.2319971366980781
  0.7183558495338770  0.7447456092093390  0.6171677545693447
  0.7279328680853345  0.2892740886959305  0.9012641911999174
  0.7660764506958323  0.7437292425519857  0.3480448943355369
  0.2875756070621349  0.2183851417487230  0.8781318320273283
  0.7356014554090812  0.3172216329958343  0.1245791536166136
  0.2330125829167378  0.7574201213199147  0.5337033749604385
  0.9423741452864223  0.0220606288923539  0.8091974067683092
  0.2899871574594473  0.5338914514009423  0.3669640468386255
  0.2215285979787835  0.9963450544321384  0.6223742566753271
  0.8678173022151783  0.5094943326157172  0.6262714364967694
  0.5120124909473174  0.0235762339586970  0.1223007822829592
  0.0012231216687125  0.5062442820554381  0.8676871022733036
  0.5487992919117137  0.0440016997453364  0.3802682902610556
  0.2653123484199084  0.2222660457828672  0.3643413003559193
  0.7018577650978473  0.7898762282072219  0.8935335168595049
  0.7234279402706281  0.3367566608563249  0.6048484655377467
  0.2824981202004874  0.7956796084066523  0.1405061499157137
  0.2277678416696844  0.2383347688268460  0.7450172082554803
  0.7122524523564717  0.8013831462035765  0.1087578151360001
  0.7878712789878791  0.4836529386685011  0.3811498320536614
  0.4950175447227504  0.7431810836283057  0.5004873008742160
  0.4743319094025890  0.0948682021244154  0.0018088243129931
  0.0180402942864262  0.4954350034989746  0.5374243498114776
  0.4354328507091837  0.7491104827242477  0.7497226278908544
  0.0456241621826646  0.7812735648169148  0.2530090778387599
  0.4635312694752705  0.2542268797079394  0.7362690686023844
  0.9809323295759732  0.0153163799041807  0.0003753678226476
  0.5336784879579208  0.9704764130908362  0.4977604693741407
  0.4502077338394478  0.7519882052605504  0.0077041208816746
  0.5374588459540117  0.2749563116655723  0.2435904167279679
  0.9821153662268943  0.7157117578224009  0.7668147035048096
  0.5186808532488532  0.7595176716756201  0.2351915928918310
  0.0304448295003844  0.0267299654461068  0.2581517198426149
  0.4752525034239382  0.4970114386940313  0.7749555833078197
  0.4439243781791865  0.0160435511971816  0.7515245283327918
  0.0007225594672703  0.5190533317091290  0.2462310600044071
  0.2853845794648497  0.2327474500095519  0.0349813470388907
  0.7589042994756711  0.6765794431835641  0.5055815430576958
  0.0271447897934714  0.7205371163915295  0.4591243812203583
  0.7049338549520182  0.2877472477990402  0.0117855919235427
  0.9612626548307002  0.9591803455896059  0.6727594664340953
  0.4735121482034844  0.5185985297028999  0.2336191181319592
  0.0125886664777420  0.4597251077234554  0.7434631181908948
  0.5281266610819337  0.0034631601494579  0.2548906975914838
  0.3227128361652094  0.2509962637755786  0.5012335936258359
  0.8415752558994545  0.7808304186899322  0.0030116086300135
  0.8317566543705596  0.1845122073905486  0.4898884185867666
  0.2102060481344104  0.7651096248035159  0.0088340375599474
  0.0390465481421410  0.2578025464411867  0.0035809039256710
  0.5962024169846767  0.2308762325641514  0.5015676811873725
  0.5152524226929385  0.4917348650806023  0.0418401334431609
  0.0117337732534061  0.9715056818104438  0.5054952982361872
  0.4911073749423086  0.0325076914507208  0.8786375911798198
  0.0359682138415443  0.2232809632739552  0.4911225717188574
  0.9763515960368030  0.5265620452682498  0.0022673094179966
  0.4714950083689519  0.9617635064989871  0.6431402810040643
  0.0307529805728993  0.2687339155932064  0.2397848318002627
  0.7146988772154961  0.7504886962475249  0.7567709793537120
  0.2904341938931999  0.7723084907730015  0.2565909600666176
  0.7068598152364139  0.2252940705230100  0.7437299419376397
  0.8032090961922824  0.7646014540837027  0.2346717256050397
  0.9708580508968326  0.2022406782059966  0.7395949823256781
  0.7988117267509810  0.2488590012575190  0.2969682488742748
  0.1833191623370760  0.7695781690877028  0.7047132268866627
  0.2921101887399526  0.4590342764677982  0.1258075161976399
  0.7115365357349284  0.0154720389026237  0.6173776943660224
  0.7535427770616819  0.0856283589638193  0.8572109350580795
  0.2441049177519614  0.7566664208949877  0.3765873036378753
  0.2532727828975825  0.4886903266933210  0.8666049102454525
  0.7850413999524636  0.9879956928282974  0.3765026633302577
  0.7648942879730157  0.0340620138488766  0.1193752851221553
  0.2636478553354019  0.5448547937947044  0.6199598022715813
  0.7393618344315552  0.5082670505134163  0.8783120946335088
  0.3138806514649820  0.9649158276417924  0.3795617027062545
  0.5444115510370596  0.4839364637548818  0.6254071374467559
  0.2440106817512879  0.9980713329760158  0.1191983053838978
  0.2147520415174442  0.2567350905811109  0.6087500237496142
  0.7367946965495270  0.5753486433863063  0.1273274129472824
  0.2040725267033996  0.7252363483199894  0.8787503396646941
  0.5510094713545559  0.4978238449489613  0.3634452307624512
  0.2820310951481541  0.0083807679662363  0.2564709803183698
  0.7637020546095202  0.4776778768394300  0.7526961969571602
  0.2162055058063888  0.9771133248896773  0.7478598163620961
  0.7577967746950746  0.4807370148400569  0.2560985221598576
  0.2143492333938059  0.0130661970089792  0.0014661841510451
  0.7940029728043879  0.4491455296946856  0.4985809484002030
  0.2994643841547489  0.9954517719025041  0.4949110413321425
  0.7345281953641102  0.5510318483327068  0.0000152443867338
  0.6969517855320119  0.9898581542775184  0.7532766993772049
  0.2442457210820493  0.5329975128938295  0.2523559161244845
  0.2634399186348835  0.4785323208135693  0.7455194202340182
  0.7813269522266046  0.0038211814319146  0.2496596709272693
  0.2944689217294177  0.4870957564504893  0.4988610074080656
  0.7357366073782819  0.0278622089254548  0.9882180366556415
  0.7570338058107919  0.9379276755659852  0.4980607131061476
  0.2400390296239010  0.5101904874458818  0.0030830748727764
  0.0199115588523840  0.2547833380567356  0.3703367071750282
  0.4813761894775556  0.7679353896166446  0.8879140703538781
  0.4742903423781185  0.2227209513445177  0.6256911287569822
  0.9968379623694658  0.7840101534701996  0.1181714397712849
  0.9840005128353388  0.2649036917170439  0.8797133154357942
  0.5352346887894831  0.7434953866188768  0.3722919133345191
  0.9922718180840736  0.7330034512111911  0.6280947812866411
  0.5114442246566565  0.2483272874825225  0.1225348783449608
  0.1332260849418662  0.4194441822971594  0.0496892586600542
  0.6427582782204395  0.8393721589450066  0.5368993475769788
  0.6375795157530865  0.1257790659548702  0.9397680120494155
  0.1942010110660003  0.6039718827601597  0.4501071266969955
  0.3680100768495265  0.4168635542431258  0.9684859864726089
  0.8745097437094466  0.8650518003023788  0.4471552346056293
  0.8309984856391789  0.1347275001709750  0.0395509669007050
  0.3990022357040787  0.5865509478512138  0.5506554399964564
  0.8581486041020643  0.1335791389647000  0.2191398474640684
  0.3668438765677802  0.5882060553001773  0.7008944373694416
  0.8858048543791944  0.9003410164115225  0.2960403055456439
  0.3407229713959156  0.3660536923878565  0.7898925808257423
  0.1304664242480473  0.6211381918443896  0.3086100207154673
  0.5747786052734575  0.1175450850315645  0.7951214318613155
  0.1429854537297576  0.4383143693999337  0.1954713916967229
  0.6020105877091436  0.8890472727184705  0.7013627063379653
  0.8331063499203039  0.6344164063462671  0.9413926829317344
  0.3907044365384046  0.1017341169935755  0.4358091178072135
  0.8855756393123663  0.3457140992910147  0.5461190656025926
  0.3379836310546596  0.9333301590171718  0.0463089684662596
  0.1633134492926969  0.0774034189744957  0.5322658255537575
  0.6446275950801579  0.6563076896384823  0.0472345859337814
  0.1153226815389941  0.8992565479250739  0.9592841678716857
  0.6977274393746710  0.3647284455062132  0.4473700217098008
  0.6615046603608885  0.3970798386914162  0.3115240563541626
  0.1164840367255019  0.9061567881758323  0.7964096823606369
  0.1153494730164499  0.0914687879783310  0.7045497657641845
  0.6757009135450412  0.6087368542876035  0.2187099198740349
  0.8594534162178762  0.3637662538882521  0.6987024240183829
  0.3742799486744696  0.9076810777946137  0.2031096371685199
  0.3875869188589224  0.0761122439669423  0.3128609065020550
  0.8660012135955423  0.5618794800063753  0.8053753428537633
  0.1306594478212602  0.1240026406104491  0.0524786782207044
  0.6949396021913506  0.5242702071932326  0.5569068284688894
  0.6361540250669678  0.4395256735490669  0.9543648675222471
  0.1887691343470971  0.9122630711979896  0.4439933987773656
  0.3113780120981289  0.0864855419128200  0.9399950380180548
  0.9054009344027322  0.5568618654657563  0.4554961177060452
  0.8290139073474619  0.4243129520686749  0.0456916875090309
  0.3763944869087041  0.8929526277185686  0.5461423374505671
  0.2066902793011885  0.1059784621591523  0.1969835475879524
  0.6977975608686011  0.5857369351947822  0.6959821280265750
  0.1811286644430347  0.9097828364762851  0.3021636770578794
  0.6400037669620107  0.3992690215798258  0.8095081471073948
  0.8558886619874922  0.5779154780198150  0.3066187061814116
  0.2961208104174111  0.0871556030476176  0.8025828147960538
  0.8647728393196742  0.4093240729454383  0.1963094666255356
  0.3143371206994550  0.8885016055935169  0.6932599316843876
  0.8384649139429445  0.9396357114901114  0.9406430115800598
  0.3842721471612404  0.4049123241160338  0.4440065505018947
  0.8373946423748433  0.0269053681540849  0.5565056959876628
  0.3281643392248236  0.6304430601526112  0.0692536450790642
  0.1809610240029089  0.4042070395206734  0.5410411308026288
  0.6252292594833257  0.9417535341755893  0.0423323660781014
  0.1430141766902092  0.5984490483497840  0.9459570004003043
  0.6869206810181252  0.0560289607187880  0.4500977650576888
  0.3350577581451728  0.4149492446133332  0.2940159515079753
  0.7814757368823779  0.8968508798135656  0.8082352946360211
  0.8152566139594348  0.0773310435085795  0.7059873547853908
  0.3431495232529189  0.6159135363740769  0.1940964519348545
  0.1744930460345888  0.4016454138638408  0.6874836469192277
  0.6739117400606421  0.9136907508924567  0.1966203939901758
  0.6826769546373032  0.0904793653453216  0.3121910120854567
  0.1582870278668616  0.5777303267966001  0.7921416275662004
  0.1069026124692967  0.1518396218286640  0.3237601044018822
  0.5693516152293159  0.6661969363192891  0.8475771183815255
  0.5854861918334385  0.3008101848059981  0.6636326615050002
  0.0950429429229105  0.8619666359900366  0.1700891254035911
  0.3642296290044746  0.1543775383288844  0.6759524703309558
  0.9224014138939725  0.6895630039427484  0.1684571162840257
  0.9568748736214477  0.3684409901071513  0.3239671589929958
  0.4045968738316874  0.8561543604599678  0.8299817775643518
  0.0524590127609001  0.1433883598112323  0.9114471143718720
  0.6352712563895113  0.6516245889609353  0.4141396726992989
  0.0936328059521281  0.8457205622477548  0.6125214146972237
  0.5148328307040398  0.2561656940364989  0.0448798008591601
  0.9453119100753864  0.6612491155739133  0.5608127870562667
  0.3829761517603466  0.1862973838042637  0.1579073694376516
  0.9138364072141922  0.3650760716682426  0.9268969760777157
  0.4331609550744990  0.8361531534315513  0.4156147942837223
  0.8801671443019470  0.7710307926467773  0.6817901326074973
  0.5349881093952907  0.3967776329352792  0.1483805075974263
  0.8806826942790227  0.2124661018636788  0.8259472753955839
  0.4436511243472983  0.6477054163527518  0.3263962944616268
  0.0878739631312422  0.3418877420375541  0.8344861428780349
  0.6144651442641369  0.8448045730611086  0.3231757350485947
  0.0641663233858615  0.6082454590000302  0.6734573341193207
  0.6285264818286855  0.1700462065051039  0.1622641061546078
  0.4138081575856047  0.3572026631925145  0.5921190816135211
  0.9107256642663871  0.9087462608802562  0.0875420784444561
  0.9142832502007506  0.1553660631574056  0.4117303497469647
  0.3650584589856445  0.6850534374655123  0.9293064917378779
  0.1200691777899274  0.3158065415197353  0.4235964497785281
  0.5552357999539889  0.8466755387985877  0.9444043866810418
  0.5591081269835676  0.1218441695446961  0.5784573008689803
  0.0589772573401527  0.7021548851311153  0.0591711483116552
 
 -0.72864722E-03 -0.58884129E-02 -0.85334934E-02
 -0.10774897E-01  0.18452771E-02 -0.70903332E-02
  0.85818624E-02 -0.40967870E-02 -0.11531196E-02
 -0.33968655E-03  0.86877071E-03  0.24213791E-02
  0.68793841E-02 -0.94213850E-02  0.21305226E-02
 -0.11372412E-01 -0.40615778E-02 -0.47015272E-02
  0.71387582E-02 -0.37020624E-02  0.37174229E-02
 -0.76620535E-02  0.94540232E-03 -0.11368985E-01
  0.50979049E-02  0.37244358E-02  0.60976435E-02
 -0.72641152E-03  0.90001202E-02 -0.67570181E-02
  0.20587385E-02  0.99780742E-03  0.40274421E-02
  0.92626009E-02 -0.73901036E-02 -0.34992239E-02
  0.49521007E-02  0.11601259E-02  0.67747627E-03
  0.50914547E-02  0.27786545E-02 -0.56265813E-02
 -0.47094185E-02 -0.21287333E-02 -0.90378192E-02
  0.97266127E-03 -0.78825979E-02  0.50903355E-02
 -0.19669207E-02 -0.10404880E-01 -0.46169365E-02
 -0.36846197E-02 -0.66313683E-02  0.14821552E-02
  0.27415108E-02 -0.29197804E-02  0.17508963E-02
 -0.44014826E-02  0.51511466E-02  0.13938880E-02
  0.38664606E-02  0.38365763E-02  0.74865447E-03
 -0.52909388E-02  0.26885722E-02  0.95439772E-02
  0.36787836E-02 -0.34882840E-02  0.79398621E-02
  0.55877696E-02 -0.19824907E-03 -0.33053614E-02
 -0.53841848E-02 -0.25777318E-02 -0.38852872E-02
 -0.53970023E-02  0.54759461E-02  0.71114762E-03
  0.63013145E-02  0.45989874E-03  0.10385761E-02
  0.70191442E-02 -0.44333969E-02 -0.21244332E-02
  0.30357035E-02  0.81595003E-02  0.24673895E-02
 -0.64941544E-02 -0.25867114E-02  0.93633248E-03
  0.12595102E-02  0.44244583E-02 -0.24554532E-03
 -0.65299556E-02  0.49430574E-02  0.20337545E-02
 -0.38354557E-02  0.20152420E-02  0.43918447E-03
 -0.86036380E-02  0.17168948E-03 -0.60306643E-02
 -0.40552375E-02 -0.19938553E-02 -0.29019795E-02
 -0.13911315E-01  0.39586274E-02  0.13258566E-02
 -0.22448629E-02  0.84276396E-02  0.14413855E-02
 -0.43679617E-04  0.11005487E-01 -0.25111547E-02
 -0.44633085E-02 -0.12588283E-01 -0.70429394E-03
 -0.33524551E-03 -0.39041184E-03  0.42645627E-02
  0.64735960E-02  0.26635428E-02 -0.60206261E-02
  0.73845612E-02 -0.42446741E-02 -0.76084372E-02
 -0.40607652E-02 -0.90488497E-02  0.21265109E-02
  0.23047045E-02  0.21402591E-02 -0.34879728E-02
 -0.18380487E-02  0.28282501E-02 -0.46282837E-02
  0.25979592E-02  0.36203118E-02  0.63977182E-03
 -0.77905371E-02  0.22207793E-02 -0.11668262E-01
  0.21227424E-03  0.67744007E-03  0.58409767E-02
  0.30269723E-02 -0.53125172E-02 -0.38644030E-02
 -0.55894057E-02 -0.11619172E-01  0.11056581E-01
  0.25158815E-02  0.57076910E-03  0.77708468E-02
  0.78742092E-02  0.54907820E-02  0.56248615E-03
 -0.41223174E-02  0.15426230E-03 -0.33408861E-02
  0.67434705E-02 -0.27214744E-02 -0.86731211E-03
  0.40653169E-02  0.63540401E-02  0.15553200E-02
  0.21928341E-02  0.75418055E-02  0.41471079E-02
  0.20203220E-02 -0.87697550E-02 -0.78790360E-03
 -0.56154144E-04  0.49776359E-02 -0.90405388E-02
  0.50005369E-02  0.71036063E-02 -0.65700468E-02
 -0.15915241E-02 -0.22312256E-02  0.49471417E-02
  0.10952108E-02  0.48466057E-02  0.21858676E-02
 -0.18596423E-02 -0.16293686E-02  0.29873645E-02
  0.27479601E-02  0.20956486E-02 -0.76461887E-02
 -0.31300524E-02 -0.23364172E-02  0.74298802E-02
 -0.76580191E-02 -0.68077631E-03  0.35959626E-02
  0.44557084E-02  0.53983650E-02  0.15737437E-02
 -0.27388316E-02 -0.16571630E-03 -0.33142378E-02
  0.56436435E-03  0.65015872E-03 -0.51835272E-02
 -0.32061838E-02 -0.31332564E-02 -0.70538733E-02
  0.13641931E-01  0.22712950E-02  0.53139490E-02
  0.73265445E-02 -0.63110168E-03  0.41945181E-02
 -0.10531877E-01 -0.28647952E-02 -0.97838629E-02
 -0.10681507E-02  0.82296002E-03  0.24483709E-02
 -0.31125788E-02 -0.72918663E-02  0.82044612E-02
 -0.97976946E-02  0.63757369E-02 -0.19718230E-02
 -0.50167760E-02  0.11020696E-02  0.54386036E-02
 -0.60757932E-02 -0.67943590E-03  0.29517216E-02
 -0.21389142E-02  0.37687241E-02  0.66812033E-03
  0.15890129E-02 -0.36276132E-02  0.61951838E-02
 -0.11386216E-01  0.65900891E-02  0.14306494E-03
 -0.54541911E-02 -0.13666531E-02 -0.86056813E-02
 -0.74999744E-02  0.84616516E-02  0.54933609E-03
  0.49175835E-02 -0.41868343E-03  0.27347514E-03
 -0.34734012E-02 -0.92469332E-02 -0.14687205E-01
  0.36110218E-03 -0.19960161E-02  0.12316813E-01
  0.58787038E-02 -0.81097191E-02  0.27660398E-02
 -0.11833500E-02 -0.12204405E-02 -0.75513284E-02
 -0.99630744E-03  0.33528869E-03 -0.57482973E-02
 -0.27866487E-02  0.73374427E-02 -0.15654654E-02
  0.14163378E-02 -0.14683349E-02  0.31306441E-02
  0.20275846E-02 -0.14202944E-02 -0.14715464E-02
 -0.31720194E-03  0.23691970E-02  0.66054991E-02
 -0.12268979E-02  0.86505567E-03  0.13953917E-03
 -0.74386433E-02  0.27752230E-02  0.63045465E-03
 -0.19824442E-02  0.36930078E-02  0.72117089E-03
 -0.38208755E-02 -0.85057834E-03  0.29966039E-02
  0.16540646E-02 -0.29328515E-02 -0.14431808E-02
  0.43621283E-03  0.10111572E-02  0.15282638E-02
  0.28669739E-03  0.77654148E-03 -0.13560309E-02
  0.16313789E-02  0.31719545E-02  0.29125489E-02
 -0.92079008E-04 -0.46499508E-03  0.17268772E-02
  0.13507597E-03  0.16519323E-02  0.61030245E-02
 -0.53070691E-02  0.45668728E-02 -0.24898310E-02
 -0.16853259E-03  0.16330083E-02 -0.10026634E-02
  0.33154150E-02 -0.72628989E-02  0.25112514E-02
  0.15290090E-02 -0.96734240E-03  0.28587834E-02
  0.43875143E-02 -0.15604000E-02 -0.62932058E-02
 -0.56103696E-02 -0.85437026E-02 -0.29070059E-02
 -0.92775936E-03 -0.19771875E-02  0.16093698E-02
 -0.34891024E-02 -0.14652398E-02 -0.53140010E-02
 -0.34996838E-02  0.36069579E-03  0.30705734E-02
  0.42500403E-02  0.29308402E-03 -0.54092378E-03
  0.26352457E-02  0.44571505E-02 -0.13554370E-03
  0.47608436E-02 -0.38235300E-02  0.30460496E-03
 -0.23056837E-02  0.53680366E-02 -0.65204726E-03
  0.19132949E-02  0.14660382E-02 -0.16888184E-02
  0.25097868E-02 -0.28719687E-02 -0.90428374E-03
  0.64351304E-02 -0.42245272E-02  0.48916213E-02
 -0.26526080E-02  0.52073041E-02  0.25494775E-02
 -0.71617348E-03  0.71977411E-02 -0.99548857E-04
  0.26274113E-02  0.28392418E-02 -0.86396590E-02
  0.41984865E-02 -0.22371230E-02  0.45626220E-02
  0.18581231E-02 -0.46720996E-02  0.10043569E-03
  0.31751617E-02 -0.88211147E-03  0.32951601E-03
  0.18177012E-02 -0.61676275E-03  0.18744599E-02
  0.79318445E-02 -0.28235477E-02 -0.29530790E-02
 -0.27393940E-02  0.44316192E-02 -0.61717373E-04
  0.84097286E-02 -0.45506936E-02 -0.11551216E-02
 -0.10748527E-02 -0.41344294E-02  0.14122083E-02
 -0.24085955E-02 -0.54146126E-02 -0.20079383E-02
  0.10994621E-02  0.26396607E-03 -0.29779878E-03
  0.41094461E-02 -0.97416440E-03 -0.25588303E-02
 -0.23534187E-02 -0.87841284E-03 -0.40374200E-02
 -0.59618650E-02 -0.25678881E-02  0.49487571E-02
 -0.47174937E-02  0.79270911E-02 -0.39497496E-02
  0.15719814E-02  0.14848764E-02  0.75468588E-03
 -0.23684960E-03 -0.84557482E-03  0.52067793E-02
  0.51256559E-02 -0.46957219E-02  0.22579266E-02
  0.19531297E-02 -0.29371680E-02 -0.29649197E-02
 -0.14416314E-02 -0.56476503E-02 -0.92421894E-02
 -0.24948651E-02  0.17746884E-03 -0.12338836E-02
 -0.10821665E-02 -0.54214547E-03 -0.14527947E-04
 -0.21069206E-02 -0.12560390E-02 -0.34241446E-02
 -0.18257660E-02 -0.14664266E-02  0.28673027E-03
  0.22213564E-02 -0.47294162E-02  0.10499060E-02
 -0.17841678E-02  0.28721096E-02  0.29321972E-02
  0.40737979E-02 -0.36833819E-02  0.36737746E-02
 -0.18099890E-02 -0.85864253E-03 -0.56806233E-02
 -0.38083262E-02  0.13268389E-02  0.57547030E-02
 -0.92066119E-03 -0.76580604E-02  0.52847161E-02
 -0.12397663E-02 -0.86505745E-03  0.22312572E-02
 -0.35169773E-02  0.26539285E-02 -0.11768466E-02
 -0.27943385E-02  0.30626868E-02  0.18386218E-02
 -0.27076319E-02  0.33633319E-02  0.17009021E-02
  0.18551839E-02  0.16932542E-02 -0.27574798E-02
 -0.16039725E-04  0.58371338E-02  0.61757481E-02
  0.52449082E-02 -0.21956702E-02 -0.54458166E-02
  0.42250120E-02 -0.37910393E-02 -0.39365063E-02
 -0.18721702E-02  0.21161372E-02 -0.38536596E-02
  0.17350717E-02 -0.23144786E-02 -0.33617326E-02
 -0.33813413E-03  0.48167912E-02 -0.34510723E-02
 -0.12780295E-02  0.81335873E-03  0.10807015E-02
 -0.41902175E-02  0.21776269E-02  0.45135266E-02
  0.58119603E-03 -0.12992641E-02 -0.18487817E-02
  0.22042699E-02  0.33475726E-02 -0.11388337E-03
  0.27247652E-02 -0.19803890E-02 -0.24717802E-03
  0.81570278E-03  0.65597001E-03  0.69319344E-02
 -0.21763035E-02  0.50514274E-02  0.27641685E-02
 -0.29203765E-02 -0.29521058E-02  0.17228135E-02
  0.53457189E-02 -0.52364422E-02 -0.34189128E-02
 -0.51969157E-03 -0.79414625E-03  0.56036982E-04
  0.47492951E-02  0.29239999E-02 -0.38173491E-04
 -0.45614688E-02  0.13060784E-02  0.14359250E-03
  0.14498688E-02  0.21357475E-02 -0.23041312E-02
 -0.12764044E-02 -0.16994774E-02 -0.23271828E-03
 -0.43958715E-02  0.22953661E-03 -0.43967684E-02
  0.43889888E-02 -0.25791208E-02  0.51361905E-02
  0.22464531E-02  0.33177990E-03  0.28737528E-02
  0.19698003E-02 -0.26861107E-02  0.97889450E-04
 -0.18670763E-03 -0.19369126E-03 -0.60531149E-03
  0.15423599E-02  0.63874997E-02 -0.26480959E-02
 -0.33000580E-02 -0.16084364E-02 -0.10420395E-02
  0.50914001E-02 -0.73955577E-03  0.43817384E-02
 -0.93132731E-03 -0.28861637E-02 -0.14193525E-02
 -0.44158582E-02  0.28457307E-02 -0.78088668E-03
  0.23953257E-02 -0.25469500E-02 -0.96477607E-03
 -0.28269604E-02  0.40922643E-03 -0.38491232E-02
  0.25109819E-02  0.75015549E-03  0.14231297E-02
 -0.16043641E-02  0.17454374E-02  0.23509909E-02
  0.63026673E-03  0.28260630E-02 -0.83421409E-04
  0.46642106E-02  0.13414702E-02  0.31292564E-02
 -0.36273965E-03  0.24036018E-02 -0.59063371E-03
 -0.82653047E-03 -0.31898929E-02 -0.14895245E-02
  0.18836303E-02  0.17451116E-02 -0.47840846E-02
 -0.17092461E-02  0.24817760E-02 -0.35569122E-03
 -0.11567829E-02  0.16432488E-02 -0.19231940E-02
 -0.48215115E-02  0.85590345E-03 -0.81082406E-03
  0.23242630E-02 -0.46075079E-02 -0.12754448E-02
 -0.18273555E-02 -0.13130438E-02 -0.18640296E-02
  0.39663502E-02 -0.42611802E-02 -0.44670789E-03
  0.25872540E-03  0.40031298E-03 -0.34801308E-02
 -0.22821947E-02 -0.15188379E-02  0.52922015E-02
 -0.33331626E-03 -0.69269231E-03  0.51839179E-02
  0.12393214E-02 -0.53966097E-03  0.49873021E-02
  0.19367973E-02  0.15865640E-02  0.16398928E-02
 -0.13085119E-02  0.39335936E-02  0.11343172E-02
 -0.29054665E-02 -0.17180789E-02 -0.24492754E-02
 -0.17040528E-02  0.91958427E-03  0.31608283E-02
 
           1
   2.00000000000000     
  0.60688108E+00 -0.20914631E-02  0.00000000E+00  0.00000000E+00
  0.97609953E+00  0.76884939E-01  0.12041083E+00
  0.54313095E+00  0.45790998E+00  0.48986851E+00
  0.48398089E+00  0.53259893E+00  0.89910539E+00
  0.44373977E-01  0.12243276E-01  0.37520822E+00
  0.21878769E+00  0.96267648E+00  0.87996628E+00
  0.46070313E-01  0.50536431E+00  0.38007420E+00
  0.30799103E-01  0.54467062E+00  0.12160568E+00
  0.25238654E+00  0.27854355E+00  0.23118282E+00
  0.71908613E+00  0.74527914E+00  0.61760450E+00
  0.72782881E+00  0.29056337E+00  0.90078021E+00
  0.76637137E+00  0.74387218E+00  0.34833336E+00
  0.28890249E+00  0.21732650E+00  0.87788120E+00
  0.73631085E+00  0.31738782E+00  0.12462768E+00
  0.23374194E+00  0.75781817E+00  0.53330037E+00
  0.94169951E+00  0.21755684E-01  0.80855006E+00
  0.29012649E+00  0.53276226E+00  0.36732865E+00
  0.22124683E+00  0.99485454E+00  0.62204356E+00
  0.86728947E+00  0.50854438E+00  0.62637760E+00
  0.51240522E+00  0.23157970E-01  0.12242619E+00
  0.59260150E-03  0.50698219E+00  0.86778694E+00
  0.54935317E+00  0.44551296E-01  0.38032191E+00
  0.26455441E+00  0.22265119E+00  0.36502490E+00
  0.70238476E+00  0.78937653E+00  0.89410222E+00
  0.72422840E+00  0.33672826E+00  0.60461172E+00
  0.28172683E+00  0.79531034E+00  0.14022786E+00
  0.22699471E+00  0.23911921E+00  0.74506814E+00
  0.71315513E+00  0.80144903E+00  0.10883220E+00
  0.78887678E+00  0.48301785E+00  0.38099767E+00
  0.49545241E+00  0.74434995E+00  0.50066403E+00
  0.47340161E+00  0.94497651E-01  0.18758900E-02
  0.18220721E-01  0.49606881E+00  0.53740676E+00
  0.43449742E+00  0.74981858E+00  0.74986830E+00
  0.45074726E-01  0.78156225E+00  0.25304053E+00
  0.46229878E+00  0.25425147E+00  0.73583712E+00
  0.98035141E+00  0.15030757E-01  0.16751098E-03
  0.53168567E+00  0.97104349E+00  0.49785544E+00
  0.44988615E+00  0.75319548E+00  0.78073614E-02
  0.53745259E+00  0.27653287E+00  0.24341055E+00
  0.98147599E+00  0.71390846E+00  0.76676426E+00
  0.51863283E+00  0.75946174E+00  0.23549705E+00
  0.31372184E-01  0.27111523E-01  0.25772049E+00
  0.47631035E+00  0.49640338E+00  0.77441062E+00
  0.44334267E+00  0.14747287E-01  0.75167684E+00
  0.10527125E-02  0.51935993E+00  0.24598123E+00
  0.28512128E+00  0.23315260E+00  0.34649842E-01
  0.75927646E+00  0.67709806E+00  0.50562737E+00
  0.26028782E-01  0.72085525E+00  0.45828863E+00
  0.70496426E+00  0.28784429E+00  0.12203957E-01
  0.96169627E+00  0.95841932E+00  0.67248268E+00
  0.47271146E+00  0.51693406E+00  0.23441106E+00
  0.12949071E-01  0.45980687E+00  0.74401971E+00
  0.52925466E+00  0.42497244E-02  0.25493099E+00
  0.32212231E+00  0.25101836E+00  0.50099430E+00
  0.84254127E+00  0.78044056E+00  0.29494866E-02
  0.83233902E+00  0.18542243E+00  0.48999982E+00
  0.21052018E+00  0.76619000E+00  0.91310778E-02
  0.39335963E-01  0.25654626E+00  0.35244696E-02
  0.59619437E+00  0.23158929E+00  0.50092014E+00
  0.51596876E+00  0.49275247E+00  0.41369548E-01
  0.11505785E-01  0.97118605E+00  0.50584964E+00
  0.49126427E+00  0.33201976E-01  0.87879416E+00
  0.35701817E-01  0.22304755E+00  0.49133654E+00
  0.97674525E+00  0.52686225E+00  0.17196444E-02
  0.47104662E+00  0.96142881E+00  0.64367245E+00
  0.29655956E-01  0.26863639E+00  0.24004240E+00
  0.71533717E+00  0.75126202E+00  0.75688370E+00
  0.29004185E+00  0.77228475E+00  0.25635357E+00
  0.70694066E+00  0.22538721E+00  0.74335867E+00
  0.80274980E+00  0.76415261E+00  0.23416649E+00
  0.97281228E+00  0.20256605E+00  0.73997560E+00
  0.79986127E+00  0.24876859E+00  0.29726868E+00
  0.18181045E+00  0.76916778E+00  0.70401245E+00
  0.29195717E+00  0.45915217E+00  0.12598288E+00
  0.71109065E+00  0.14427466E-01  0.61796535E+00
  0.75213924E+00  0.86541695E-01  0.85706970E+00
  0.24338626E+00  0.75682429E+00  0.37697685E+00
  0.25240241E+00  0.48859300E+00  0.86681633E+00
  0.78473500E+00  0.98853557E+00  0.37655052E+00
  0.76512192E+00  0.33542352E-01  0.11981902E+00
  0.26201676E+00  0.54579884E+00  0.61997005E+00
  0.73858051E+00  0.50807128E+00  0.87769571E+00
  0.31280627E+00  0.96612797E+00  0.37960105E+00
  0.54511600E+00  0.48387649E+00  0.62542673E+00
  0.24351311E+00  0.99674669E+00  0.11814632E+00
  0.21480377E+00  0.25644916E+00  0.60963223E+00
  0.73763683E+00  0.57418691E+00  0.12752553E+00
  0.20390301E+00  0.72506152E+00  0.87820947E+00
  0.55086675E+00  0.49787188E+00  0.36303350E+00
  0.28163190E+00  0.94318696E-02  0.25635885E+00
  0.76390495E+00  0.47746754E+00  0.75292043E+00
  0.21649596E+00  0.97690987E+00  0.74775442E+00
  0.75775133E+00  0.48107641E+00  0.25657165E+00
  0.21417348E+00  0.13190118E-01  0.14761788E-02
  0.79293737E+00  0.44954309E+00  0.49862611E+00
  0.29918040E+00  0.99598080E+00  0.49496270E+00
  0.73398085E+00  0.55091000E+00  0.22987879E-03
  0.69718873E+00  0.98943802E+00  0.75317333E+00
  0.24430821E+00  0.53314236E+00  0.25246538E+00
  0.26348099E+00  0.47864356E+00  0.74542229E+00
  0.78156065E+00  0.42755695E-02  0.24986828E+00
  0.29445573E+00  0.48702915E+00  0.49898470E+00
  0.73575596E+00  0.28098851E-01  0.98865517E+00
  0.75627356E+00  0.93858189E+00  0.49788238E+00
  0.24001489E+00  0.51042442E+00  0.30112582E-02
  0.20386498E-01  0.25374291E+00  0.37051658E+00
  0.48159522E+00  0.76779682E+00  0.88811883E+00
  0.47491886E+00  0.22249742E+00  0.62524037E+00
  0.99603427E+00  0.78278625E+00  0.11796322E+00
  0.98386761E+00  0.26462046E+00  0.87982859E+00
  0.53473487E+00  0.74328549E+00  0.37191129E+00
  0.99177048E+00  0.73305512E+00  0.62831471E+00
  0.51205305E+00  0.24836927E+00  0.12249613E+00
  0.13360359E+00  0.42008268E+00  0.49679550E-01
  0.64344028E+00  0.83882443E+00  0.53692117E+00
  0.63724922E+00  0.12654805E+00  0.93972131E+00
  0.19447509E+00  0.60418190E+00  0.44998616E+00
  0.36836961E+00  0.41645214E+00  0.96842122E+00
  0.87543159E+00  0.86444663E+00  0.44750560E+00
  0.83061849E+00  0.13547346E+00  0.39733575E-01
  0.39889964E+00  0.58758204E+00  0.55064831E+00
  0.85852499E+00  0.13398587E+00  0.21852102E+00
  0.36744532E+00  0.58788558E+00  0.70122124E+00
  0.88607103E+00  0.89967173E+00  0.29604750E+00
  0.34117782E+00  0.36592733E+00  0.78991618E+00
  0.13072681E+00  0.62104984E+00  0.30874428E+00
  0.57591486E+00  0.11714061E+00  0.79490991E+00
  0.14259303E+00  0.43894921E+00  0.19546697E+00
  0.60321530E+00  0.88839538E+00  0.70127997E+00
  0.83295238E+00  0.63382414E+00  0.94149383E+00
  0.39035940E+00  0.10095846E+00  0.43566530E+00
  0.88573314E+00  0.34575191E+00  0.54609774E+00
  0.33857232E+00  0.93319061E+00  0.46125690E-01
  0.16297632E+00  0.77277585E-01  0.53197664E+00
  0.64377355E+00  0.65593984E+00  0.47589045E-01
  0.11464689E+00  0.90039212E+00  0.95900126E+00
  0.69795263E+00  0.36494116E+00  0.44742408E+00