Na88 Ge16 P8 S96                        
   1.00000000000000     
    13.3422163233000006    0.0000000000000000    0.0000000000000000
     0.0000000000000000   13.3422163233000006    0.0000000000000000
     0.0000000000000000    0.0000000000000000   26.6844326466999995
   Na   Ge   P    S 
    88    16     8    96
Direct
  0.0136275852926126  0.0211740791678276  0.1315682408352486
  0.5129041747999171  0.7296282292289382  0.7380644139325360
  0.2405085670400695  0.2769250847198760  0.8768214839697400
  0.0230216853039964  0.9628163779008765  0.3652436798046541
  0.7077171216435353  0.9433704889140204  0.8664788292719285
  0.2235565963322773  0.7578987132063051  0.3824062097990817
  0.0094080595504012  0.4780328028417685  0.1286317265912240
  0.2430812088218838  0.2181311975449640  0.1371731170687004
  0.7502961273943421  0.9713416276689698  0.6270448737165161
  0.7743680384872366  0.2556714954281517  0.7569178268730534
  0.7092482127073623  0.2522873530876296  0.3600400025323371
  0.2594986553379740  0.9801152637725621  0.8732425426143599
  0.7703848585235954  0.2446478512724410  0.1165864053901346
  0.2473148931228418  0.4299723503917799  0.6152728810604056
  0.0013042529743789  0.9777102525114160  0.8726703284587588
  0.5114848939107707  0.5180725497139340  0.3946576519962113
  0.1406248155701318  0.9480939005553689  0.6273124840241342
  0.9836340585754713  0.4943034514563523  0.4200488147455502
  0.4787667236777361  0.4919033681620772  0.9950442544218011
  0.9839092894463490  0.4431647832343313  0.9754184017598752
  0.4998832502489499  0.9636226750814062  0.1112906652582050
  0.2516740875450996  0.9828347461634724  0.3842780954957714
  0.7159839457330385  0.5465940911064374  0.8810340410548598
  0.7451618791614769  0.4721485335669635  0.6360914333317494
  0.2604278533112951  0.7298279072050549  0.1201325442233986
  0.2559871755092402  0.1155988586304017  0.6173414248082058
  0.7702698411232347  0.7615005287848854  0.2327472662229825
  0.7343905030647928  0.2172968396990113  0.5052016715560249
  0.4789482856205314  0.3932012404217978  0.5040176763882210
  0.3516893374783362  0.5252048794753812  0.8649735062442897
  0.9647123795724850  0.9091037577409631  0.5159596320222213
  0.9623787804421505  0.7523656447432615  0.7544055304611390
  0.0168972591741697  0.7257861408845657  0.2581082012617126
  0.7351351267620868  0.2067132384973590  0.8784437306682763
  0.9848369861044127  0.9698056900634745  0.0104227676192995
  0.8025330408152771  0.2623283927381906  0.6209750932977210
  0.5101286689168685  0.8039597289644876  0.9960828288472722
  0.2855203255164014  0.2719557934855303  0.3777027067670765
  0.9847159635233321  0.5369245818289078  0.8761862641356865
  0.5216360858304218  0.0548066431571127  0.2386960027695843
  0.0026588866729726  0.9935730526851373  0.2442587288875907
  0.5137203559619956  0.4776897980212592  0.7528679826026374
  0.4844902099494477  0.2514244158295238  0.7736648067380750
  0.9840681482159370  0.4496398058846429  0.2555956116296570
  0.2402627265515461  0.2384125543889311  0.0038862048292579
  0.7547101705532453  0.7402423668561620  0.5308596332700728
  0.2607102242570805  0.7761925661289089  0.5054143014637548
  0.7557509228215221  0.2452179602157678  0.9883172899984450
  0.9785731776338867  0.0444714016805307  0.7366708617420309
  0.5808904746160953  0.2768263170524791  0.2267654015732455
  0.9835516186850790  0.4659616177197733  0.6176666308827296
  0.5107128421449764  0.2118203045454558  0.9877429845700508
  0.4964275648460193  0.6755020519879843  0.5273944038666519
  0.7470798338898724  0.7673791635491927  0.0016276603932665
  0.9623174165512922  0.2225234606946383  0.5119032029141121
  0.2404510113556605  0.7223855393833009  0.9907142630505243
  0.9781421017392528  0.2396496811333931  0.0147836660790477
  0.4872212447372409  0.0224551809014603  0.5109535266448189
  0.4676643086528706  0.4820989800259068  0.2600643542511897
  0.2583329931421380  0.5359470863415037  0.3603390912012703
  0.4700136426125665  0.9851722084975243  0.7673162672443535
  0.0341128799208349  0.6030548556950049  0.5273589814724415
  0.9837509081783239  0.7005342478476353  0.0089969481750926
  0.4725119472386204  0.0297969087690845  0.3857904160849308
  0.2002712012485507  0.2215229053174342  0.2670059482577355
  0.6970950301831000  0.7537586251291101  0.8041931664136596
  0.5337981997812011  0.7661889302773638  0.2629755077415892
  0.0086487933668382  0.5189257370329297  0.7482671788711188
  0.7618017941875346  0.7182594804934465  0.3650382991100144
  0.2638534690470525  0.2488583736172227  0.7305658229374863
  0.8995209714330350  0.2415778185325699  0.2592389938806928
  0.2132172242950479  0.7335434353656458  0.7364169642418551
  0.2637762336282532  0.4555618097376342  0.1203857397579279
  0.4854608205973708  0.9858317968900226  0.6199414663760555
  0.0133155464941838  0.2773429518654215  0.7586398477044352
  0.2351731292969770  0.2553843222940111  0.4999278897200112
  0.2221435935076737  0.7219640833418290  0.8856465212256619
  0.7451140034655366  0.4677792404217496  0.3804959914973795
  0.7680517989406392  0.9665094125191318  0.1261356919804222
  0.4929309502633419  0.5020432488057063  0.6097116221879973
  0.5197076759144084  0.5151385909326350  0.1239630850332799
  0.2396689718512819  0.7530476205856502  0.2545155206683039
  0.7595841386276106  0.7434897470448749  0.6750834236949307
  0.2688374152317392  0.9872832440081672  0.1279895029983203
  0.2791583850785374  0.7545303781469971  0.6227139183568078
  0.7757352215980191  0.5437841370466403  0.1289252524540488
  0.4881903405723670  0.9872895278391648  0.8983951335174387
  0.7521346256490979  0.0232619457554828  0.3697937626296949
  0.2715206165379319  0.9882324670536894  0.2474213941732737
  0.7505115042082819  0.4867258635300788  0.7594572211297921
  0.2221170575991133  0.0012535325808256  0.7404031698266881
  0.7091292096537409  0.4989053335283045  0.2554387157697932
  0.2473289187344224  0.9812141902407091  0.0001854185628671
  0.7552385567633305  0.4924548292354043  0.4978759293212914
  0.2303464864455129  0.0171890844633891  0.4960911718976686
  0.7307044455324031  0.5000803840972672  0.0009860936688542
  0.7156403625173126  0.9996326861634858  0.7549150985532204
  0.2157228979793855  0.4993771731897398  0.2469954660756039
  0.2502965635643643  0.4913603244925015  0.7492984559394278
  0.7644185322533276  0.0174978226037851  0.2508875075542991
  0.2230658721068888  0.5183878364462375  0.4918713188212746
  0.7417910974883205  0.0020603780674028  0.9927178572781274
  0.7212701398283811  0.9775626393113542  0.4973691108981850
  0.2230684544146017  0.4793225870322932  0.9958888936439660
  0.9697170187212653  0.2543450110447635  0.3823061941242545
  0.4911980027155273  0.7223788593540315  0.8756116797833338
  0.4945878713358863  0.2414860299656666  0.6295612705857431
  0.9826826454138694  0.7456045839104684  0.1313997837000521
  0.0091426122833684  0.2471147293649797  0.8688720074487029
  0.4947259487056814  0.7580026432258848  0.3814020588592776
  0.9890060549964471  0.7458420705964351  0.6255287323892200
  0.4802502900328827  0.2358440558842579  0.1120474524605760
  0.1144835683774475  0.4009261515531028  0.0422778004267372
  0.6020935518391081  0.8862284593287089  0.5545346153736176
  0.6539608610742725  0.0946152852118799  0.9452737895930214
  0.1374251667313862  0.6366019260698931  0.4487213511539079
  0.3222121343076907  0.3816611349533531  0.9454437187774490
  0.8291799135255806  0.8992786260028013  0.4435579991740896
  0.8569110474450885  0.0871459213464223  0.0383479104335427
  0.3181861118157761  0.6133906864899873  0.5517407801076520
  0.8787905676410728  0.0869532972486242  0.1965533347356756
  0.3365283831708270  0.5857083650619482  0.7024129633251062
  0.8451990830753430  0.9082164243929040  0.3030754719115571
  0.3362019810560068  0.3771944846252537  0.7927686630913376
  0.1208782552897910  0.5886455781384672  0.2997553288014697
  0.6242011469540276  0.0938338798668961  0.8054997508461569
  0.1182587052502376  0.3989869348748859  0.2016704830480031
  0.6237657010263423  0.8716068989343361  0.7173271767702785
  0.8286540299993218  0.6152303597762364  0.9601539477992301
  0.3301919248431546  0.1204560662240522  0.4486901603436393
  0.8487470895861673  0.3898803072623750  0.5490111916110318
  0.3290970609820191  0.8619783199998376  0.0470868819793217
  0.1098269158966209  0.0999381882604431  0.5408508933312461
  0.6305704515338509  0.5993696300379697  0.0447095355021717
  0.1444362693602024  0.8834803516011794  0.9507844599175517
  0.6498266563847761  0.3852124206501148  0.4587522229307814
  0.6114815945649729  0.4024535701139846  0.3139294652491314
  0.1023650816097800  0.9006609276077235  0.7800368952922612
  0.1393369606648955  0.0923532651496095  0.6871481815351915
  0.6211753226245796  0.6011648388786652  0.2180184041794075
  0.8548618702460590  0.3928093250097526  0.7113076474420045
  0.3733111456990396  0.9006204062004225  0.2021267282474486
  0.3562658421066888  0.0777677990443540  0.2971673122534458
  0.8366852037169649  0.6014558399936455  0.8046986240959532
  0.1551991321155735  0.0848534630063654  0.0460932403672825
  0.6592560147751058  0.5777376417436348  0.5526542091052956
  0.6543522486036506  0.3958195202530551  0.9494257406605129
  0.1347233113043307  0.9088251037585029  0.4551678692286351
  0.3493710024350073  0.0690502162380744  0.9556204816763126
  0.8330782939247320  0.5997177045364844  0.4546639188857116
  0.8379741208918290  0.4131026945672882  0.0567047923188653
  0.3317898052939970  0.9340564494816789  0.5529648858543778
  0.1585711292453287  0.0774518448506459  0.1991554927812872
  0.6572724344251415  0.5871858201599006  0.7083172627210560
  0.1617391278646376  0.9017560006783051  0.3051107500404086
  0.6834666340731805  0.3873873006753449  0.8222836464198373
  0.8304594663301099  0.5816152089141136  0.3020748420214155
  0.3182539497205433  0.0873956709076734  0.8022571664555410
  0.7710187372936332  0.3725916904826759  0.2092301042286724
  0.3258925565278952  0.9042068152004957  0.6932534311675026
  0.8352572353090734  0.8943292691548952  0.9446351485181173
  0.3327149458754106  0.4278668902999368  0.4426868187955537
  0.8347278214450834  0.0619721473810101  0.5438870886436309
  0.3131107479939919  0.5906017361943916  0.0537811523084766
  0.1184642227691033  0.4280592235411205  0.5375397127212952
  0.6450961018147353  0.9207060376342018  0.0459718505801513
  0.1326893341304304  0.5781864722359495  0.9423977542340797
  0.6277771597521881  0.0889810885743146  0.4452989690241371
  0.3135302357535169  0.3826359068261297  0.2906430861304838
  0.8518957626260591  0.9014257626851341  0.7935147526240696
  0.7960886363225864  0.0968646914210913  0.6951991349186013
  0.3260024033637620  0.5863653464970303  0.2058214257754795
  0.1382046684791727  0.3983609763074976  0.7037031717963791
  0.6622843911311281  0.9219448154180951  0.2036093812233279
  0.6772893819047155  0.1262866819101987  0.2858317819574840
  0.1606470638256080  0.6033383902619696  0.7988397962288849
  0.0411146109529954  0.1718314225714643  0.3272909987099376
  0.5447650486954502  0.6065173548950702  0.8342554141137186
  0.5904235662258508  0.3363550301196500  0.6721455906275250
  0.0661771762847769  0.8459904459624004  0.1764952201401671
  0.4211093453744756  0.1551723353810095  0.6810628507892318
  0.9231968499686417  0.6470093730300943  0.1810628887534712
  0.8893100728532928  0.3656332178302678  0.3400061628618341
  0.4078308967105915  0.8183778110653060  0.8357446374601251
  0.8928647620976193  0.3161929195943399  0.9141186928336734
  0.5773060551672513  0.6824768450261278  0.4312721223548253
  0.0876831473699359  0.7874855243429004  0.5728344985676336
  0.5787670528207360  0.3204987073906895  0.0675542925840368
  0.8813793200553875  0.6480382554117926  0.6011880531453875
  0.4006300931975153  0.1444314736982399  0.0712335112050750
  0.9227192976523449  0.1442397809034945  0.8193907977122118
  0.3997590575438892  0.8350237897990662  0.4244050276555110
  0.9186861281184269  0.8737233718552547  0.6505949606803980
  0.4112007262977350  0.3314950545936295  0.1586130605684032
  0.0941976967789439  0.1506084339957403  0.9070835662399311
  0.4152316544023392  0.6581144941998386  0.3355560755247919
  0.0819982211917967  0.3610739498256104  0.8375975625960296
  0.5777564497610765  0.8600641255931080  0.3356069350676786
  0.0688547926428972  0.6727440316515816  0.6786386807272934
  0.5754797341796495  0.1431708862799655  0.1531804668714016
  0.3858907550709865  0.3049418485055907  0.5815986653300436
  0.8931242046296298  0.8240269598033074  0.0862803284374178
  0.8741506936275788  0.1718633736568289  0.4244768947091545
  0.4098948692512057  0.6690595075049258  0.9352337012247043
  0.0986130269729426  0.3244305710671067  0.4097568809423418
  0.5973201247240072  0.7930533222017701  0.9113874650238629
  0.5838499139689511  0.1702633617151168  0.5810038909709991
  0.0836662204538067  0.6540618598209242  0.0871289827722932
 
 -0.15566889E-02 -0.15013893E-03 -0.12818172E-02
  0.63221997E-02  0.59052703E-02 -0.92117702E-02
  0.41011450E-02 -0.94787177E-03 -0.41809762E-02
 -0.45202847E-02  0.76137902E-02  0.66173660E-03
 -0.22440059E-02  0.47509442E-02  0.50946457E-02
  0.93433214E-02 -0.86001470E-02 -0.88974660E-02
  0.26844873E-02  0.52166696E-02  0.88600487E-02
 -0.19252926E-02 -0.59294867E-02 -0.20392516E-02
 -0.16836324E-03  0.52990198E-02 -0.43081728E-02
  0.28203827E-02  0.25762929E-02 -0.54010400E-02
 -0.14252987E-02  0.12169660E-02  0.27548960E-02
 -0.10359964E-02 -0.19180862E-02 -0.14845356E-02
  0.82255327E-02  0.59821670E-02  0.83505091E-02
  0.44564175E-02 -0.51824580E-02  0.54619518E-02
  0.93533249E-04 -0.53752514E-03 -0.48847823E-02
 -0.44392224E-02 -0.70788083E-02 -0.39425079E-02
  0.52272361E-02 -0.42124339E-02  0.15077696E-02
  0.45214742E-02  0.15188508E-02 -0.73549993E-02
  0.34176362E-02 -0.70544460E-02 -0.11241796E-02
  0.13356551E-02  0.10599774E-02 -0.12183354E-02
  0.43041637E-02 -0.96664193E-02 -0.28810403E-02
  0.67437394E-02 -0.21130577E-02  0.46652889E-02
 -0.29884584E-02 -0.29683150E-02  0.37509399E-02
  0.15280338E-02  0.42202976E-02  0.47645295E-02
  0.32762797E-02 -0.15412863E-02  0.31763690E-02
 -0.39727194E-02 -0.67263586E-02 -0.38135202E-02
 -0.89203643E-03 -0.32601223E-02  0.13165733E-02
 -0.10474186E-01 -0.81786658E-02  0.79022065E-02
  0.73150773E-02 -0.60623427E-02  0.48694697E-03
  0.19028415E-02 -0.37148455E-02 -0.68695866E-02
  0.66289060E-03  0.17909625E-03 -0.21340741E-02
  0.43138494E-02  0.26710808E-02 -0.33958937E-02
 -0.40428726E-02  0.47553544E-02  0.36363876E-02
 -0.41858840E-03  0.46063588E-02  0.12085666E-02
  0.12221018E-02  0.49987326E-02  0.10759629E-01
  0.16782421E-02  0.47723541E-02 -0.10489844E-01
  0.31233790E-03 -0.31259981E-03  0.45567871E-02
 -0.18865290E-02 -0.51974614E-02  0.95160076E-02
  0.67958127E-03  0.35109134E-02  0.17972604E-01
 -0.25327881E-02  0.22610826E-02 -0.80917342E-03
  0.20236099E-02  0.26345779E-02 -0.31365615E-02
  0.16942241E-03  0.93354827E-02  0.36616152E-02
 -0.71881299E-02 -0.31157158E-02 -0.65877150E-02
  0.27026475E-02  0.12987207E-02  0.65416163E-02
  0.28518500E-02 -0.10363971E-01  0.69446305E-02
 -0.89435492E-02  0.35735502E-02  0.65829221E-02
  0.13576760E-03 -0.14280278E-02 -0.99678618E-03
 -0.14048896E-02  0.27954489E-02  0.34846368E-02
 -0.81296106E-02  0.48821884E-02 -0.70482700E-02
  0.19005501E-02 -0.58912191E-02 -0.59182422E-02
  0.81823164E-02  0.39651611E-02  0.51731768E-03
  0.75989022E-03  0.10386919E-02 -0.67958660E-02
  0.63855626E-02 -0.34891431E-02  0.10721057E-01
  0.48509300E-02  0.21582248E-02 -0.14224927E-02
 -0.27821782E-02 -0.22947904E-02 -0.49436916E-02
 -0.28746371E-02  0.35803054E-02  0.77656872E-02
  0.85184775E-03  0.19390695E-02  0.51091918E-02
  0.48540948E-02 -0.71088279E-02 -0.25868078E-03
  0.75360481E-03 -0.38504544E-02 -0.23383205E-02
  0.24634373E-02  0.43525553E-02 -0.72716760E-03
 -0.93691753E-02 -0.39591394E-02 -0.74052725E-02
 -0.98865134E-03  0.47437324E-02 -0.67282823E-02
 -0.20350913E-02  0.92364778E-03  0.43355477E-02
 -0.66363065E-02  0.28182653E-02 -0.42840138E-02
  0.14784929E-02 -0.61597500E-03  0.67484934E-02
 -0.72458152E-02  0.24814582E-02 -0.31316484E-02
 -0.19515748E-03  0.53683249E-02  0.26486419E-02
 -0.52162655E-04 -0.69138341E-02 -0.72533508E-02
  0.21103939E-02  0.94260649E-03  0.76839709E-02
 -0.52560636E-02  0.19804677E-02  0.46409294E-03
 -0.12645157E-01 -0.72079733E-02 -0.31733520E-02
 -0.83440785E-03 -0.97303450E-03  0.21313422E-02
  0.55915978E-02 -0.12392547E-01 -0.28700163E-02
  0.29948817E-02 -0.75441628E-02  0.41358043E-02
  0.27906137E-02 -0.64020258E-03 -0.44783020E-02
 -0.36795847E-02 -0.13352205E-01 -0.57458426E-04
 -0.16225797E-02 -0.11242801E-02 -0.71530286E-02
  0.23105148E-02  0.64213277E-02  0.25409132E-02
 -0.49974992E-02 -0.15228800E-01  0.19219097E-02
 -0.11596054E-02  0.43895890E-02 -0.52750205E-02
  0.16841170E-02 -0.51613934E-03  0.37458947E-02
  0.55961931E-03 -0.11751041E-01 -0.65062761E-02
 -0.11809466E-03  0.10299342E-01 -0.90808303E-03
 -0.22564426E-02  0.78824188E-03 -0.86212339E-02
 -0.10302340E-02  0.81267690E-03 -0.39635765E-03
 -0.97361670E-03  0.32810188E-02 -0.46089057E-02
 -0.38865943E-03 -0.11240519E-01  0.37624465E-02
  0.86892207E-02  0.24299800E-02  0.37493072E-02
 -0.21115366E-02 -0.43295625E-03  0.24315351E-02
 -0.36716915E-02 -0.41749088E-03 -0.51052722E-02
  0.36493522E-02  0.25399987E-02  0.87600604E-03
  0.39078965E-02  0.14519040E-02 -0.28804567E-02
 -0.19509142E-02 -0.22373359E-02  0.24438728E-02
 -0.28070312E-02 -0.57632604E-02 -0.33888486E-02
 -0.29969090E-02 -0.51056066E-03 -0.43341465E-03
 -0.19034847E-02  0.37998135E-02  0.41837123E-02
  0.39271629E-02 -0.38296828E-02  0.28890205E-02
  0.46271209E-02  0.11814070E-01 -0.25539403E-02
  0.15025771E-02 -0.70206525E-03 -0.89680613E-02
 -0.13278686E-02 -0.19139220E-02 -0.43523177E-02
 -0.16902735E-02 -0.54923675E-02 -0.25252582E-02
  0.95901404E-03 -0.45780288E-03  0.88715823E-03
 -0.14956363E-02  0.10073595E-02 -0.37935652E-02
  0.12879672E-02 -0.19388061E-02  0.11033473E-03
  0.37704080E-02 -0.10612583E-02  0.93885385E-03
  0.67177945E-02 -0.87373031E-03  0.17160251E-02
 -0.33292739E-03 -0.53813698E-02  0.79208860E-02
  0.31762786E-02  0.78353178E-02  0.35078418E-02
  0.24996780E-02  0.34238534E-02 -0.38584652E-02
  0.31165112E-02  0.83859815E-03  0.64537728E-02
  0.11740310E-03  0.59412475E-02  0.30963679E-02
 -0.20771358E-02 -0.23948576E-02  0.36958735E-02
 -0.46887871E-02 -0.10196550E-02  0.15918080E-03
  0.36508928E-02 -0.15557397E-02 -0.62717865E-02
  0.11316336E-02  0.22066418E-03 -0.65008355E-02
  0.21698423E-02 -0.30880939E-02  0.35521029E-02
 -0.58558664E-02  0.11356041E-02  0.11083444E-02
  0.75198295E-02  0.56876344E-02 -0.48035840E-02
  0.57014300E-02  0.26318543E-02 -0.30157361E-02
  0.10536479E-03 -0.49806646E-02  0.19041476E-02
  0.62647063E-02 -0.45766746E-03 -0.45034984E-02
 -0.61687326E-02 -0.21603635E-02  0.14267128E-02
  0.25724546E-02 -0.35610861E-02  0.10843605E-02
 -0.50923417E-02  0.39043716E-02 -0.39561519E-02
 -0.61520241E-02 -0.38302811E-02 -0.93934745E-03
  0.39875140E-02 -0.19361162E-02 -0.15703772E-02
 -0.24976312E-03 -0.48296063E-02  0.27100175E-03
  0.11470174E-01  0.41478658E-02  0.68380772E-02
  0.16704293E-02  0.89074334E-02  0.39939610E-02
  0.24065279E-02 -0.75769942E-03 -0.21423095E-02
  0.25744995E-03  0.31114016E-02  0.89394974E-03
  0.46546116E-02  0.39369161E-03  0.19341948E-02
  0.23879582E-02 -0.10388050E-02  0.40725138E-02
 -0.38774811E-02  0.43991127E-02 -0.62899654E-02
  0.17775013E-02 -0.95547927E-03 -0.13639201E-03
 -0.23083471E-02 -0.21188840E-02  0.30428605E-02
  0.34954776E-02  0.10213240E-01 -0.86940902E-03
  0.24056816E-02  0.16498588E-03  0.79681699E-02
 -0.25296290E-02  0.35701721E-02 -0.37898040E-02
 -0.24544194E-03  0.52111370E-02  0.20783149E-02
 -0.20821336E-02 -0.68093752E-02  0.10313390E-02
  0.16040266E-02  0.60117460E-02  0.47221208E-02
 -0.30282511E-02 -0.32152673E-02 -0.54457604E-02
 -0.26940725E-02  0.51944270E-02  0.22240473E-02
  0.30855584E-02  0.59010273E-03 -0.30482277E-02
  0.67633488E-02 -0.43315517E-02  0.70367945E-02
 -0.29349832E-02 -0.28868171E-02 -0.34546054E-02
 -0.57472114E-02  0.45582627E-02  0.53377736E-03
 -0.28782838E-02  0.14645253E-02  0.50057250E-02
  0.22823650E-03  0.29750828E-02 -0.92474713E-02
  0.87463919E-03 -0.37205088E-02 -0.53794769E-02
 -0.40670541E-04  0.23038996E-02  0.76021821E-03
 -0.17930093E-02 -0.99589132E-04  0.47895784E-03
 -0.15935228E-02 -0.31161068E-02  0.32985496E-02
 -0.67671864E-02 -0.84465232E-02  0.37136204E-03
  0.25984281E-02  0.54747951E-02  0.81153022E-03
 -0.20897229E-02 -0.48601087E-02  0.36861664E-02
  0.27677514E-02 -0.20932899E-02  0.47439330E-02
 -0.23602801E-02  0.79641874E-02 -0.18792226E-03
  0.27832739E-03 -0.44555580E-02  0.15353729E-02
 -0.16939168E-02  0.15908275E-02  0.62214331E-03
  0.27121045E-02 -0.65573579E-03  0.10637446E-02
 -0.67390191E-03  0.36340206E-02  0.20964808E-02
 -0.38463647E-02  0.36183092E-02  0.40275582E-02
  0.57803784E-02  0.59776599E-03  0.67458019E-03
 -0.62462726E-02 -0.37138754E-02  0.54761562E-03
 -0.27797405E-02 -0.98055405E-03 -0.35839164E-02
 -0.35115857E-02 -0.71325314E-04 -0.90711468E-03
 -0.83870176E-02 -0.32904384E-02 -0.21053821E-02
 -0.35380050E-02  0.20697171E-02 -0.62957095E-02
 -0.23498826E-02  0.70671141E-02  0.58967418E-02
 -0.23092926E-03  0.87891196E-03  0.24560162E-02
 -0.54481331E-02 -0.60884437E-02 -0.21998180E-02
 -0.18786583E-02  0.19530515E-02  0.12913705E-01
  0.24773332E-02  0.79487210E-04 -0.59350855E-03
 -0.70549234E-03  0.23544618E-02  0.15732129E-02
  0.47875243E-02  0.85431780E-02  0.44124896E-02
 -0.11105371E-02  0.56421465E-02 -0.10346734E-02
  0.13508836E-02  0.12142033E-02  0.28611646E-02
  0.11954508E-02 -0.18083528E-02  0.21888424E-02
  0.55039151E-02 -0.45216862E-02  0.12418625E-02
  0.27265000E-02  0.61527961E-02  0.35554692E-02
 -0.19477877E-03  0.18849768E-02 -0.12733227E-03
  0.19637476E-02  0.30825049E-02 -0.11303253E-03
  0.41557388E-02 -0.55345939E-02 -0.14297181E-02
  0.39326321E-02  0.18432329E-02  0.38452299E-02
 -0.47943291E-02  0.29153807E-02  0.78427260E-03
 -0.70170745E-03 -0.44128560E-02  0.44465078E-02
 -0.65127572E-02  0.39888874E-02  0.67485347E-02
 -0.12411809E-02  0.38433600E-02 -0.75498179E-03
  0.59710044E-03 -0.15443540E-01  0.86419773E-03
  0.79069449E-03 -0.54706440E-02  0.63239812E-03
  0.32116972E-02 -0.13629750E-02 -0.12214179E-02
 -0.71870754E-02  0.45307851E-02 -0.95516245E-03
 -0.13827751E-02 -0.10030798E-02 -0.71000353E-02
  0.38306792E-02  0.23065860E-02 -0.10047242E-03
 -0.41900755E-03  0.30780631E-02 -0.75596340E-02
  0.56160035E-02  0.38855597E-04 -0.25283498E-02
 -0.21605107E-02 -0.21171206E-02 -0.32546345E-02
 -0.66537834E-02  0.40102453E-03  0.37539139E-02
 -0.63805814E-02  0.40805688E-02 -0.27877171E-02
  0.20323912E-02  0.19747296E-02 -0.43993128E-02
 -0.10048201E-01 -0.67854021E-02 -0.25339663E-02
  0.16163773E-03 -0.97214516E-03 -0.34349471E-03
 -0.61775241E-02 -0.29659264E-02 -0.86873543E-03
 -0.34221794E-02  0.50967376E-02 -0.23650591E-02
  0.48526436E-02  0.14642139E-02  0.27220184E-02
  0.34972771E-02  0.93197105E-02  0.11955431E-02
 
           1
   2.00000000000000     
  0.10277472E+01  0.14000254E-02  0.00000000E+00  0.00000000E+00
  0.13394237E-01  0.21151573E-01  0.13147217E+00
  0.51385187E+00  0.73051343E+00  0.73737399E+00
  0.24112333E+00  0.27678300E+00  0.87650812E+00
  0.22344094E-01  0.96395769E+00  0.36529328E+00
  0.70738074E+00  0.94408266E+00  0.86686067E+00
  0.22495716E+00  0.75660955E+00  0.38173934E+00
  0.98104646E-02  0.47881478E+00  0.12929579E+00
  0.24279261E+00  0.21724237E+00  0.13702028E+00
  0.75027089E+00  0.97213595E+00  0.62672198E+00
  0.77479081E+00  0.25605768E+00  0.75651302E+00
  0.70903456E+00  0.25246978E+00  0.36024648E+00
  0.25934336E+00  0.97982774E+00  0.87313128E+00
  0.77161787E+00  0.24554458E+00  0.11721228E+00
  0.24798291E+00  0.42919550E+00  0.61568225E+00
  0.13182736E-02  0.97762968E+00  0.87230421E+00
  0.51081945E+00  0.51701144E+00  0.39436216E+00
  0.14140838E+00  0.94746246E+00  0.62742549E+00
  0.98431183E+00  0.49453113E+00  0.41949756E+00
  0.47927903E+00  0.49084591E+00  0.99496000E+00
  0.98410950E+00  0.44332367E+00  0.97532709E+00
  0.50052844E+00  0.96217368E+00  0.11107473E+00
  0.25268497E+00  0.98251800E+00  0.38462776E+00
  0.71553598E+00  0.54614914E+00  0.88131517E+00
  0.74539093E+00  0.47278116E+00  0.63644854E+00
  0.26091897E+00  0.72959687E+00  0.12037061E+00
  0.25539166E+00  0.11459058E+00  0.61705560E+00
  0.77013612E+00  0.76101184E+00  0.23284594E+00
  0.73282042E+00  0.21607086E+00  0.50579394E+00
  0.48004482E+00  0.39229249E+00  0.50405417E+00
  0.35197457E+00  0.52464802E+00  0.86445863E+00
  0.96481175E+00  0.90913060E+00  0.51579968E+00
  0.96302543E+00  0.75276604E+00  0.75415101E+00
  0.16291232E-01  0.72649897E+00  0.25838075E+00
  0.73507238E+00  0.20740373E+00  0.87853431E+00
  0.98502018E+00  0.97055500E+00  0.11229203E-01
  0.80278461E+00  0.26304377E+00  0.62018888E+00
  0.51017549E+00  0.80391287E+00  0.99642436E+00
  0.28523753E+00  0.27117669E+00  0.37841593E+00
  0.98481783E+00  0.53745087E+00  0.87753331E+00
  0.52125642E+00  0.55145580E-01  0.23863536E+00
  0.29622261E-02  0.99396798E+00  0.24402364E+00
  0.51374575E+00  0.47908919E+00  0.75314242E+00
  0.48341271E+00  0.25095737E+00  0.77317106E+00
  0.98447328E+00  0.44983448E+00  0.25608591E+00
  0.24069022E+00  0.23685899E+00  0.44067053E-02
  0.75336953E+00  0.74077804E+00  0.53135302E+00
  0.26073058E+00  0.77597850E+00  0.50533959E+00
  0.75554033E+00  0.24563700E+00  0.98857846E+00
  0.97735455E+00  0.45203242E-01  0.73614259E+00
  0.58117537E+00  0.27594322E+00  0.22632183E+00
  0.98477815E+00  0.46655600E+00  0.61770540E+00
  0.51082675E+00  0.21197600E+00  0.98723363E+00
  0.49738476E+00  0.67497903E+00  0.52819795E+00
  0.74780699E+00  0.76770268E+00  0.15210445E-02
  0.96190037E+00  0.22217947E+00  0.51153267E+00
  0.24002010E+00  0.72292223E+00  0.99129630E+00
  0.97826979E+00  0.23994035E+00  0.15166600E-01
  0.48794887E+00  0.21389567E-01  0.51093414E+00
  0.46777727E+00  0.48152180E+00  0.25988910E+00
  0.25870226E+00  0.53659953E+00  0.36028459E+00
  0.46860920E+00  0.98457873E+00  0.76676124E+00
  0.33964681E-01  0.60376594E+00  0.52685470E+00
  0.98344585E+00  0.70067270E+00  0.93218978E-02
  0.47151716E+00  0.30219367E-01  0.38546933E+00
  0.20049283E+00  0.22143057E+00  0.26751175E+00
  0.69600888E+00  0.75413060E+00  0.80395845E+00
  0.53376895E+00  0.76699364E+00  0.26317402E+00
  0.86409742E-02  0.51788935E+00  0.74772354E+00
  0.76211814E+00  0.71840078E+00  0.36561421E+00
  0.26306558E+00  0.24915525E+00  0.73060061E+00
  0.89762546E+00  0.24049734E+00  0.25900115E+00
  0.21309215E+00  0.73339758E+00  0.73657671E+00
  0.26461441E+00  0.45370417E+00  0.12017063E+00
  0.48590975E+00  0.98470093E+00  0.62025145E+00
  0.13733860E-01  0.27724699E+00  0.75830420E+00
  0.23462156E+00  0.25338283E+00  0.49992358E+00
  0.22190037E+00  0.72179555E+00  0.88511040E+00
  0.74546035E+00  0.46874180E+00  0.38068643E+00
  0.76730267E+00  0.96422661E+00  0.12627974E+00
  0.49275713E+00  0.50270125E+00  0.60931626E+00
  0.51996013E+00  0.51506122E+00  0.12424384E+00
  0.23975286E+00  0.75128614E+00  0.25402787E+00
  0.75956644E+00  0.74503362E+00  0.67501536E+00
  0.26849917E+00  0.98740140E+00  0.12734334E+00
  0.27900395E+00  0.75465220E+00  0.62268421E+00
  0.77558928E+00  0.54427596E+00  0.12857981E+00
  0.48813208E+00  0.98560457E+00  0.89867713E+00
  0.75343714E+00  0.23626200E-01  0.37007477E+00
  0.27120410E+00  0.98816757E+00  0.24760364E+00
  0.74996112E+00  0.48666328E+00  0.75907458E+00
  0.22266410E+00  0.16342787E-02  0.74046883E+00
  0.70971500E+00  0.49912297E+00  0.25522283E+00
  0.24703648E+00  0.98087881E+00  0.36858699E-03
  0.75481778E+00  0.49159092E+00  0.49762193E+00
  0.22989725E+00  0.17112551E-01  0.49605869E+00
  0.73041911E+00  0.50064998E+00  0.12996632E-02
  0.71622904E+00  0.99905862E+00  0.75513163E+00
  0.21641650E+00  0.50114810E+00  0.24680405E+00
  0.25052180E+00  0.49125508E+00  0.74862630E+00
  0.76421948E+00  0.17210925E-01  0.25056130E+00
  0.22281250E+00  0.51756453E+00  0.49168205E+00
  0.74193485E+00  0.19917534E-02  0.99278435E+00
  0.72104594E+00  0.97771364E+00  0.49708478E+00
  0.22326152E+00  0.47903196E+00  0.99589716E+00
  0.97028220E+00  0.25418593E+00  0.38237656E+00
  0.49220500E+00  0.72224789E+00  0.87574030E+00
  0.49453797E+00  0.24067936E+00  0.63015494E+00
  0.98315877E+00  0.74677910E+00  0.13166270E+00
  0.95173143E-02  0.24762797E+00  0.86858282E+00
  0.49519311E+00  0.75812835E+00  0.38188577E+00
  0.98902365E+00  0.74673266E+00  0.62576081E+00
  0.47993893E+00  0.23548507E+00  0.11232446E+00
  0.11378072E+00  0.40077331E+00  0.42289731E-01
  0.60264082E+00  0.88599525E+00  0.55406454E+00
  0.65413049E+00  0.94648363E-01  0.94478655E+00
  0.13775043E+00  0.63613902E+00  0.44898758E+00
  0.32133434E+00  0.38183136E+00  0.94552679E+00
  0.83030714E+00  0.90013120E+00  0.44319797E+00
  0.85776569E+00  0.87540437E-01  0.38121881E-01
  0.31820191E+00  0.61264408E+00  0.55188350E+00
  0.87972965E+00  0.86884693E-01  0.19621580E+00
  0.33560369E+00  0.58538453E+00  0.70251990E+00
  0.84558469E+00  0.90768262E+00  0.30315674E+00
  0.33543864E+00  0.37777975E+00  0.79247215E+00
  0.11995607E+00  0.58807142E+00  0.29968492E+00
  0.62479888E+00  0.93543656E-01  0.80538205E+00
  0.11822127E+00  0.39826298E+00  0.20169079E+00
  0.62548508E+00  0.87222866E+00  0.71783969E+00
  0.82890443E+00  0.61656559E+00  0.96045330E+00
  0.33055266E+00  0.12034249E+00  0.44852959E+00
  0.84878568E+00  0.39034671E+00  0.54907819E+00
  0.32979479E+00  0.86203733E+00  0.47231850E-01
  0.11018487E+00  0.99782471E-01  0.54115613E+00
  0.62998922E+00  0.60002906E+00  0.44238102E-01
  0.14470272E+00  0.88333713E+00  0.95077424E+00
  0.64948063E+00  0.38489480E+00  0.45898029E+00