Na88 Sn16 P8 Se96                       
   1.00000000000000     
    14.0793397336999995    0.0000000000000000    0.0000000000000000
     0.0000000000000000   14.0793397336999995    0.0000000000000000
     0.0000000000000000    0.0000000000000000   28.1586794673000007
   Na   Sn   P    Se
    88    16     8    96
Direct
  0.9731797559963946  0.9859180710171079  0.0978620826789979
  0.7502741593914735  0.7626962566896396  0.6274865443775443
  0.5094010519516328  0.4698798593902345  0.8880438035838182
  0.2595393436829451  0.0124364217172255  0.3623108427417457
  0.2449416996031160  0.0006851715523476  0.8581681923704466
  0.9863277955521024  0.5058321530986304  0.4903819106335073
  0.7460320053813115  0.2693744247188104  0.1193955476069779
  0.2541944014749939  0.6914896932234224  0.1016696124635005
  0.6786161719822487  0.7669757539985188  0.8183242473080157
  0.8403441800564589  0.2457821737130978  0.9800135945164528
  0.7671327221263983  0.7558045161918421  0.3611331255722728
  0.2958522161533512  0.2690141115904953  0.8674577274614085
  0.7135830051250011  0.0181852225072630  0.1219845842571096
  0.2386693117476571  0.7735267739592315  0.7599094382263913
  0.0201790075119743  0.0179645560219992  0.9872278313688336
  0.4941117326166014  0.4737331951046287  0.2408163626228154
  0.9723887674378819  0.9790575475418585  0.3807746049837772
  0.0123220126948302  0.5018067306612694  0.6178493018493441
  0.5192265421280673  0.5342378313493136  0.1204247660725426
  0.9803232648273378  0.9969875192752048  0.7268660316372227
  0.4584521157315062  0.2495771723253935  0.4885509656620991
  0.2111870827077415  0.2372331456672042  0.4674698671335261
  0.7802574589655945  0.5508900558490043  0.8752034504166197
  0.2309604962100077  0.8088919418541215  0.6089977564558403
  0.2709036776355004  0.4908080586678026  0.1311924291748881
  0.3971832702136794  0.0050858084269544  0.6200550654053888
  0.1956854888187087  0.7398187113582597  0.2276109177521579
  0.7152526828789564  0.2568027125424526  0.5452673362600841
  0.4825680015120622  0.0664143371526714  0.3776210296519233
  0.2272430763851928  0.9534578403401505  0.1097335424623932
  0.0022347897146672  0.7321098450396152  0.4901123643616608
  0.9959561792184747  0.7725303342741614  0.7532973341387410
  0.8369309742119366  0.5025824216728703  0.1441362327859302
  0.6558597420492054  0.0420321027305557  0.6247769221313949
  0.7483115789917693  0.7815768407023485  0.9931500703767335
  0.2144250199812840  0.5226398200784249  0.6283684978740343
  0.5102907811091111  0.4955259989622164  0.9988690471142740
  0.2151186718004811  0.1864140864730494  0.2628967298537947
  0.0250793277274440  0.5616251068539170  0.7334144707725547
  0.2256785630009686  0.7154893994094581  0.3416032013022740
  0.0467938517660633  0.9419577865743822  0.2622778557980001
  0.4870170245305639  0.0434924649792241  0.7412697173707444
  0.7353225873617215  0.9992278268121989  0.8613775357081043
  0.0200753103952421  0.5534281462000571  0.2039170465324227
  0.2571962265901970  0.2265526239272925  0.1309190432237691
  0.5015689884898493  0.7660437142562939  0.5405083469948080
  0.7482518629946875  0.7374455782296859  0.5066179091308367
  0.0424054845304743  0.2768433944441590  0.9957522848895075
  0.0682194358460170  0.7427452141349091  0.9943574525720325
  0.4967458136577328  0.2590803389101269  0.2416801497553001
  0.0537675913214621  0.5101327731486587  0.8594472490459993
  0.5502794429391064  0.9766259341955019  0.2578719777246067
  0.2349512627991571  0.2374522475034659  0.6153856688895615
  0.4832840691701693  0.7629920613589917  0.9967362025738778
  0.8334919289835828  0.2630755417179473  0.6217410362993291
  0.4874010214333903  0.0013722239543085  0.8773976024872299
  0.2897973040376496  0.2164078536703453  0.9696580879971682
  0.4654326399529515  0.5217893118003185  0.4831672324770631
  0.5415938711487336  0.2621866773765333  0.9990428023955716
  0.9957319654508140  0.2445315863942718  0.5251132418401671
  0.4705584762409025  0.0283224697811926  0.0769141049768211
  0.2633447848391981  0.7830898128111179  0.4507155194140317
  0.0024560322135838  0.4919955446940047  0.0144925070830511
  0.5283485371819311  0.9392076877723176  0.4802706453193413
  0.0206219391478014  0.2214939352003303  0.2112100632348183
  0.9933233968495041  0.0013663182146030  0.6225683078147339
  0.0355775932084229  0.3777288692894518  0.2897424737272068
  0.2787988791590305  0.2860331086833489  0.7257614980285322
  0.9698887256353873  0.5495563448658283  0.3689295577331267
  0.7121905447248649  0.2671186466548194  0.7285202664273691
  0.7532190419774456  0.2394376790761386  0.2601361575220626
  0.5551701661901163  0.3885523450116103  0.7534642348726288
  0.4216580232405975  0.7890581705775731  0.2740242761297011
  0.7624125041625963  0.5023804806163455  0.6246862373001797
  0.9560820267148696  0.9955890169799846  0.8452076703407706
  0.2528364182065627  0.4861298843634859  0.3738444304454953
  0.2846857035641644  0.4926278575904779  0.8742157291187888
  0.7199157193516829  0.2978941396613284  0.3919062011811772
  0.7016122957970750  0.7928711804883549  0.1125745397599771
  0.4785410992249363  0.4760603056489365  0.6203679388042810
  0.7484164045636499  0.2579318006340698  0.8709605679376878
  0.7535440042426407  0.9955693104950506  0.3789793105289521
  0.4813776833444858  0.7910748504012290  0.7278448278156433
  0.2200315870073863  0.7508222072212730  0.8971723323128409
  0.0281830827921090  0.2683966980074080  0.7414232589900063
  0.6628325758129561  0.6946651343722494  0.2519339877557842
  0.0155561275448722  0.0341700127914890  0.5058499905486248
  0.6309839654671735  0.5395744742422308  0.3741757018751237
  0.3231675176987846  0.0086308874543959  0.2353289077325416
  0.7675044571827033  0.5303113911916573  0.7572718030804895
  0.2324532836310315  0.0290124124065097  0.7357089616878921
  0.7604790416980571  0.4775810250057081  0.2489576271882177
  0.2365234614846074  0.9644583037295178  0.9949065460151463
  0.7027013818299839  0.5044707063289914  0.5051874040909848
  0.2425948118957561  0.0040885059967265  0.5030867633623549
  0.7786626359035883  0.5121945169859866  0.0139510585946640
  0.7339205025468556  0.0174470778133629  0.7468589035406679
  0.2618762244659207  0.4708319935059402  0.2404686577572902
  0.2862354527755696  0.5203403390705091  0.7498211802356902
  0.7948426149948236  0.9900403810913684  0.2414831038188287
  0.2420732215379683  0.5075665702688277  0.4981582331886424
  0.7188629897528208  0.0234907296087384  0.0015273122096047
  0.7582444258871061  0.0036276665094708  0.5007594040241603
  0.2796644537579674  0.4806591666014821  0.0028570189014863
  0.9870324475069798  0.2382416690560867  0.3822198461812343
  0.4877177192511203  0.7280743204756486  0.8646873435083312
  0.5001626128849096  0.2451020318877954  0.6136925614983946
  0.0116957302428679  0.7416332066488445  0.1282854429584467
  0.0204423336063070  0.2559656360368746  0.8657936784911213
  0.5032976782299374  0.7695431898369840  0.3826771992440997
  0.9925121546351506  0.7673522699749449  0.6209308857356359
  0.4803184913173375  0.2749343300802622  0.1165305403406013
  0.1586667202144893  0.3981503235802873  0.0578708235171298
  0.6668334465618821  0.8774724969011515  0.5601153243573622
  0.6456575389273751  0.1300358666980774  0.9325002434198679
  0.1721088119107056  0.6198988532418964  0.4321859586213029
  0.3790700313472090  0.3786237377672144  0.9377726595483459
  0.8560467434050023  0.8775112479341712  0.4583243168094616
  0.8347347609274749  0.1048842171566856  0.0625715164592471
  0.3056606245039610  0.6197027381060393  0.5535716336437135
  0.8636183849132861  0.1262022756136973  0.1947898077621446
  0.3663983391161774  0.6109297254202656  0.6836669008992899
  0.8760568525406880  0.9122593811294193  0.3071177284129055
  0.3781189496192326  0.3931633636810159  0.7985736527988204
  0.1292755961486924  0.5474841347191511  0.2939375934835490
  0.6406234895304436  0.1384017162821039  0.8043469754370937
  0.1509590242408631  0.3735150041945059  0.1921010632697540
  0.6106379089838700  0.9295924155575794  0.7042435953742209
  0.8752597336065314  0.6325209724119111  0.9670194480421002
  0.3509572995941300  0.0964315339742985  0.4559646206105870
  0.8470771281159276  0.4168459627612347  0.5483293756649877
  0.3253491693184567  0.8267630909693575  0.0401849019128388
  0.1599965208088833  0.1148848079296178  0.5578252507278322
  0.6582560586995283  0.6530906571573666  0.0458057170183962
  0.1216628206869145  0.9009323930595007  0.9282152251684257
  0.5908001510531919  0.3922923771889929  0.4608289062578089
  0.6297561274001241  0.3984008190844343  0.3039735016597057
  0.1181160155033909  0.9295511601203174  0.7827479752120990
  0.1303584107324073  0.1398340981582553  0.6956938900011582
  0.6595430064656105  0.5477957232264152  0.1815483369709090
  0.8688465688769540  0.4278700790531186  0.6975704760398265
  0.4291981896707681  0.9104357788296453  0.1799224694496414
  0.4313819478101437  0.1118260940265085  0.2969836690147808
  0.8781318880705385  0.6410806166834310  0.8122757827074465
  0.1257456905231853  0.1018480187690591  0.0441616010320487
  0.6197200724419578  0.6178542046885703  0.5687681652981118
  0.6727925000126503  0.4047451276440995  0.9557364913152328
  0.1192938480421296  0.9281609893359523  0.4456032274294343
  0.3641149576912668  0.0463682551386906  0.9500886473101954
  0.8218700748982375  0.5882918543749541  0.4445200901204427
  0.8782973853249731  0.3938871254528186  0.0569962105812991
  0.3404102770750120  0.8747110533040883  0.5367491748624418
  0.1694680977114484  0.0606849731327390  0.1913583263907518
  0.6381812199150380  0.6097869511325283  0.7024158425580727
  0.2214895039263350  0.8979196302840373  0.2830904527203257
  0.6908677216338290  0.4000931956489724  0.8108873521155452
  0.8286521848969343  0.6393360027803175  0.2865358784475234
  0.3370698659468699  0.1358547475943896  0.7960105198675237
  0.8954040981346552  0.3782277849790160  0.2104125913080198
  0.3257058256020495  0.9079129871832129  0.6851596631251730
  0.8136332875159998  0.9289442840532681  0.9421684104513273
  0.3321187725448300  0.3948019309109888  0.4550419080928222
  0.8743483835349209  0.1066010195333286  0.5518147201459161
  0.3823232127085940  0.5971589968717599  0.0499435067036514
  0.1239216991311679  0.4086910016332759  0.5525648372029350
  0.5963368464101523  0.9165161064457898  0.0407378104272641
  0.1493840430574642  0.5602037693676220  0.9488772476489189
  0.6325530622285177  0.0900274019640492  0.4447105161901406
  0.3346721323220196  0.3693601028663094  0.3088053150693961
  0.8338156910831924  0.8795195644022986  0.7875192810133157
  0.8666497677067753  0.1226829287337762  0.6941347759905616
  0.3502927915024777  0.6026438209119165  0.2014770795449665
  0.1648088689658345  0.4134702312697520  0.7080056059064112
  0.7007908728707729  0.8902850482984500  0.1952453045253557
  0.6831154003383969  0.0964315245083180  0.2937733570979268
  0.1602571765889290  0.6217722259525759  0.7976434970972507
  0.0658376245878752  0.1244904773862889  0.3390577561857645
  0.5443626404545867  0.6224595320331225  0.8231786025352411
  0.6364148038399984  0.3049829634368025  0.6382275130147358
  0.0774627849539384  0.6038066550151407  0.1018537832726706
  0.5415088157641977  0.1367088247737576  0.5622656203139470
  0.1082962452295191  0.8394911265964842  0.1605998373660040
  0.8777689106341677  0.3010522559878147  0.3407452767786012
  0.3982715835567642  0.8422745924856877  0.8173838994543922
  0.1231471194792360  0.1645374252625828  0.9030341690187541
  0.4189576661261345  0.6299744675361549  0.3624903541766917
  0.0936015560938678  0.6856276614794700  0.6633979222769398
  0.6016552164564219  0.3622381647682038  0.0744039981875967
  0.0714590554787786  0.8516773684818456  0.5599583330077303
  0.3846314953739852  0.2189483030626030  0.0605035261709111
  0.9245184468981845  0.3559680391529919  0.9045802086713755
  0.5994176582895259  0.8448430149449685  0.3384630191428890
  0.8863650887033100  0.8395000520548977  0.6692484329645521
  0.3991479971683243  0.3609885987851842  0.1695509054478697
  0.9077195841593524  0.1681323367563841  0.8219183492304233
  0.5846497319482843  0.7084636044883239  0.4463573903113343
  0.1089318360793487  0.3565779224521325  0.8196053994640498
  0.4044545267693710  0.8962926466622310  0.4043439707184389
  0.9221678367917254  0.6647761351428375  0.5784871241499554
  0.5305651609766713  0.1488575818442273  0.1569875664556938
  0.4439233431423836  0.1772478562867193  0.6877568577757887
  0.9294946608673715  0.7997814230369582  0.0620396626176437
  0.8992184864021482  0.1521087954051629  0.4319394425536465
  0.3875363670155434  0.6652140733462534  0.9176611807847583
  0.0750229995451425  0.3508984746679821  0.4089957075249143
  0.5954306156263067  0.8257301837134198  0.8992994561282269
  0.3954020788921960  0.3391073481261079  0.5763719731632297
  0.8961820451704772  0.7141362582278301  0.1810688168531694
 
 -0.62538749E-02  0.67054948E-02 -0.15394198E-01
  0.68389611E-02  0.29202403E-02 -0.93211083E-02
  0.44514804E-02  0.37994629E-02  0.10490507E-01
  0.14364953E-02  0.55776095E-02  0.58537392E-03
 -0.54726982E-02 -0.53425032E-04  0.13537004E-01
  0.78570581E-03  0.20666676E-02  0.37451181E-02
  0.40696276E-02  0.23460955E-02  0.57836348E-02
 -0.10704253E-01  0.94274035E-03 -0.16356998E-02
  0.10963976E-01 -0.95526504E-02  0.38904426E-02
 -0.12099259E-01 -0.23626747E-02  0.20959406E-03
 -0.25665801E-02  0.12327347E-02 -0.83980508E-03
 -0.11672597E-01 -0.60910399E-03 -0.20509207E-02
  0.53656624E-02 -0.96442334E-02 -0.14290397E-02
 -0.59587241E-02  0.24694375E-02  0.15117322E-01
  0.10832723E-01  0.59503192E-02 -0.14655845E-02
 -0.16289933E-02 -0.73296491E-02 -0.80854881E-02
  0.37620024E-02 -0.19379842E-03 -0.32017449E-02
  0.92314223E-04 -0.42073844E-02  0.64607977E-02
 -0.40708707E-02  0.82230963E-02  0.78609086E-02
 -0.16700448E-02  0.38876316E-02 -0.19465349E-02
  0.70132382E-02 -0.16789414E-04  0.37143160E-02
  0.39901830E-03  0.13110270E-02 -0.27077603E-02
  0.30295456E-02  0.11951608E-03  0.12273536E-01
  0.43874653E-03 -0.20366162E-02  0.12733366E-01
 -0.10593118E-01  0.31875476E-02 -0.25878028E-02
  0.40191122E-02 -0.12763434E-02 -0.82561835E-02
  0.15133717E-02 -0.10758069E-01 -0.45093845E-02
 -0.16225846E-03  0.34017066E-02 -0.97677776E-02
 -0.35756082E-02  0.10690918E-01  0.53757203E-02
  0.19104338E-02 -0.11529885E-01 -0.49517836E-02
 -0.26675675E-02  0.59990971E-02  0.40785759E-02
  0.93375061E-02  0.13566930E-02 -0.27911715E-02
 -0.55021689E-02  0.17891501E-02  0.43319624E-02
 -0.41751769E-02 -0.13131027E-01  0.14397391E-02
 -0.15539902E-01 -0.19888118E-02 -0.52235199E-02
 -0.37434627E-02 -0.38455127E-02  0.40772384E-02
 -0.75075131E-03  0.55628938E-02 -0.18734191E-02
  0.54396751E-02 -0.29454257E-02 -0.77672677E-02
  0.46643493E-02  0.35613953E-02 -0.88138640E-02
 -0.14129444E-03 -0.33931875E-02 -0.75981231E-02
  0.35321064E-02 -0.79975777E-02  0.67631881E-02
 -0.51844221E-02 -0.79389353E-02 -0.63510001E-02
  0.20692615E-02  0.73444570E-02  0.24451281E-02
  0.18406907E-03 -0.71081314E-02  0.41807264E-02
 -0.28756753E-02  0.38518148E-02  0.57808660E-02
  0.48537330E-02  0.14169807E-02 -0.20579801E-02
 -0.50320845E-02  0.46700187E-02 -0.55569614E-02
  0.24347509E-02 -0.40367666E-02  0.25026297E-02
  0.24520066E-02 -0.31026821E-02 -0.61933366E-02
  0.31863871E-02 -0.24552194E-02 -0.35790429E-02
  0.46898873E-03  0.41730534E-02  0.77014349E-02
 -0.17678227E-02 -0.38868225E-02 -0.10026521E-01
 -0.61090123E-02  0.51752032E-02  0.59975002E-02
  0.47082014E-02  0.80313408E-02 -0.92348456E-02
  0.90948666E-02  0.40091383E-02 -0.80521197E-02
 -0.28349715E-03  0.98319592E-03 -0.11242791E-03
 -0.38894729E-02  0.39326677E-03 -0.65502629E-02
 -0.13062276E-01  0.31576679E-02 -0.10387413E-01
 -0.25291033E-02  0.87442815E-03  0.89404141E-02
 -0.42849662E-02 -0.71439612E-02  0.10850608E-01
  0.10733971E-02  0.13458739E-01 -0.58984506E-02
 -0.10159162E-01  0.21968622E-02 -0.61029015E-02
  0.40056529E-02  0.10595738E-01  0.58468798E-02
  0.27413704E-02  0.46857499E-02 -0.39739392E-02
  0.10069226E-01 -0.64005633E-02  0.40774591E-02
  0.85458745E-02  0.11849817E-02  0.79719519E-02
 -0.58785884E-02  0.17212702E-02 -0.11379867E-03
  0.16097364E-02 -0.81570413E-02 -0.26473842E-03
 -0.86688695E-03 -0.85744453E-02  0.20936229E-02
 -0.56850419E-03  0.78224723E-02 -0.24075959E-02
 -0.60904888E-02 -0.36118319E-02  0.10004666E-02
 -0.35615469E-02 -0.49187387E-02 -0.35194836E-02
  0.22749054E-01 -0.23107977E-02  0.34060160E-02
 -0.93687053E-02 -0.44608398E-02  0.11391952E-01
 -0.77196996E-02  0.53872427E-03  0.74121718E-03
 -0.54859220E-02  0.10174845E-01 -0.35013749E-02
 -0.34293425E-02 -0.27403449E-02 -0.85337843E-02
 -0.48880965E-02 -0.12844848E-01  0.40926317E-02
 -0.26227142E-02  0.15361386E-02  0.84700687E-02
  0.80402554E-02  0.58672230E-03 -0.30649327E-02
  0.82468838E-02  0.67008035E-02 -0.14339703E-02
 -0.57977936E-02  0.49896927E-02  0.46181803E-02
  0.43588978E-03  0.15326934E-02 -0.31357366E-02
  0.12751903E-01 -0.11954106E-02  0.10621532E-01
  0.65688940E-02 -0.23973763E-02  0.11832046E-02
 -0.25714393E-02  0.23468307E-02  0.13763270E-02
 -0.46022056E-02  0.33059250E-02  0.13540946E-02
 -0.15174926E-02  0.10510962E-01 -0.65290779E-02
 -0.20798483E-02  0.15261447E-03 -0.97791825E-03
 -0.55584380E-02 -0.31620931E-02 -0.18421805E-02
  0.43775358E-02  0.20951029E-02 -0.89839305E-03
  0.12636125E-02 -0.45415450E-02  0.48381019E-02
  0.26099611E-02  0.36925259E-02  0.45996525E-02
 -0.18662865E-02  0.30135108E-02  0.33308869E-02
 -0.44025175E-02 -0.61367975E-03 -0.49340927E-02
  0.17192525E-02 -0.95490439E-03  0.37485835E-02
 -0.10799986E-02 -0.19494550E-02 -0.58538656E-03
  0.29606279E-02 -0.22185633E-02  0.19893631E-02
  0.46704429E-03  0.24136061E-02  0.22800736E-03
  0.31002748E-02 -0.17135287E-02  0.22211515E-02
 -0.26168798E-02  0.19248960E-02 -0.14773677E-02
 -0.13156799E-02  0.49391504E-03  0.38367308E-02
  0.21933109E-02  0.16242295E-02  0.39295629E-02
 -0.11513862E-02 -0.12631696E-02 -0.50677963E-02
  0.30756635E-02  0.68175656E-02  0.28119805E-03
 -0.27013133E-02  0.70278589E-02  0.19920832E-02
 -0.25695142E-02  0.64987897E-02 -0.33251320E-02
  0.26411669E-02 -0.42522919E-03 -0.71626293E-02
 -0.72929732E-03 -0.13787769E-02 -0.13816524E-03
  0.13794471E-02  0.41296682E-02 -0.36656469E-02
  0.19143842E-02  0.35003540E-02  0.33162290E-02
  0.42151221E-02 -0.20445275E-03 -0.24999353E-02
  0.49416595E-02  0.18683277E-02  0.37042073E-03
 -0.13735901E-02  0.23297667E-02 -0.82384792E-04
 -0.16886331E-02  0.14516390E-04 -0.37771070E-02
  0.30750248E-02 -0.13492442E-02 -0.68527903E-03
  0.17790082E-02  0.80750944E-03  0.25493954E-02
  0.77540077E-03 -0.29726053E-02 -0.17338789E-02
 -0.54286298E-03 -0.33576158E-02  0.29147676E-02
 -0.73495132E-02 -0.58259579E-02  0.27144072E-02
 -0.28197356E-02 -0.16893393E-02  0.81256580E-02
  0.93108885E-03 -0.17610890E-02  0.12739468E-02
  0.13204214E-02  0.79525717E-03  0.38438816E-03
 -0.15185036E-02 -0.27990113E-02 -0.38953594E-03
  0.15487133E-02 -0.73066820E-03 -0.64146682E-03
 -0.37700522E-02 -0.51103282E-02 -0.29903701E-02
  0.88117213E-04 -0.33744474E-04  0.24127350E-02
  0.34424641E-02  0.11870194E-02 -0.13010060E-02
 -0.27127735E-02  0.19184202E-02  0.18318224E-02
  0.77162638E-03  0.17390001E-02  0.54655452E-03
  0.18267542E-02  0.14681296E-02  0.52749081E-02
  0.11634225E-02 -0.84552686E-03 -0.86891717E-03
 -0.91438521E-04  0.14586085E-02  0.62397530E-02
 -0.94626081E-03 -0.26424331E-02  0.35599164E-02
  0.16534989E-03 -0.30297146E-02  0.45161651E-02
  0.44732073E-02  0.21075103E-02 -0.58291709E-02
 -0.51792781E-03  0.23394595E-02  0.19343628E-02
  0.62401682E-02 -0.29596847E-02 -0.52690469E-05
  0.14315961E-02 -0.43860034E-02  0.50998561E-02
  0.20324282E-02  0.28401471E-02 -0.58236960E-03
  0.25498019E-02 -0.16798251E-02  0.37886674E-03
  0.31571811E-02  0.17391030E-02 -0.14189014E-02
  0.23751787E-02  0.12451423E-02 -0.21231278E-02
  0.16208921E-02  0.32334223E-02  0.53159119E-02
  0.24245829E-02 -0.13769916E-02  0.67741709E-03
 -0.30137940E-02  0.54349440E-02  0.11269033E-02
  0.83452715E-03 -0.75640815E-04  0.20935221E-04
 -0.64594208E-02  0.42791331E-02 -0.10832546E-02
  0.27835512E-02 -0.22871478E-03  0.12061398E-02
  0.12796637E-02 -0.16800290E-03  0.12810968E-02
  0.58982926E-02  0.17478535E-02 -0.61702113E-02
 -0.33919682E-02 -0.15277567E-02 -0.74209266E-03
 -0.15673475E-02 -0.91885027E-03 -0.44995754E-03
  0.27242413E-02 -0.15587895E-02  0.75598328E-03
  0.34448435E-02 -0.65573444E-02  0.61290523E-03
  0.79902498E-03 -0.75838398E-02  0.22266619E-03
  0.39957214E-03  0.69833077E-03 -0.49121276E-02
 -0.38300168E-02  0.48901448E-03  0.81369656E-02
  0.17683057E-02  0.24841757E-02 -0.93582927E-03
  0.44008581E-04  0.24072701E-02 -0.21658435E-03
  0.16829446E-02 -0.14228878E-02 -0.15757443E-02
 -0.16669497E-02 -0.20246776E-02  0.79613736E-03
 -0.11380986E-02  0.95607229E-03 -0.22480864E-02
 -0.55925905E-02  0.20174139E-02 -0.19715049E-02
 -0.10944672E-02  0.69996736E-03 -0.11240163E-02
  0.39440562E-02 -0.10221185E-02 -0.26412105E-02
  0.57415362E-02  0.37120966E-03 -0.20231756E-02
  0.17395770E-02  0.19705507E-02  0.71067594E-03
  0.32621788E-02  0.49002736E-02  0.82313029E-03
  0.17963007E-02 -0.30899630E-02  0.27643213E-02
 -0.43032528E-02  0.20844705E-02 -0.55425526E-02
 -0.50261984E-03  0.20793323E-02 -0.28862030E-02
  0.18501836E-02 -0.14997110E-03 -0.22563837E-02
 -0.28214504E-03 -0.61901952E-02  0.54886930E-02
 -0.27615829E-02 -0.17994574E-02  0.16106561E-02
 -0.83721582E-03 -0.52304978E-02 -0.68280174E-02
  0.54003237E-04 -0.26716370E-02 -0.39333693E-02
 -0.52195230E-03  0.39291412E-02  0.34216556E-03
 -0.34899808E-02  0.32819086E-02  0.32542512E-02
 -0.38542426E-02  0.30361244E-02 -0.16120158E-04
  0.16667499E-02  0.24779789E-02 -0.32141967E-02
 -0.72037380E-03 -0.17450244E-02 -0.68328108E-02
  0.62920443E-02  0.45908036E-02  0.74103304E-02
  0.53819900E-03 -0.12709564E-02 -0.36494663E-02
  0.17995566E-02  0.96182942E-03 -0.40721026E-02
  0.12144773E-02  0.35697585E-03 -0.46933870E-02
 -0.23647636E-03 -0.34904725E-03 -0.28027727E-02
 -0.15707735E-02 -0.70190834E-03 -0.16192755E-03
 -0.20233895E-02  0.62042274E-03 -0.65109516E-02
 -0.30986864E-02 -0.46691577E-02  0.26712974E-02
 -0.44477113E-02 -0.34423745E-02  0.95710629E-03
  0.63044056E-03  0.11522068E-02 -0.16182340E-02
 -0.12945924E-01 -0.26921098E-02  0.27027967E-02
  0.72370597E-02 -0.44870752E-02 -0.14767353E-02
 -0.43202796E-02 -0.13419024E-02 -0.24915867E-02
 -0.34921178E-03  0.25713945E-02 -0.47075480E-02
 -0.17162323E-02  0.23654706E-02 -0.15267763E-02
  0.30673617E-02  0.48888662E-02  0.71672048E-04
 -0.57052677E-03  0.28614361E-02  0.35947086E-03
  0.25337894E-02 -0.23150581E-02  0.19174104E-02
  0.49572504E-02  0.53574518E-03 -0.67338917E-02
 -0.37542256E-02 -0.26872191E-02  0.22284309E-03
 -0.30285873E-02  0.18822047E-02 -0.42488733E-02
 -0.33545585E-02 -0.24392357E-03 -0.68093316E-03
  0.52348924E-02 -0.15320579E-02  0.47061809E-03
 -0.44579722E-02  0.82001772E-02 -0.20440228E-02
 -0.10584783E-02 -0.50969422E-02  0.62723836E-02
 -0.21505967E-02 -0.20056594E-02  0.10594464E-02
 
           1
   2.00000000000000     
  0.47756212E+00 -0.11134288E-02  0.00000000E+00  0.00000000E+00
  0.97229138E+00  0.98687060E+00  0.96768693E-01
  0.75124565E+00  0.76311108E+00  0.62682450E+00
  0.51003339E+00  0.47041958E+00  0.88878890E+00
  0.25974340E+00  0.13228733E-01  0.36235242E+00
  0.24416429E+00  0.67758241E-03  0.85912967E+00
  0.98643941E+00  0.50612573E+00  0.49064791E+00
  0.74661010E+00  0.26970769E+00  0.11980634E+00
  0.25267384E+00  0.69162361E+00  0.10155344E+00
  0.68017363E+00  0.76561878E+00  0.81860057E+00
  0.83862545E+00  0.24544655E+00  0.98002848E+00
  0.76676813E+00  0.75597963E+00  0.36107348E+00
  0.29419410E+00  0.26892759E+00  0.86731206E+00
  0.71434521E+00  0.16815239E-01  0.12188309E+00
  0.23782286E+00  0.77387756E+00  0.76098316E+00
  0.21717819E-01  0.18809811E-01  0.98712374E+00
  0.49388033E+00  0.47269200E+00  0.24024208E+00
  0.97292317E+00  0.97903002E+00  0.38054720E+00
  0.12335126E-01  0.50120906E+00  0.61830819E+00
  0.51864827E+00  0.53540594E+00  0.12098310E+00
  0.98008603E+00  0.99753977E+00  0.72672778E+00
  0.45944836E+00  0.24957479E+00  0.48881478E+00
  0.21124376E+00  0.23741938E+00  0.46727755E+00
  0.78068781E+00  0.55090703E+00  0.87607519E+00
  0.23102282E+00  0.80860264E+00  0.60990216E+00
  0.26939890E+00  0.49126086E+00  0.13100863E+00
  0.39775419E+00  0.49045012E-02  0.61946866E+00
  0.19590047E+00  0.73829050E+00  0.22729063E+00
  0.71522963E+00  0.25728593E+00  0.54457357E+00
  0.48206008E+00  0.67933005E-01  0.37800285E+00
  0.22751446E+00  0.95182000E+00  0.10938184E+00
  0.18558561E-02  0.73296203E+00  0.49040205E+00
  0.99728259E+00  0.77272306E+00  0.75309909E+00
  0.83614938E+00  0.50283657E+00  0.14444391E+00
  0.65526665E+00  0.40166813E-01  0.62487918E+00
  0.74610410E+00  0.78129433E+00  0.99277906E+00
  0.21389325E+00  0.52209356E+00  0.62865809E+00
  0.51018414E+00  0.49631622E+00  0.99873599E+00
  0.21589139E+00  0.18599568E+00  0.26234505E+00
  0.25741908E-01  0.56213101E+00  0.73278846E+00
  0.22565849E+00  0.71500739E+00  0.34106354E+00
  0.47295595E-01  0.94082171E+00  0.26275822E+00
  0.48628057E+00  0.42364722E-01  0.74081863E+00
  0.73561653E+00  0.27112247E-03  0.86155120E+00
  0.20101458E-01  0.55241842E+00  0.20421399E+00
  0.25678773E+00  0.22709978E+00  0.13132964E+00
  0.50225847E+00  0.76624500E+00  0.54036218E+00
  0.74753704E+00  0.73810896E+00  0.50622322E+00
  0.42751346E-01  0.27626996E+00  0.99593004E+00
  0.68567749E-01  0.74230447E+00  0.99391756E+00
  0.49719845E+00  0.25873157E+00  0.24142594E+00
  0.53834212E-01  0.51072556E+00  0.85999425E+00
  0.55002832E+00  0.97607380E+00  0.25715983E+00
  0.23408346E+00  0.23818740E+00  0.61581165E+00
  0.48395288E+00  0.76413293E+00  0.99608029E+00
  0.83478387E+00  0.26364505E+00  0.62116913E+00
  0.48736075E+00  0.15118890E-02  0.87738962E+00
  0.28924480E+00  0.21646372E+00  0.96919285E+00
  0.46357712E+00  0.52223787E+00  0.48242946E+00
  0.54123461E+00  0.26231089E+00  0.99967780E+00
  0.99512328E+00  0.24351677E+00  0.52588392E+00
  0.47071095E+00  0.30234312E-01  0.76495161E-01
  0.26190165E+00  0.78340188E+00  0.45028205E+00
  0.30250437E-02  0.49350069E+00  0.14907788E-01
  0.52873795E+00  0.93987331E+00  0.47998839E+00
  0.22052294E-01  0.22058472E+00  0.21149967E+00
  0.99453736E+00  0.15346474E-02  0.62313452E+00
  0.34742527E-01  0.37797338E+00  0.28973439E+00
  0.27902755E+00  0.28487438E+00  0.72574269E+00
  0.96976558E+00  0.54833833E+00  0.36907826E+00
  0.71210979E+00  0.26822985E+00  0.72834926E+00
  0.75235388E+00  0.23892461E+00  0.26020722E+00
  0.55466424E+00  0.38785363E+00  0.75321426E+00
  0.42488957E+00  0.78872992E+00  0.27426619E+00
  0.76108166E+00  0.50174681E+00  0.62549536E+00
  0.95498543E+00  0.99566554E+00  0.84526032E+00
  0.25205713E+00  0.48757524E+00  0.37359574E+00
  0.28419856E+00  0.49223859E+00  0.87360961E+00
  0.71922135E+00  0.29606950E+00  0.39219688E+00
  0.70123973E+00  0.79308939E+00  0.11317614E+00
  0.47968323E+00  0.47614365E+00  0.62015025E+00
  0.74958789E+00  0.25888366E+00  0.87085872E+00
  0.75272042E+00  0.99627811E+00  0.37930732E+00
  0.48143960E+00  0.79129257E+00  0.72762211E+00
  0.22184302E+00  0.75065240E+00  0.89792674E+00
  0.29116208E-01  0.26805615E+00  0.74150730E+00
  0.66246730E+00  0.69499851E+00  0.25203174E+00
  0.14902375E-01  0.34639626E-01  0.50594617E+00
  0.63076840E+00  0.54106758E+00  0.37371197E+00
  0.32287207E+00  0.86525667E-02  0.23525945E+00
  0.76671487E+00  0.52986221E+00  0.75714096E+00
  0.23307512E+00  0.29310026E-01  0.73564515E+00
  0.76065854E+00  0.47693589E+00  0.24930126E+00
  0.23689421E+00  0.96498283E+00  0.99523324E+00
  0.70243627E+00  0.50489878E+00  0.50542398E+00
  0.24196942E+00  0.40013315E-02  0.50273631E+00
  0.77890686E+00  0.51205887E+00  0.14217306E-01
  0.73376709E+00  0.17170154E-01  0.74681733E+00
  0.26229679E+00  0.47051684E+00  0.24060995E+00
  0.28630180E+00  0.52068320E+00  0.74983737E+00
  0.79528302E+00  0.98979697E+00  0.24164086E+00
  0.24170149E+00  0.50784001E+00  0.49805330E+00
  0.71867609E+00  0.23560891E-01  0.17998201E-02
  0.75855599E+00  0.38583917E-02  0.50103851E+00
  0.27950090E+00  0.48047973E+00  0.24970733E-02
  0.98746935E+00  0.23921012E+00  0.38223982E+00
  0.48733399E+00  0.72907264E+00  0.86482883E+00
  0.49979761E+00  0.24602520E+00  0.61345639E+00
  0.12070914E-01  0.74157280E+00  0.12777671E+00
  0.20338735E-01  0.25576978E+00  0.86578387E+00
  0.50349363E+00  0.77012982E+00  0.38241684E+00
  0.99278410E+00  0.76784950E+00  0.62116642E+00
  0.48091726E+00  0.27490529E+00  0.11635298E+00
  0.15936869E+00  0.39841572E+00  0.57897133E-01
  0.66663833E+00  0.87780345E+00  0.56010947E+00
  0.64541767E+00  0.13003793E+00  0.93223197E+00
  0.17254563E+00  0.61970719E+00  0.43213729E+00
  0.37932274E+00  0.37873845E+00  0.93795373E+00
  0.85615689E+00  0.87708898E+00  0.45820117E+00
  0.83465765E+00  0.10440726E+00  0.62778541E-01
  0.30461661E+00  0.61887515E+00  0.55376443E+00
  0.86321784E+00  0.12596230E+00  0.19536694E+00
  0.36653060E+00  0.61067956E+00  0.68375738E+00
  0.87624442E+00  0.91237235E+00  0.30714503E+00
  0.37790324E+00  0.39276576E+00  0.79854599E+00
  0.12949559E+00  0.54738034E+00  0.29389203E+00
  0.64008795E+00  0.13767578E+00  0.80413458E+00
  0.15097154E+00  0.37351021E+00  0.19227243E+00
  0.61112692E+00  0.92976103E+00  0.70415119E+00
  0.87487438E+00  0.63279349E+00  0.96714956E+00
  0.35106691E+00  0.96678563E-01  0.45600344E+00
  0.84733662E+00  0.41705451E+00  0.54870403E+00
  0.32551444E+00  0.82664298E+00  0.40123186E-01
  0.15998353E+00  0.11509201E+00  0.55826844E+00
  0.65812164E+00  0.65271529E+00  0.46058564E-01
  0.12168631E+00  0.90050202E+00  0.92853599E+00
  0.59143558E+00  0.39259175E+00  0.46041488E+00