Na88 Sn16 P8 Se96                       
   1.00000000000000     
    14.0793397336999995    0.0000000000000000    0.0000000000000000
     0.0000000000000000   14.0793397336999995    0.0000000000000000
     0.0000000000000000    0.0000000000000000   28.1586794673000007
   Na   Sn   P    Se
    88    16     8    96
Direct
  0.0036667545438945  0.9990951242393484  0.9965609002339131
  0.5074571442668454  0.4740432545727112  0.7502016472346099
  0.4761568244669534  0.4837497880438041  0.8688478704201970
  0.0303722542568259  0.0085813025976835  0.2416521689298933
  0.5017895123070504  0.9959629425997061  0.6209138989769486
  0.0097045768155965  0.4984819002794971  0.3861172568355212
  0.9595077230064218  0.4960933859118501  0.1297941582828770
  0.2152059256233161  0.2491681421057914  0.1226755754424045
  0.7727619862805856  0.7230361182227980  0.6367618098256577
  0.7510020089532667  0.2517319795306278  0.8560230463321078
  0.7263908887019787  0.7907229362244271  0.2653000000558978
  0.2321131652579115  0.4576328307147773  0.8629623465476776
  0.7574724416211568  0.0261144419356458  0.1303292661799031
  0.2942847663486427  0.7846956102078317  0.6141349119794948
  0.2153761493910328  0.0969385007162100  0.8822485613696776
  0.5055215856886692  0.4584404755448129  0.3743867966918175
  0.0059149211960668  0.9993136157555010  0.6198800963949880
  0.0357100932997629  0.4681880300947221  0.6177506556740678
  0.4947105512308184  0.9854153792397309  0.1089497837022115
  0.9680595842925691  0.5263768430031370  0.8749188712259516
  0.7988963606458133  0.9922505401043165  0.3754222318330075
  0.2687192265076784  0.2342178039097977  0.3662932252717363
  0.7403080367196259  0.7559042782395213  0.8751698995202176
  0.7680771263637450  0.2514344767654667  0.6286962958618479
  0.2474874449303404  0.9971327378148452  0.1115767232035736
  0.2699182828827700  0.2587614772544450  0.6466698168555126
  0.6884798725605975  0.7731409554588260  0.1317784884928957
  0.7540625027110177  0.2548141656698489  0.3700330038321858
  0.4919801960626101  0.7489461184101395  0.5202828434498952
  0.4864458396733291  0.2279509917128108  0.9926362181395828
  0.9882574032215421  0.0130874471109074  0.4841846065730727
  0.2726128493809483  0.7563957584639329  0.7539149799857168
  0.9891979131220704  0.5222862524404902  0.2507273176667332
  0.7353891408539041  0.2378887965186001  0.7505115915052903
  0.9869148123186186  0.9363783679713482  0.8683430141458580
  0.5113575126415878  0.4463347611852438  0.5011101040066563
  0.5034752556077687  0.5081674447183596  0.9965032510161859
  0.5110894083734605  0.2673633247508522  0.2554918684947894
  0.0393678662644954  0.7099904694439321  0.7472531433165521
  0.2612056801199741  0.7686047371533327  0.3890488394485405
  0.9943182700424031  0.7505262228009232  0.2646791823960098
  0.4913967105431988  0.2294194663873774  0.7849055246877923
  0.5028486708343548  0.7853310886715696  0.7273499252433767
  0.0019849703617800  0.2894197382562020  0.2462971448097526
  0.9635996351588824  0.2609480376064317  0.9997713396180976
  0.7200369628255466  0.7093936885917153  0.4789092332991831
  0.2557454408191921  0.7525481649760598  0.5056814666646360
  0.7341764098008151  0.2541051429685306  0.1119830098848277
  0.9826454427838616  0.9505014086334297  0.7307089225573338
  0.4798361857709948  0.5307955792639988  0.2608371501081524
  0.0266037058342736  0.4646735474010810  0.7609341203343744
  0.5173553571432555  0.0070799981556918  0.2488041608108837
  0.2756938355526891  0.2534387748638063  0.5050678607828997
  0.7281639490196095  0.8039923251104397  0.9943003963821807
  0.7272226444028002  0.2085671789195453  0.5055468523235079
  0.2319196975582457  0.7498306657118894  0.1405954172322195
  0.9750730973028771  0.4965863008047868  0.0099201303126748
  0.5134551689932290  0.4696698473208240  0.6271500862126009
  0.4509334931986740  0.5103645395254524  0.1247951100072448
  0.0149580202867927  0.2503295475144112  0.5082858302337215
  0.4873424881982287  0.8572025257068214  0.9833275546679144
  0.9673770659349905  0.7088283036626973  0.4940556522254107
  0.9961908651806565  0.7499469952678197  0.0111202286940787
  0.4777096778671386  0.1082667099806468  0.5204286638919856
  0.2390220190447339  0.2582792397594050  0.2514944705485515
  0.7893123477993126  0.7268828175785016  0.7433964032909745
  0.1624347642089075  0.0199743693966448  0.3608809945451663
  0.9973674060291393  0.1983015942074834  0.7595834744009105
  0.3441760421570755  0.7658334233153149  0.2668083688371977
  0.2380039812960104  0.2417237602233178  0.7608668583096594
  0.7495208578035035  0.2789028978267661  0.2689911494454597
  0.2119635394277044  0.7433655247404274  0.0136553301469428
  0.2243368147879192  0.5033142401212108  0.1308936043614211
  0.7736313364168492  0.9831232738794158  0.6331415911704388
  0.7532613631106403  0.0507727297766158  0.8773944739051034
  0.2231481971582154  0.5046525024151218  0.3755961675061292
  0.2385705328709367  0.7027255418387497  0.8737446360348329
  0.7040467222804258  0.8382652763879925  0.3730634856935963
  0.9871169670765056  0.0327687962378443  0.1246096676789053
  0.2643871282946478  0.5243998116347831  0.6196319314586319
  0.7244311492976155  0.4970293932381430  0.8822937934399003
  0.5076914459849371  0.0261096809676298  0.3752573009016946
  0.7762106743079977  0.4992615479012609  0.6259154525326859
  0.2696284681557335  0.2440361166128179  0.9979924066387192
  0.2376945526406441  0.0257949588995536  0.6210544173495450
  0.7086450033225854  0.5409583659877395  0.1146130046008943
  0.4737422946911257  0.9930766365768700  0.8697046155283338
  0.7187167733933660  0.4881937406421846  0.3739823164248267
  0.2686783038342052  0.9892123690535375  0.2380135858111550
  0.7654101808165887  0.4769706564991552  0.7496587309241438
  0.2527382901826314  0.9866173400643901  0.7554162805622646
  0.7278466646335403  0.5266398931274003  0.2384385335765345
  0.2562330737618420  0.9878674619545565  0.9856638887054691
  0.7610940111558689  0.4620356596934749  0.4962287566806879
  0.2495236917227814  0.9928034365069169  0.4895175495165737
  0.7284892052762382  0.5269874627133573  0.9972228780566457
  0.7371833837452725  0.9907804250128135  0.7508926264324648
  0.2294099259554824  0.4963548180594321  0.2599145947539624
  0.2682186667812334  0.5005058038904678  0.7380783729370614
  0.7606321192241221  0.0415450160180356  0.2431422904665482
  0.2694226969638435  0.4986853565619456  0.5053787612463134
  0.7429788861076944  0.0330142200994533  0.9993435355524986
  0.7616824716505113  0.9445997678571593  0.5074403783126044
  0.2377268256253665  0.4973107326468785  0.0067687415242240
  0.0107414341934309  0.2883784619159766  0.3757282077784384
  0.5075710998757452  0.7362810181969085  0.8718053931570100
  0.5154053685690582  0.2409755118928403  0.6336120446262287
  0.9604972288395388  0.7642609622120040  0.1320890676422637
  0.9997414850044596  0.2522482221430442  0.8777409270588784
  0.4982328200090542  0.7285291308116785  0.3731755847167623
  0.0053992736783029  0.7262398704572385  0.6169581266029098
  0.4865534690624722  0.2560618931575080  0.1254169285185768
  0.1258688693990885  0.3909763851876673  0.0621516068305307
  0.6682065220434755  0.8425280263920720  0.5698979925543427
  0.6371256320624296  0.1155167073405327  0.9388966129541876
  0.1554397731340411  0.6080177547328554  0.4485737829839744
  0.3339145004868699  0.4073341421276330  0.9483780111379864
  0.8476484171745355  0.8455415771692935  0.4447638846354136
  0.8552004684621060  0.1368271558555100  0.0459469102425698
  0.3721707307890117  0.6055272247738192  0.5492456490565838
  0.8664134908917143  0.1397466706957333  0.1941438392898706
  0.3742036445471156  0.6132444197071527  0.6908109207505022
  0.8565839199922735  0.9137236677937242  0.2843918779283453
  0.3624052188754782  0.3915158416090593  0.7935659572045328
  0.1289798113983215  0.6183812028998027  0.3134759185851828
  0.6380579669490477  0.0975415612277586  0.8077806697112563
  0.1264570793224429  0.4049482569815806  0.2020948994487758
  0.6537451795447342  0.8911137281903552  0.6911769461583893
  0.8558323309223359  0.6140743182450897  0.9517828002436219
  0.3538196821213397  0.1097058861841645  0.4402824549865906
  0.8557538020524365  0.3578524322500845  0.5537513748834989
  0.3457236653202353  0.9074252249192899  0.0500988758552581
  0.1524014294338034  0.1086791646908931  0.5431007834252449
  0.6259676042234433  0.6365648266985694  0.0470498571056062
  0.1282037708263745  0.8790759861603690  0.9557921915164056
  0.6483177047235241  0.3732073654309388  0.4419688433959300
  0.6207807621520486  0.4129447581275115  0.2962317906850045
  0.1269009474449640  0.8827012782272672  0.7917989315787465
  0.1363021713629129  0.1044400549304588  0.6947283775933148
  0.6269669478007689  0.6235311704595878  0.1889591480877287
  0.8644783553208502  0.3822634721104735  0.6968670999504438
  0.3607504013966393  0.8866954341030564  0.1852745583339710
  0.3653198284597879  0.1000197372556753  0.2959530035970764
  0.8785167625369310  0.5749782112926154  0.7989691975298812
  0.1695940577806512  0.1091490270618594  0.0445095089044287
  0.6490176807572670  0.5772825270449661  0.5446952750230847
  0.6515382345446736  0.3923288522624974  0.9584861790485526
  0.1451221439040286  0.8837801092922263  0.4452263134220573
  0.3649581104232965  0.1058133306883518  0.9434477198134985
  0.8386413283049888  0.5724712242447577  0.4437155230935448
  0.8177769990451721  0.4184702229384659  0.0572202638061205
  0.3692821724049055  0.9230533370456728  0.5456196998134732
  0.1562781304954020  0.0961566921665944  0.1845011993710214
  0.6567514201839610  0.5966420323619624  0.7007257747503114
  0.1782403970229483  0.8746207232271856  0.2863448620202518
  0.6606782415247056  0.3917260903489850  0.8099217421418576
  0.8067158003015108  0.6363237867071326  0.3035338261701049
  0.3382480076041910  0.0832541726035065  0.8144245929050720
  0.8583874187224990  0.4106631734471899  0.2114601810666674
  0.3640479341032059  0.8930982758206620  0.7012317774543727
  0.8474303512035537  0.9183331456853007  0.9462237031211118
  0.3510275856569843  0.3984941435481492  0.4367998478828657
  0.8542470127679073  0.0670463162857724  0.5498904213157767
  0.3386937769663074  0.6040024541458691  0.0588606801766593
  0.1687824269009499  0.3781454988344283  0.5554239358054410
  0.6373452661017194  0.9324295382677003  0.0537983066429743
  0.1228330508386164  0.5907695444636915  0.9470192470008748
  0.6551742476954342  0.0379191194987648  0.4460506398757172
  0.3348315557009744  0.3803211811277187  0.3037965504709819
  0.8514529555856752  0.8889379389908332  0.8021648224228286
  0.8549869933215621  0.0888860320302959  0.7138535139684145
  0.3337723807409458  0.5881904601348514  0.2030821968919815
  0.1660985066478752  0.3752968075478694  0.6995442434337237
  0.6659540189584179  0.9323995875048288  0.1915100063857734
  0.6504936474752367  0.1094810280361232  0.3010148695668979
  0.1625314152219338  0.5949364261532971  0.7951013811292515
  0.0992422783941458  0.1925404325549478  0.3265530476551286
  0.5964651431051453  0.6377196234714987  0.8259659673667120
  0.5903517383004356  0.3265453006962764  0.6936545603490835
  0.0608226121969497  0.8477428361954064  0.1768802459157489
  0.4266531726567089  0.1530669329098110  0.6803577551756443
  0.8691079310367604  0.6734580937739476  0.1717522831061233
  0.9099180684643966  0.3633649239333868  0.3230791462197267
  0.3901410554908821  0.8088609457077967  0.8256454625983428
  0.0799376661051523  0.1872984504346195  0.9380049099599354
  0.5991699119177060  0.6262170745728218  0.4043934824702364
  0.0657629804841926  0.8285955974407373  0.5701229602312554
  0.5342659380368653  0.3659161924702078  0.0783993385361503
  0.9139662291840929  0.6136959582773031  0.5882856073137471
  0.4029434582794568  0.1539067631260815  0.0791977703687872
  0.8909525423787568  0.3444627317602024  0.9072396713724021
  0.4370989003786042  0.8350797153651511  0.4258434958140353
  0.9178970992344127  0.8080299383764756  0.6680035717431271
  0.3984947628961556  0.3229092823861536  0.1818413872330732
  0.9347293353452386  0.1292072316863771  0.8424482488264512
  0.3886536213607887  0.6341306097027596  0.3378341275890678
  0.0998582900075521  0.3248652326545778  0.8268516382547985
  0.5469937486767303  0.8143049822453238  0.3110191780585290
  0.1233514750045980  0.6588056144517540  0.6560301129748203
  0.5929054947793195  0.1707644930213972  0.1670357361924079
  0.4283786326323605  0.3134691476866663  0.5827225044049128
  0.8812452937004539  0.8604156766889262  0.0855928488934073
  0.9269117584620311  0.2022173637581538  0.4221293507416742
  0.4344024639189906  0.6510632012187001  0.9276101709454420
  0.1041434370704005  0.3508703965095198  0.4304328303259363
  0.5948624171460849  0.8556763245533584  0.9049515000271643
  0.6214679699069048  0.1503863376464639  0.5930491479742768
  0.0484380875405203  0.6713323845293047  0.0857673486868402
 
  0.54193454E-02  0.27388950E-02 -0.13798791E-02
  0.60052205E-03 -0.34629987E-02 -0.71303788E-02
 -0.10062115E-01 -0.45347112E-04  0.23556120E-02
 -0.11534327E-01 -0.20363498E-02 -0.88303359E-02
 -0.54940554E-02 -0.50255382E-02  0.49810973E-03
 -0.36461032E-03  0.40161701E-03  0.76210511E-02
  0.35165704E-03  0.34031470E-02 -0.13470191E-02
  0.10700634E-02 -0.77421156E-02 -0.50661302E-02
 -0.18664661E-02 -0.40803482E-02  0.89243665E-02
  0.30191167E-03  0.51671449E-02 -0.40630892E-02
  0.28549571E-02 -0.18616087E-02 -0.32178493E-02
  0.10242494E-01 -0.63991155E-02 -0.16257350E-02
  0.77552438E-02  0.69680722E-02  0.73101345E-03
  0.15170814E-02 -0.12431460E-01  0.70047564E-02
  0.35477417E-02 -0.21530978E-02  0.25726429E-02
 -0.45283722E-02 -0.38668110E-02  0.13326837E-01
  0.39591715E-03  0.38938511E-02 -0.59055777E-02
 -0.31081813E-02 -0.10032375E-02  0.42158047E-02
 -0.72762391E-02  0.75005901E-02  0.18395380E-03
  0.50677601E-02 -0.13922954E-02  0.58251650E-02
  0.88208009E-02  0.41527024E-02  0.19257720E-02
 -0.21759721E-02  0.22474161E-02  0.14600203E-02
 -0.64568184E-02  0.12617466E-02  0.82771114E-02
  0.39231532E-02 -0.37088205E-04  0.39241371E-02
 -0.12457511E-01  0.66825848E-02  0.44295671E-03
 -0.60832347E-02 -0.60124628E-02  0.10154609E-01
 -0.67942207E-03  0.37856728E-02 -0.37393116E-02
  0.20136778E-02  0.86211957E-02 -0.69653174E-03
 -0.54101366E-02 -0.18070978E-02  0.15372497E-02
 -0.13623982E-02 -0.57815763E-02  0.43622148E-02
  0.38055100E-02  0.45873802E-02  0.47236690E-02
 -0.88429973E-02  0.60501846E-02 -0.78835548E-02
  0.10272054E-01 -0.78200078E-02  0.60342997E-03
 -0.10584372E-02  0.13662502E-02  0.21281509E-02
  0.77818828E-03  0.28754037E-02  0.74260092E-02
  0.89139699E-02 -0.36955450E-02  0.13634620E-02
  0.29480459E-02 -0.65137683E-02 -0.34173717E-02
 -0.28684719E-02  0.49965620E-02  0.12277552E-01
  0.40761975E-02 -0.11128263E-03  0.28615686E-02
  0.38190006E-04 -0.47773099E-03 -0.47676018E-03
  0.48461421E-03 -0.64410478E-02 -0.95250901E-03
 -0.19673990E-03 -0.29867097E-02 -0.19661503E-02
 -0.12504609E-02  0.69480474E-02 -0.68539244E-03
 -0.15552362E-02 -0.43336353E-02  0.21679475E-02
  0.54501651E-02 -0.54731918E-02 -0.57984192E-02
  0.10229448E-02  0.13244327E-02 -0.18286630E-03
 -0.17923125E-02  0.47149556E-02  0.38266867E-02
 -0.37347337E-02  0.26395111E-02  0.43035041E-02
 -0.81394513E-02  0.50483327E-02  0.52772534E-03
  0.47287596E-02  0.20267466E-02 -0.62766039E-03
  0.41109576E-02 -0.34113831E-02 -0.41943589E-02
  0.11700834E-02 -0.21407691E-02 -0.67739078E-03
  0.42523108E-02 -0.29971396E-02 -0.91608690E-03
  0.81761597E-02 -0.18588989E-02 -0.20058408E-02
 -0.40297471E-02  0.49491375E-02 -0.11460845E-02
 -0.73660760E-02  0.28173679E-02 -0.34543693E-02
 -0.10558564E-01  0.43123867E-02  0.21299844E-02
 -0.11874474E-02 -0.26261542E-02  0.39403354E-02
 -0.16368337E-02  0.10913839E-01 -0.10817885E-02
 -0.32863056E-02 -0.51701514E-03 -0.24920474E-02
  0.49787257E-02  0.22743741E-03  0.96028511E-03
  0.77892911E-02  0.37366558E-02  0.46759362E-02
 -0.54586612E-02  0.20722212E-03 -0.75024544E-02
 -0.25824970E-02  0.69369172E-03  0.42590537E-02
 -0.84516792E-02 -0.46830213E-02  0.34238650E-02
  0.63393108E-03 -0.51988197E-02 -0.25515294E-02
 -0.11286595E-01  0.14394720E-02 -0.25647614E-02
  0.78383738E-02  0.43711387E-03 -0.45288150E-02
  0.23182192E-02 -0.77865641E-03  0.28817360E-02
 -0.70323965E-02 -0.37294217E-02 -0.12727406E-01
 -0.22742327E-02  0.20513522E-03 -0.35810032E-02
 -0.59726499E-03 -0.16915863E-02  0.96973352E-02
 -0.36148200E-02  0.54418521E-02  0.42106786E-02
  0.15806190E-04  0.60337585E-02  0.20211416E-02
  0.88362786E-03  0.26915498E-02 -0.17919978E-02
  0.44241267E-02  0.53212062E-02 -0.17224031E-02
  0.40342489E-02  0.12109947E-02 -0.10944974E-02
 -0.76828111E-02 -0.21668213E-02 -0.34336045E-03
 -0.21489815E-02 -0.33098589E-02 -0.44180597E-02
  0.42422604E-02  0.49368106E-02 -0.11383281E-02
  0.11079300E-02 -0.26962295E-03 -0.97160282E-02
  0.36354562E-02  0.39380713E-02  0.46796498E-02
 -0.26727415E-02 -0.99262838E-02 -0.76516761E-02
 -0.18718304E-02 -0.53784958E-02  0.90488078E-03
  0.22865027E-03 -0.34831526E-02  0.41508018E-02
 -0.88676772E-02 -0.76115469E-02 -0.35175184E-02
 -0.89865341E-02  0.35901006E-03 -0.57930322E-03
 -0.61163150E-02  0.67363025E-02  0.20811170E-03
 -0.18252486E-02 -0.21330799E-02  0.45181678E-02
 -0.21602083E-02 -0.14935918E-03 -0.37272786E-02
 -0.69825914E-03 -0.27404762E-02 -0.26883524E-03
  0.42973604E-02 -0.34096878E-02 -0.19594677E-02
 -0.14575757E-02  0.44572139E-02  0.12638602E-02
  0.59116046E-05 -0.12248737E-03  0.42980403E-03
 -0.17780044E-03 -0.26184617E-02  0.68472527E-03
 -0.11778518E-02 -0.87238371E-03  0.27803751E-02
  0.22003578E-02  0.16329735E-02  0.33208216E-02
  0.37017376E-02 -0.35187440E-03  0.12493633E-02
 -0.21635830E-02 -0.46245810E-03  0.85449259E-03
 -0.13633907E-02  0.20124639E-02 -0.27168810E-02
  0.20057024E-02  0.22685667E-02  0.77279758E-04
 -0.24976628E-02  0.23667080E-02 -0.12417667E-03
  0.70548125E-03  0.82173462E-03  0.28551620E-02
  0.46253112E-02  0.48871604E-03 -0.30465718E-02
  0.40232686E-02  0.37053908E-02 -0.11433593E-01
  0.34868392E-03 -0.72887526E-03 -0.21951448E-03
 -0.26975109E-02 -0.44011553E-02 -0.39202088E-02
 -0.58663323E-02  0.12872219E-02 -0.10570796E-02
  0.19464303E-02  0.46105053E-02  0.17138248E-02
  0.62623996E-02  0.69563377E-03  0.27847285E-02
 -0.44325564E-02 -0.20667511E-02 -0.49401975E-02
  0.17773673E-03 -0.23662039E-02 -0.14232268E-02
  0.32506203E-02 -0.21814024E-02 -0.14287981E-02
  0.12340982E-02  0.44313059E-02 -0.43263012E-03
 -0.39626789E-02 -0.35601587E-04  0.51287347E-02
 -0.27126504E-02  0.18018174E-02  0.40245512E-02
 -0.27891007E-02  0.20421567E-02  0.61050123E-03
 -0.13131429E-02  0.13160255E-02 -0.50255146E-02
  0.36950887E-02 -0.29046633E-02  0.39631072E-02
 -0.38243625E-03 -0.28176347E-02  0.23082010E-02
 -0.27743125E-02 -0.20117652E-02  0.11824267E-02
  0.44839521E-02  0.31998393E-03 -0.15351938E-02
  0.25822393E-02 -0.58981511E-03 -0.19138187E-02
 -0.91229198E-03  0.94811166E-03 -0.72206388E-03
 -0.10642414E-02  0.26613223E-02 -0.81883288E-03
  0.29590226E-02  0.11452265E-02  0.47648398E-02
  0.46610399E-02  0.11404517E-02 -0.21042804E-02
  0.15858361E-02  0.34057282E-02  0.12628391E-02
 -0.28014163E-03 -0.95119587E-03  0.24890836E-03
  0.73768546E-02 -0.28959992E-02 -0.23150128E-02
  0.59711771E-03 -0.23994101E-02 -0.30654009E-02
 -0.47522859E-03  0.16302781E-02  0.25725030E-02
 -0.25070364E-02 -0.52554873E-02  0.30535105E-03
 -0.39106489E-02  0.13679060E-02 -0.48693985E-02
  0.14219521E-02  0.31190503E-04 -0.38213024E-02
 -0.35060516E-02  0.49537558E-02  0.22237258E-02
 -0.31531637E-02 -0.17720995E-02 -0.31911250E-02
 -0.39473041E-02 -0.60783253E-02 -0.19840838E-02
 -0.15416218E-02  0.13458382E-02  0.11524439E-02
 -0.67729028E-02  0.22046283E-02  0.38501024E-02
  0.21330101E-03 -0.17193085E-02 -0.66226694E-03
 -0.11176359E-02  0.31375842E-02  0.16730032E-02
  0.10559340E-02 -0.14075651E-02  0.17001577E-02
  0.19934906E-02  0.12944572E-02  0.63714934E-02
 -0.14944239E-02 -0.29607993E-03 -0.16530582E-02
  0.23118753E-02 -0.98183598E-03 -0.15164841E-03
 -0.34103394E-03  0.19747343E-02 -0.38488683E-02
 -0.24401540E-02  0.29701532E-02  0.44976276E-02
 -0.14615862E-02  0.63719954E-03 -0.61258740E-04
  0.88548458E-03  0.48820634E-03 -0.13100472E-02
  0.40626465E-02 -0.49378492E-03  0.11522805E-02
 -0.20156179E-02  0.75477085E-03 -0.55622291E-02
  0.18873660E-02 -0.22681903E-02 -0.22880974E-02
  0.72625661E-03  0.27013503E-02 -0.10406145E-02
  0.15613452E-02 -0.32958377E-02 -0.44017093E-02
  0.53212371E-02 -0.75752195E-03  0.12142310E-02
  0.55515293E-02 -0.89510189E-03 -0.27317193E-02
 -0.44583463E-02  0.17181642E-02  0.25110220E-02
 -0.11979922E-02 -0.54058114E-03  0.17172716E-02
 -0.17579561E-02 -0.14780421E-02  0.46686620E-04
 -0.79663786E-03 -0.22781041E-02  0.12882239E-02
  0.25394532E-02 -0.46483020E-03 -0.97513766E-03
  0.13777969E-03 -0.71555345E-03 -0.27319090E-02
  0.11747869E-02 -0.25143618E-02 -0.12908851E-02
  0.13601608E-02 -0.13967189E-02  0.28175076E-02
 -0.83158528E-03 -0.22170087E-03 -0.34035486E-02
  0.44889323E-02 -0.50088577E-02  0.99202145E-03
  0.16741647E-02 -0.23221929E-02  0.35279840E-02
 -0.25922342E-02 -0.17555493E-02  0.16703944E-03
 -0.60041431E-02  0.17572850E-02  0.39224021E-03
 -0.12567072E-02  0.35995703E-02 -0.62991015E-03
  0.25479221E-02  0.13838801E-02 -0.48046204E-03
 -0.16716739E-02  0.11242749E-03 -0.28480985E-02
 -0.48964977E-02  0.24796736E-03 -0.29264494E-03
  0.16698781E-02  0.50641126E-03  0.15829736E-02
  0.48062764E-03 -0.18323697E-03 -0.21469862E-02
 -0.32296766E-03  0.43837603E-02 -0.31844653E-02
 -0.73878780E-04  0.29028074E-02 -0.10825180E-02
  0.11821676E-02 -0.20077794E-02  0.69647579E-03
 -0.62153503E-03 -0.92921614E-03  0.80523101E-04
  0.50101402E-02 -0.11966816E-02  0.31221107E-03
 -0.96178622E-03 -0.15195714E-02 -0.35434017E-02
  0.59996093E-03 -0.19943096E-02 -0.30828332E-02
 -0.23066924E-02 -0.15499292E-02 -0.28757437E-02
  0.12080091E-02  0.16484617E-02 -0.31953152E-03
  0.12545542E-02 -0.12772549E-02 -0.17250433E-02
 -0.21318796E-03  0.47191540E-02 -0.21555268E-02
 -0.49324512E-02  0.21138640E-02 -0.32928718E-03
 -0.19413471E-02 -0.40698004E-02  0.43075422E-02
 -0.59104731E-03  0.41279509E-02 -0.50016297E-02
  0.45903919E-04 -0.19782361E-02  0.29451775E-02
 -0.35516960E-02  0.12547310E-02 -0.21734777E-02
 -0.13354491E-02  0.16436450E-02  0.78498021E-03
  0.23195300E-02 -0.20062599E-02 -0.33813567E-02
  0.17331736E-02 -0.15110771E-02  0.50310599E-02
 -0.18647762E-03 -0.29625995E-03  0.29330592E-02
  0.23245440E-02 -0.11877836E-04  0.16376787E-02
  0.76056397E-03 -0.23937498E-02  0.36669076E-02
 -0.86232510E-03 -0.93411583E-03  0.19657909E-02
 -0.10106987E-02 -0.17881163E-02 -0.72793618E-03
  0.29856742E-02  0.12654559E-02 -0.13621225E-02
  0.28025982E-02 -0.42042162E-02  0.12250661E-02
 -0.20366181E-02  0.44222055E-03 -0.82001808E-03
  0.18936905E-02  0.58353868E-02  0.24226891E-02
 -0.58158892E-03 -0.31816212E-02  0.21855232E-02
  0.26132079E-02  0.79381886E-03  0.11992024E-02
  0.37354418E-02  0.18023000E-02 -0.37324358E-02
  0.33588544E-02  0.43387069E-02  0.66869683E-05
 
           1
   2.00000000000000     
  0.64195903E+00 -0.15090634E-02  0.00000000E+00  0.00000000E+00
  0.44365840E-02  0.99948419E+00  0.99646289E+00
  0.50754245E+00  0.47355133E+00  0.74969520E+00
  0.47472748E+00  0.48374335E+00  0.86901518E+00
  0.28733779E-01  0.82920348E-02  0.24102498E+00
  0.50100907E+00  0.99524905E+00  0.62094928E+00
  0.96527831E-02  0.49853895E+00  0.38665855E+00
  0.95955768E+00  0.49657681E+00  0.12969848E+00
  0.21535793E+00  0.24806836E+00  0.12231575E+00
  0.77249685E+00  0.72245650E+00  0.63739567E+00
  0.75104490E+00  0.25246598E+00  0.85573446E+00
  0.72679644E+00  0.79045849E+00  0.26507145E+00
  0.23356813E+00  0.45672382E+00  0.86284688E+00
  0.75857409E+00  0.27104271E-01  0.13038119E+00
  0.29450027E+00  0.78292970E+00  0.61463243E+00
  0.21588011E+00  0.96632649E-01  0.88243129E+00
  0.50487832E+00  0.45789119E+00  0.37533335E+00
  0.59711621E-02  0.99986675E+00  0.61946065E+00
  0.35268570E-01  0.46804552E+00  0.61805009E+00
  0.49367695E+00  0.98648085E+00  0.10896285E+00
  0.96877947E+00  0.52617906E+00  0.87533261E+00
  0.80014937E+00  0.99284044E+00  0.37555901E+00
  0.26841013E+00  0.23453705E+00  0.36639692E+00
  0.73939083E+00  0.75608351E+00  0.87575779E+00
  0.76863442E+00  0.25142921E+00  0.62897501E+00
  0.24571783E+00  0.99808201E+00  0.11160818E+00
  0.26905415E+00  0.25790739E+00  0.64739106E+00
  0.68838336E+00  0.77367872E+00  0.13151290E+00
  0.75434855E+00  0.25603882E+00  0.36998353E+00
  0.49121167E+00  0.74868942E+00  0.52039203E+00
  0.48625231E+00  0.22712971E+00  0.99294605E+00
  0.98879798E+00  0.13739094E-01  0.48452011E+00
  0.27135668E+00  0.75725520E+00  0.75335504E+00
  0.99065708E+00  0.52117540E+00  0.25077018E+00
  0.73523879E+00  0.23808288E+00  0.75066275E+00
  0.98702536E+00  0.93678683E+00  0.86887045E+00
  0.51262376E+00  0.44580980E+00  0.50120695E+00
  0.50389403E+00  0.50724215E+00  0.99626053E+00
  0.51068194E+00  0.26807310E+00  0.25636389E+00
  0.39946899E-01  0.70997466E+00  0.74745639E+00
  0.26121111E+00  0.76853687E+00  0.38901498E+00
  0.99438711E+00  0.74961126E+00  0.26461153E+00
  0.49136876E+00  0.22899520E+00  0.78476588E+00
  0.50267104E+00  0.78631807E+00  0.72730124E+00
  0.17640458E-02  0.28880414E+00  0.24645113E+00
  0.96437384E+00  0.26017056E+00  0.99935950E+00
  0.72018227E+00  0.70958183E+00  0.47889625E+00
  0.25549084E+00  0.75321793E+00  0.50595326E+00
  0.73364588E+00  0.25448009E+00  0.11228867E+00
  0.98148922E+00  0.95121853E+00  0.73074640E+00
  0.48050792E+00  0.53108348E+00  0.26079257E+00
  0.27187676E-01  0.46418895E+00  0.76063621E+00
  0.51752157E+00  0.67758974E-02  0.24875605E+00
  0.27629789E+00  0.25301302E+00  0.50500279E+00
  0.72932539E+00  0.80372826E+00  0.99415793E+00
  0.72665021E+00  0.20927021E+00  0.50546545E+00
  0.23087333E+00  0.75023088E+00  0.14035007E+00
  0.97357323E+00  0.49719888E+00  0.10071415E-01
  0.51328649E+00  0.46929680E+00  0.62742995E+00
  0.45070098E+00  0.51191487E+00  0.12471827E+00
  0.14491194E-01  0.25025610E+00  0.50810883E+00
  0.48804973E+00  0.85723483E+00  0.98339576E+00
  0.96848355E+00  0.70935910E+00  0.49438777E+00
  0.99541545E+00  0.74997643E+00  0.10587359E-01
  0.47734283E+00  0.10836525E+00  0.52073117E+00
  0.23782144E+00  0.25761401E+00  0.25173765E+00
  0.78940240E+00  0.72614431E+00  0.74321518E+00
  0.16083148E+00  0.20178849E-01  0.36069883E+00
  0.99848086E+00  0.19836369E+00  0.75926181E+00
  0.34450535E+00  0.76572281E+00  0.26701305E+00
  0.23700501E+00  0.24119399E+00  0.75996288E+00
  0.74919780E+00  0.27893204E+00  0.26873680E+00
  0.21187870E+00  0.74312523E+00  0.14344094E-01
  0.22382332E+00  0.50408727E+00  0.13119267E+00
  0.77363358E+00  0.98398038E+00  0.63328514E+00
  0.75338688E+00  0.51155070E-01  0.87726720E+00
  0.22377665E+00  0.50540839E+00  0.37547383E+00
  0.23914361E+00  0.70289757E+00  0.87366690E+00
  0.70295536E+00  0.83795747E+00  0.37303910E+00
  0.98681170E+00  0.32298624E-01  0.12429587E+00
  0.26498975E+00  0.52510110E+00  0.61955108E+00
  0.72458853E+00  0.49699109E+00  0.88160370E+00
  0.50820787E+00  0.26669092E-01  0.37558968E+00
  0.77583101E+00  0.49785150E+00  0.62537198E+00
  0.26936257E+00  0.24327209E+00  0.99805668E+00
  0.23772703E+00  0.25300170E-01  0.62134923E+00
  0.70738533E+00  0.53987713E+00  0.11436317E+00
  0.47246574E+00  0.99312763E+00  0.86966347E+00
  0.71784794E+00  0.48915065E+00  0.37399710E+00
  0.26841902E+00  0.98890936E+00  0.23833449E+00
  0.76510332E+00  0.47694944E+00  0.74939400E+00
  0.25263910E+00  0.98622805E+00  0.75539719E+00
  0.72845711E+00  0.52615554E+00  0.23829936E+00
  0.25602602E+00  0.98850062E+00  0.98575366E+00
  0.76109485E+00  0.46201826E+00  0.49625928E+00
  0.24949843E+00  0.99243148E+00  0.48956618E+00
  0.72832189E+00  0.52686354E+00  0.99742036E+00
  0.73749595E+00  0.99101239E+00  0.75112849E+00
  0.22993577E+00  0.49630483E+00  0.26000333E+00
  0.26791133E+00  0.50044011E+00  0.73813906E+00
  0.76043845E+00  0.41830891E-01  0.24294932E+00
  0.26970761E+00  0.49900761E+00  0.50538425E+00
  0.74262409E+00  0.33350416E-01  0.99933472E+00
  0.76178269E+00  0.94471650E+00  0.50764317E+00
  0.23838386E+00  0.49738016E+00  0.65523555E-02
  0.11312948E-01  0.28890482E+00  0.37491612E+00
  0.50762063E+00  0.73617748E+00  0.87178980E+00
  0.51502218E+00  0.24035032E+00  0.63333361E+00
  0.95966390E+00  0.76444381E+00  0.13201399E+00
  0.17979542E-04  0.25290315E+00  0.87786265E+00
  0.49912241E+00  0.72862795E+00  0.37337337E+00
  0.47696197E-02  0.72594628E+00  0.61660724E+00
  0.48657872E+00  0.25572577E+00  0.12531584E+00
  0.12633063E+00  0.39066651E+00  0.62050125E-01
  0.66838183E+00  0.84315750E+00  0.56986726E+00
  0.63656273E+00  0.11551165E+00  0.93926089E+00
  0.15505444E+00  0.60827371E+00  0.44885963E+00
  0.33351830E+00  0.40762423E+00  0.94842137E+00
  0.84746188E+00  0.84572852E+00  0.44440694E+00
  0.85572536E+00  0.13641454E+00  0.46228394E-01
  0.37211640E+00  0.60512697E+00  0.54940959E+00
  0.86601939E+00  0.13946090E+00  0.19422782E+00
  0.37484060E+00  0.61328987E+00  0.69070188E+00
  0.85695073E+00  0.91363988E+00  0.28425595E+00
  0.36227563E+00  0.39165052E+00  0.79351467E+00
  0.12882863E+00  0.61875925E+00  0.31341776E+00
  0.63847830E+00  0.97704243E-01  0.80811910E+00
  0.12711919E+00  0.40511026E+00  0.20194544E+00
  0.65397045E+00  0.89159752E+00  0.69126664E+00
  0.85579254E+00  0.61393920E+00  0.95180048E+00
  0.35486758E+00  0.10929450E+00  0.44011803E+00
  0.85583862E+00  0.35751159E+00  0.55353365E+00
  0.34565616E+00  0.90765681E+00  0.50281591E-01
  0.15204530E+00  0.10793261E+00  0.54312247E+00
  0.62541209E+00  0.63675914E+00  0.46704003E-01
  0.12840576E+00  0.87908042E+00  0.95552078E+00
  0.64781966E+00  0.37391106E+00  0.44212679E+00