Na88 Sn16 P8 Se96                       
   1.00000000000000     
    14.0793397336999995    0.0000000000000000    0.0000000000000000
     0.0000000000000000   14.0793397336999995    0.0000000000000000
     0.0000000000000000    0.0000000000000000   28.1586794673000007
   Na   Sn   P    Se
    88    16     8    96
Direct
  0.9446142864976612  0.0233624401165831  0.1077109327282535
  0.5830296584793048  0.4993802330789699  0.7661876206905018
  0.4884639177225770  0.5177920389873263  0.8902985851204411
  0.0242800577787347  0.0082570261156280  0.3893332032889279
  0.4964682675708700  0.0518435920430205  0.8663602086686957
  0.0031302142132451  0.4826185919490113  0.3806306041207656
  0.1773000531949717  0.5498895050642344  0.1148382916465956
  0.2463710630328776  0.2957977096162145  0.1153451280672585
  0.5929938352643941  0.7508134988704953  0.6403684580758598
  0.7749478662443805  0.2642382498587206  0.8917586296979730
  0.7265492119350179  0.7191223479124950  0.3869821424131406
  0.3101999229318336  0.2857453818456988  0.8396660845402167
  0.7961923700298759  0.2547371309981276  0.1259784515568102
  0.3307660537375134  0.7530542346076857  0.6289482420243909
  0.0312952227706861  0.9995013411710227  0.8727355322423396
  0.4704715425348864  0.4891700572280478  0.2452097142226368
  0.9848484984829474  0.9276253858986340  0.5472682578865644
  0.9618985773161058  0.4804964676758433  0.5837328755634587
  0.4800049518949497  0.9865147104081616  0.0998119087846008
  0.0103852890054425  0.4908161681549206  0.9012673190272043
  0.4809769990945110  0.0397488763152224  0.3830481011617723
  0.2107821224292792  0.2521034777010779  0.3783939271294400
  0.7866652962029923  0.7308756850225857  0.8626898087822608
  0.7545638050308574  0.5216788216635572  0.6436167649651195
  0.2279459844389954  0.7812637965504018  0.1308940991702023
  0.2797714281422393  0.2550853638793892  0.5826900044930557
  0.7477052470681148  0.7108212135038025  0.1557690863857444
  0.6960148109271296  0.2217840172463797  0.3746903739320422
  0.5028118480943953  0.8953175684260980  0.4793517661828331
  0.4764404536961924  0.2464244123418764  0.9962206481028958
  0.0200055782865309  0.7203680419817319  0.4590687578188848
  0.4654191787189755  0.7730998788978778  0.7555473683384231
  0.9571952917571963  0.7470279781982540  0.2465861497944913
  0.7992938106851085  0.3043888761414775  0.6226403612764713
  0.9591371030572734  0.8364470458279332  0.0106880283914032
  0.5093192663257230  0.2083925958575295  0.4813467349790017
  0.4801803840321859  0.7296034828065713  0.0150463078447448
  0.2461612264328022  0.2683171140349717  0.2504491161921058
  0.1061945499624600  0.8010415243895295  0.7255163548264026
  0.2790563207555092  0.7654062597134824  0.2649285612592811
  0.0162057613517404  0.9792161496652886  0.2490395255314498
  0.7214709651946400  0.2878339935831657  0.7180516013575911
  0.4818036302266923  0.0332827965937395  0.7075465552925680
  0.9463844642992936  0.5004521159445743  0.2477989445144486
  0.1773008197242328  0.2547632470660273  0.9753404991111113
  0.7253353614541804  0.6927846711613531  0.5221910299431305
  0.2995144595992120  0.7196704545286723  0.4979858543571750
  0.7054464422197733  0.2496734182454969  0.0250589174599915
  0.9623023561034784  0.0458144946027571  0.7534820922504941
  0.5056458174911889  0.1984361256894962  0.2549671973506663
  0.0803435179567312  0.4909898283627833  0.7297922829216160
  0.5460052433702830  0.9207390712117185  0.2360117111409906
  0.1989394881858730  0.2498694664238224  0.4764437756225461
  0.7553498043991738  0.7735598539141165  0.0128686290703421
  0.7691678954628023  0.1862262242851116  0.4705567968221143
  0.2095097404006981  0.7246995503427878  0.0082549365473670
  0.9811507044512165  0.1121729573983124  0.9894653716298549
  0.4993589104034915  0.5044331872201112  0.4909169369659361
  0.4931888968370594  0.4661069718048559  0.0350430790071550
  0.9764553272932673  0.1841332979586208  0.5134337891455516
  0.4719553441653802  0.9205675647878776  0.9757925566046253
  0.9920752210975009  0.4538278799511355  0.4798304329988299
  0.0194727389662160  0.5331326121624508  0.0181059595024107
  0.4802788381255887  0.9970721410117551  0.5921992297035902
  0.0192960651725585  0.2578505159789958  0.2333540472667562
  0.8412663596860421  0.7921258558990480  0.7252651015624971
  0.2345845742964510  0.5867451371824932  0.3593412192092633
  0.0747074680302380  0.2624435817820055  0.7423989021262190
  0.6172069212365726  0.6871704129682205  0.2802857034983117
  0.3736587870570897  0.2737972287343983  0.7254293581364146
  0.7129778215483830  0.2111131087562428  0.2351670826219066
  0.2594454859746339  0.7731280738080393  0.8687643245447948
  0.4506601904534205  0.4949064110549206  0.1333599082137512
  0.7322973303480881  0.9872851651639979  0.6518477041181888
  0.7477332886864593  0.9825245816360566  0.8687890053434671
  0.4873427125068308  0.4521136886582798  0.3685064048236528
  0.2420192126145740  0.5725761470954962  0.8627403213002299
  0.7536891272886015  0.9541317391053485  0.3747128820717792
  0.7040102936768458  0.9948100108891639  0.1498937374299951
  0.1309587410731526  0.5791278577753270  0.6076884885220949
  0.7430198245996196  0.5284860798191006  0.8734430038142651
  0.2611576933835354  0.0154693535691787  0.3816061841292394
  0.4184339489142475  0.4741629704237466  0.6185416110067877
  0.2382009733175705  0.0379363196834331  0.1194485649319368
  0.2205826888100831  0.9999194862236266  0.6315582024544993
  0.7371714582824846  0.4947598288517245  0.1150808945541826
  0.2896188434171741  0.9608566953671056  0.8758238044663242
  0.7015119478303875  0.4746977982294427  0.3702162614652598
  0.2561681198964684  0.0034390070448816  0.2518450319779296
  0.8091019511776318  0.5090326815504321  0.7629034022152000
  0.2697226158826409  0.0178982955107248  0.7497487261991048
  0.6978782161304985  0.4711295256401496  0.2566578017962398
  0.2323187301587337  0.9745226310936848  0.0047899141532528
  0.7505332331555296  0.4508224000907159  0.5029328082000605
  0.2017243934845884  0.0168851476140548  0.5012730030440028
  0.7629166834798541  0.4997808244112300  0.9864454831425510
  0.7313831594661974  0.0410570790868913  0.7564066471769915
  0.2172210245628382  0.5323204701874945  0.2460571605365895
  0.3231488381236240  0.5570367929827652  0.7382992144023868
  0.7809890297022964  0.9805822032504771  0.2606985950601085
  0.2575382302947556  0.4675522972997200  0.5039175631071543
  0.6927674712836545  0.0286897400929859  0.0102386708569244
  0.7228306332343848  0.9647580764627338  0.5112798242393422
  0.2538813932603958  0.4842323153516421  0.9880125288039909
  0.9552030635206277  0.2424789782995283  0.3566489262888398
  0.5190207525149215  0.7663239172854405  0.8827958275645014
  0.5125266764788620  0.2555997695455121  0.6082695757006056
  0.9764108198998227  0.7533141090660003  0.1270060101891041
  0.0534975682400716  0.2458637129220431  0.8673920087725409
  0.4708778196843812  0.7457890594539743  0.3806323984860986
  0.0033727531317929  0.7697156305652315  0.6243782756157418
  0.4753412058402462  0.2290196131731015  0.1294592625881752
  0.1542838515385849  0.4024001909592292  0.0469454406178121
  0.6198821369124663  0.8487739538042279  0.5584874742908797
  0.6252304293645701  0.1355998525118219  0.9499102485045240
  0.1578050217613016  0.5714425179975999  0.4456771075272157
  0.3435476333526664  0.3566687352260752  0.9429209160388061
  0.8304966308609386  0.8690685333669425  0.4630374927180934
  0.7762827575603520  0.1110496440704554  0.0810355648536467
  0.3567518353907871  0.5832562695686249  0.5496000390723721
  0.8545311067502268  0.0933927407932675  0.2020185647048017
  0.4417730364435037  0.6535458591752121  0.6813128512043918
  0.8965932157917906  0.8877440190483789  0.3120909060915690
  0.3930284096647124  0.4703111988086318  0.8063260892494707
  0.1117175362458761  0.6482119508327817  0.2884232912697000
  0.6624040322735869  0.1619982898883151  0.8123033823716909
  0.1300361858899384  0.3980854809555979  0.1936352807811914
  0.6492152662454733  0.9062851332722967  0.7218045635400570
  0.8635605807986850  0.6272526319305477  0.9538531075639199
  0.3250687115008847  0.1106839107784177  0.4502556530735228
  0.8702859228143647  0.3552361358130663  0.5361738933558832
  0.3407596012901832  0.8704668846222708  0.0577787316614940
  0.1157276281025133  0.1091086195632645  0.5659510288230186
  0.6480775084726523  0.6103078601018899  0.0451892603625397
  0.1310041256908799  0.8687691831046144  0.9437081330831546
  0.6514681600510340  0.3582190266818977  0.4491088822687985
  0.5934486825746387  0.3545436863202431  0.3074333302742153
  0.1749252461317228  0.9258820541166973  0.8019693229207796
  0.1668349549153210  0.1317688548455977  0.6986851038808284
  0.6083468733533016  0.5681241476163698  0.1906230689674233
  0.8796352136959409  0.3928678477451475  0.6924961754232944
  0.3616768152525815  0.9083205033959865  0.1933568484442005
  0.3732636259046393  0.1307796840255149  0.3094560215042138
  0.9257713598248193  0.5991723416742702  0.8124092781170120
  0.1173015529870790  0.0870267290010593  0.0488223676512390
  0.6548429559850417  0.5429722095603920  0.5656153763343750
  0.6414425721819771  0.4083826616082913  0.9376022893635938
  0.1232573867804547  0.8955469696139033  0.4434668299934703
  0.3572315421291739  0.0755718692515804  0.9545743070118489
  0.8370366676775254  0.5646444489768493  0.4400035349659350
  0.8667306707260366  0.4049038948270250  0.0395690188475088
  0.3108296089097400  0.9094432973677767  0.5481619702213856
  0.1678747472037224  0.1153548146310477  0.1839920284891504
  0.7195800662910763  0.6388766206906235  0.7306725720485485
  0.1608608275108908  0.9049974083507214  0.3074904592124054
  0.7159884592350496  0.3806907871494113  0.8038925327701365
  0.7938724672376481  0.5886919095659748  0.3053775456606910
  0.3834080193900615  0.1211345020710741  0.7920249582425155
  0.8049815144926130  0.3674533218129830  0.2062523001831371
  0.3408471680251834  0.8978848441196786  0.6949694071233961
  0.8368289644395160  0.9789235275351215  0.9667588863058223
  0.3628357990096039  0.3766449211419636  0.4439813223081344
  0.8217287863223666  0.0850839887790459  0.5546686948138833
  0.3441068867981089  0.6080707872917640  0.0401623585041507
  0.1233133499533186  0.3967480020424428  0.5574797489595910
  0.6055406259783102  0.8969720688817322  0.0484063000676638
  0.1457772275485286  0.6050319235981265  0.9362895496768421
  0.6342884395463229  0.0561062220559771  0.4496241728612600
  0.3044169476343751  0.4056421272374983  0.2991979714761808
  0.8716713544719777  0.9080341028229786  0.7994914661470562
  0.8481207959244804  0.1402752976851814  0.7068697393484692
  0.3217841862454431  0.6188223758059045  0.1875767020863919
  0.2423712807838381  0.4488254809869442  0.6786283121323048
  0.6987295278254004  0.8462847291576678  0.2205460429145972
  0.6376226874641399  0.0704250547415887  0.3052916239907528
  0.2142224172418397  0.6782118263417585  0.7715626501218464
  0.0784227308990368  0.1689704969455692  0.3183976688285586
  0.5926719145672529  0.6508779250896438  0.8375007836116949
  0.5766138569186453  0.3609757588386248  0.6531238069985366
  0.0838308133616483  0.8276896194101668  0.1744655487139198
  0.4005971636349813  0.1709583659057129  0.6439164021740877
  0.9340213941791298  0.6228037303872019  0.1692009877172685
  0.8830834972885483  0.3852141805237276  0.3273897545189202
  0.4333826694174468  0.8738952603999515  0.8407056801791917
  0.1714445390160791  0.1529590853024503  0.8927986439122193
  0.5457167854173264  0.6488631872761723  0.4324744656791369
  0.1450611654429922  0.8144493171391950  0.6162795633540530
  0.5769579736089950  0.3218779881296555  0.0951690785444889
  0.9644255613436581  0.6749209495372974  0.5561214028280616
  0.3812177238216916  0.1711323570079002  0.0740823190065277
  0.9769333444153492  0.2801777087137031  0.9361043668005499
  0.3557537938301006  0.8275734719911992  0.4174744047091190
  0.9065161849735105  0.8801311515510497  0.6440652706318741
  0.4141340668113789  0.3254050057621832  0.1784752371201725
  0.9530031059360279  0.1787032118877883  0.8222692277653298
  0.4367468688316995  0.6488979626029829  0.3202665031668788
  0.1261183161611217  0.3628282851140227  0.8383185687818201
  0.5773774588466126  0.8364492813786779  0.3440661079134795
  0.9738782594257304  0.6760972542510172  0.6794056825296395
  0.5612237045046982  0.1346857187520898  0.1744285643787114
  0.4302064114705055  0.3333464251416072  0.5491478877145242
  0.8453213158525859  0.8349114801808067  0.0995318537506965
  0.8643725819901905  0.1253402773094571  0.3850498066342732
  0.4224324680013086  0.6830674382243427  0.9241211153086125
  0.0344345387463798  0.3006627190364802  0.4210548799575864
  0.6282677389669216  0.8197570768754935  0.9263922646633923
  0.6399275333837033  0.1542865391823017  0.5976538371678926
  0.0684552398290504  0.7157295278014593  0.0700101028884392
 
 -0.67908836E-02  0.75929177E-02 -0.26873013E-02
 -0.52392117E-03  0.36827523E-02  0.18423679E-02
  0.30608242E-02  0.43676743E-02  0.59102642E-02
 -0.25211836E-03  0.54718800E-03  0.91519052E-04
  0.78087102E-02 -0.16302234E-02 -0.91558192E-02
 -0.41080236E-02 -0.53054128E-02  0.66986244E-02
 -0.60594777E-02  0.10055150E-01 -0.66417771E-02
 -0.16784250E-03 -0.72655452E-03 -0.37748988E-02
 -0.20814526E-02 -0.54169516E-02  0.29293667E-02
  0.33532812E-02  0.66146282E-03 -0.95585819E-03
  0.66029083E-02 -0.90543380E-03 -0.22276698E-02
 -0.26713239E-02 -0.33322658E-02  0.54848315E-02
 -0.45118999E-02  0.66628804E-03  0.42266833E-02
  0.25883731E-02  0.72643415E-02  0.27014263E-02
  0.64370270E-03  0.97072627E-02 -0.57416674E-04
 -0.99083259E-03  0.41528505E-02  0.25322770E-02
 -0.46458905E-02 -0.35585637E-02  0.40104856E-02
 -0.40522983E-02  0.58811668E-02  0.20937788E-03
  0.60005864E-03  0.28909668E-02  0.23032956E-02
  0.59524967E-02 -0.77815566E-02  0.44422110E-03
 -0.25845753E-02  0.20753107E-02  0.24420275E-02
 -0.84544483E-02  0.68907221E-02 -0.68366025E-02
  0.39874134E-02 -0.32237571E-03 -0.16410133E-01
 -0.13229507E-02  0.11184800E-01 -0.74625274E-02
  0.59826506E-03  0.44176808E-02  0.23803079E-02
  0.63773311E-02  0.16375593E-02 -0.99027483E-02
  0.33508271E-02 -0.69974158E-02 -0.23906893E-02
  0.11374912E-02 -0.34271125E-03  0.32253935E-02
  0.11965528E-01 -0.82944751E-03  0.55302370E-02
 -0.56200585E-02  0.47438110E-02 -0.34353192E-02
  0.11194066E-01  0.75083703E-02 -0.62221977E-02
  0.95904625E-03 -0.30897266E-02  0.79350582E-03
  0.12576977E-03  0.82048335E-03 -0.15916302E-02
  0.88835745E-03  0.15499362E-01  0.29368017E-03
 -0.43648961E-03 -0.68426535E-02 -0.33214430E-02
 -0.19773391E-02 -0.56986199E-03  0.16688724E-02
 -0.27411794E-02 -0.38552898E-02 -0.97976263E-04
 -0.71543924E-02  0.16561904E-02 -0.11761399E-02
  0.76246403E-02 -0.90587471E-03 -0.83927438E-02
 -0.42172084E-02 -0.76240893E-02 -0.32339857E-02
  0.38426161E-03  0.19651868E-02  0.46402231E-02
  0.39578554E-02  0.21023365E-02  0.29106527E-02
 -0.38886808E-02  0.10214131E-01  0.51444168E-02
  0.10041793E-01  0.33529241E-02  0.38669789E-02
  0.32706326E-02 -0.91957656E-02 -0.10920895E-02
  0.11287169E-01 -0.95517051E-03 -0.51173924E-02
  0.41926824E-04  0.58139369E-02  0.98190301E-02
  0.46453495E-02 -0.10117997E-02  0.33829058E-02
  0.19302129E-02 -0.12936641E-01  0.70482366E-02
  0.38793703E-03  0.31264918E-02 -0.80280448E-02
 -0.94951271E-02 -0.10638287E-01 -0.14966716E-02
 -0.92342257E-02 -0.52738836E-02  0.13480038E-01
  0.13541027E-02  0.86167647E-02  0.93103871E-02
 -0.81920732E-02  0.20029251E-02 -0.13266858E-01
  0.81343820E-02 -0.40294813E-02 -0.23160332E-02
  0.12165572E-02  0.44095373E-02 -0.30121799E-02
  0.24262791E-02  0.49070534E-02  0.78129866E-02
 -0.84426145E-02  0.61675191E-02 -0.11960210E-02
  0.35981465E-03  0.10740685E-02  0.22050766E-02
  0.53394651E-02  0.37881942E-02  0.76907433E-02
  0.48407560E-02  0.18533010E-02 -0.40576368E-02
 -0.86355486E-02  0.59477557E-02 -0.28854350E-02
  0.17724593E-02  0.57206149E-03  0.41251127E-02
  0.95577062E-02 -0.13550262E-01  0.68611989E-03
  0.31687396E-03  0.74192765E-02 -0.25381212E-02
  0.68958534E-03 -0.22757598E-02 -0.44113991E-02
 -0.63818180E-02 -0.20943993E-02 -0.38894362E-02
 -0.70125642E-02 -0.20608626E-02 -0.29891133E-02
 -0.19830451E-03  0.29656032E-02  0.13579346E-02
  0.75562986E-02  0.54680215E-02 -0.31982282E-02
 -0.50436981E-02  0.82982211E-02 -0.42609221E-02
 -0.26385642E-02 -0.59125897E-02  0.25807028E-02
 -0.41083936E-02  0.18885816E-02 -0.80071021E-03
  0.64381140E-02  0.12112365E-02  0.42683525E-02
  0.64053335E-02 -0.28352321E-02  0.91716750E-02
 -0.50517054E-02 -0.36630306E-02  0.19044706E-02
  0.34786290E-02  0.91703561E-02 -0.40148076E-02
 -0.41956124E-02 -0.10520272E-01  0.67697825E-02
 -0.53123035E-02  0.57737036E-02 -0.17659046E-02
  0.33860416E-03  0.38064250E-02 -0.84504954E-03
 -0.99343301E-02  0.60777198E-02  0.66253714E-02
 -0.50656207E-03  0.88973727E-03 -0.12326906E-01
  0.54849135E-02  0.79037162E-02 -0.14436453E-02
 -0.53088650E-02  0.36834457E-02 -0.48607381E-02
  0.41245020E-02  0.15333084E-01  0.44430585E-02
 -0.94017584E-02 -0.20002507E-02  0.69169074E-02
  0.18523956E-02 -0.51580141E-02 -0.25522440E-02
  0.45636973E-02  0.72183929E-02  0.62637815E-02
  0.16689906E-02 -0.28998106E-02 -0.20513756E-02
  0.16247042E-02 -0.32131049E-02 -0.38194320E-03
 -0.39758582E-02  0.37735459E-02 -0.41522126E-02
  0.29049975E-02  0.71180499E-03 -0.18164437E-02
  0.22929116E-02  0.19622894E-02 -0.26747946E-02
 -0.12936734E-02  0.16122610E-02 -0.10392443E-02
 -0.23854187E-02 -0.48744411E-02  0.16631199E-02
 -0.23794487E-02  0.97263150E-03 -0.41843994E-02
  0.44796012E-02 -0.18842785E-03  0.45478027E-02
 -0.37729259E-03 -0.55685806E-03 -0.66236780E-04
 -0.85769755E-03  0.16625804E-02  0.15901963E-02
  0.78444216E-03  0.73180376E-03  0.16432663E-02
  0.56833042E-04 -0.17803073E-02  0.23165518E-02
  0.17949740E-02 -0.85517866E-03  0.58011315E-03
 -0.70562591E-03  0.15005419E-03  0.23522057E-02
  0.15844222E-02  0.10384461E-02  0.79206850E-03
  0.35184794E-02 -0.37706297E-02  0.49805374E-02
 -0.69464951E-02  0.19689654E-03  0.41030011E-02
 -0.63800938E-02 -0.51257652E-02 -0.29417414E-02
 -0.18785830E-02  0.28447316E-02 -0.18977458E-02
  0.22983940E-02  0.68028812E-02  0.56802215E-02
 -0.63924605E-02  0.98729349E-03  0.95784936E-02
  0.63529262E-02  0.12126438E-02 -0.22091561E-02
  0.65823833E-03  0.40743033E-02  0.54817364E-02
  0.11969822E-02 -0.43619875E-02 -0.35844535E-02
  0.25124607E-02 -0.31224498E-02  0.10356148E-02
  0.23312553E-02  0.15326673E-02 -0.51938049E-02
  0.96292561E-03 -0.23957971E-03  0.60568292E-02
 -0.16204815E-02 -0.19466869E-02  0.85998701E-03
 -0.28840931E-02  0.15381672E-02 -0.46112757E-02
 -0.15219787E-02 -0.76650431E-02 -0.70285222E-03
 -0.89268338E-03  0.85975806E-03  0.38907719E-02
  0.44978052E-02  0.18015333E-02 -0.14781681E-02
 -0.40558505E-03 -0.60361808E-02  0.48132232E-02
  0.28219369E-02 -0.27153310E-02 -0.47106785E-03
 -0.16907962E-02  0.20160761E-02  0.29235055E-02
 -0.29005796E-03  0.48023556E-03  0.53493879E-03
 -0.92534732E-03  0.15984523E-02  0.14791155E-02
 -0.11907884E-02  0.21169748E-02  0.71285715E-02
  0.20525020E-02  0.31733717E-02  0.12518105E-02
 -0.22249354E-02  0.41109171E-02  0.42811838E-02
  0.13046265E-02 -0.34451784E-02  0.37192692E-03
 -0.34134726E-02  0.10756717E-02 -0.92219219E-03
 -0.16854859E-02 -0.74165623E-03 -0.70180343E-02
 -0.40300494E-02 -0.92389873E-03  0.26723419E-02
  0.16635954E-02  0.25805221E-03  0.28525753E-02
  0.17417899E-03  0.97711517E-03  0.22617440E-02
  0.30840789E-02 -0.10931781E-02  0.24600485E-04
  0.56834814E-02 -0.63322561E-03 -0.11395296E-02
 -0.16196424E-02 -0.42826733E-03 -0.37581297E-02
 -0.93572902E-03  0.11540281E-02 -0.51481300E-02
  0.37345078E-03 -0.64141130E-02 -0.14825150E-02
  0.42622209E-03 -0.10715341E-02 -0.22862791E-03
  0.41293012E-02 -0.18313764E-02  0.21381091E-02
  0.24340362E-02 -0.19255986E-02 -0.53988044E-02
  0.34882150E-02  0.42753244E-02  0.20937217E-02
 -0.42426836E-02 -0.44104768E-02 -0.89994118E-03
 -0.52878418E-02 -0.58904790E-02 -0.19740180E-02
  0.48558563E-02 -0.25702233E-02  0.48465164E-02
  0.40588749E-03 -0.36413871E-03  0.37909692E-03
 -0.32855662E-02 -0.53335731E-02 -0.33138339E-02
  0.32005818E-03 -0.65179688E-02 -0.15525137E-02
  0.11413205E-02  0.13593831E-02 -0.27988327E-02
 -0.23546712E-02  0.48367808E-03 -0.28531378E-02
 -0.54797509E-03 -0.38335952E-02 -0.16880696E-02
  0.14826992E-02  0.35017392E-02  0.60379864E-02
 -0.54510352E-02  0.18852154E-02  0.85527875E-03
  0.48771915E-02 -0.37994230E-02  0.32377000E-02
 -0.88897762E-04 -0.69853478E-03 -0.41324335E-02
  0.19704386E-03  0.52078101E-02  0.15738613E-02
 -0.28829805E-02 -0.13784332E-02 -0.23223965E-03
 -0.44530943E-02  0.53234431E-03 -0.79632012E-03
 -0.40079270E-02  0.50205239E-02 -0.55261891E-02
  0.65954039E-02 -0.25014588E-02  0.45162349E-02
 -0.30918370E-02  0.26421966E-02 -0.72284050E-02
 -0.37159221E-02 -0.22769102E-02 -0.66569981E-02
 -0.10046763E-02  0.13510799E-02 -0.38107195E-02
 -0.40476409E-02 -0.48713819E-02  0.21651756E-02
 -0.23607144E-02  0.65174385E-02  0.18291890E-02
 -0.15153810E-02 -0.22349122E-02  0.52148172E-02
 -0.41471984E-02 -0.17599325E-02 -0.30420341E-02
  0.46700973E-02  0.35869065E-02 -0.39944997E-02
  0.11971604E-02 -0.34027407E-02 -0.12460749E-02
 -0.14519144E-03  0.44606957E-02 -0.26541355E-02
 -0.26727603E-02  0.23816934E-02  0.32591214E-02
 -0.37171399E-03  0.47762325E-02 -0.91857900E-03
  0.54003709E-02 -0.13615694E-02 -0.39255257E-02
  0.86141233E-03  0.31643730E-03 -0.16668288E-02
 -0.89008440E-03 -0.16041393E-03 -0.10622542E-02
 -0.40367751E-02 -0.29106361E-02 -0.24191274E-02
 -0.31882204E-02  0.41786431E-02  0.36665397E-02
  0.39981416E-02 -0.15241483E-02 -0.14982667E-02
  0.89872833E-03 -0.12904555E-02 -0.31207640E-03
 -0.39770528E-02 -0.19564007E-02  0.77441686E-03
  0.19205662E-02  0.32420680E-02 -0.51089875E-02
  0.57394176E-03 -0.11208627E-02 -0.44805301E-03
 -0.20027266E-02 -0.36789841E-02  0.37600601E-02
  0.21059712E-02  0.22102382E-02  0.25351619E-02
 -0.37411735E-02  0.16638110E-02 -0.28193125E-02
  0.42090703E-02 -0.42263006E-02  0.32437906E-02
 -0.18890006E-02 -0.41341958E-02 -0.11543725E-02
 -0.13696135E-02  0.37234906E-02  0.25042064E-04
  0.49566079E-02  0.39119598E-02  0.27629467E-02
 -0.15400481E-02  0.51506533E-02 -0.47704611E-02
  0.39885383E-02  0.13869925E-02 -0.23871681E-02
  0.28075536E-02 -0.67647519E-03  0.82294741E-03
  0.10457161E-04 -0.31793129E-02 -0.27121939E-02
 -0.39237156E-02 -0.39027076E-02 -0.43961325E-04
  0.22634286E-02  0.30125648E-02  0.49017613E-03
  0.12120963E-03 -0.17038140E-02  0.42888246E-02
  0.55858357E-02 -0.49106320E-02  0.35611377E-02
  0.33943477E-02  0.39892970E-02  0.80099196E-02
  0.46071845E-02 -0.32239125E-02  0.36214384E-03
 -0.81731030E-03  0.31665677E-02  0.17435889E-02
  0.88079571E-03 -0.19140091E-02 -0.60467561E-03
 -0.56579980E-02 -0.17352751E-02 -0.45507577E-02
 -0.65205545E-03 -0.10489974E-02 -0.25751732E-02
 -0.19574802E-02  0.40508210E-03  0.76463788E-02
 -0.91482937E-03  0.25846223E-02  0.21997196E-02
 -0.22439038E-02 -0.15536515E-02  0.48551269E-03
 
           1
   2.00000000000000     
  0.50886798E+00  0.12941890E-02  0.00000000E+00  0.00000000E+00
  0.94364963E+00  0.24441030E-01  0.10752006E+00
  0.58295523E+00  0.49990338E+00  0.76631848E+00
  0.48889871E+00  0.51841248E+00  0.89071837E+00
  0.24244244E-01  0.83347553E-02  0.38933970E+00
  0.49757751E+00  0.51612015E-01  0.86570991E+00
  0.25466608E-02  0.48186495E+00  0.38110638E+00
  0.17643929E+00  0.55131786E+00  0.11436655E+00
  0.24634722E+00  0.29569450E+00  0.11507701E+00
  0.59269816E+00  0.75004401E+00  0.64057652E+00
  0.77542421E+00  0.26433221E+00  0.89169074E+00
  0.72748717E+00  0.71899373E+00  0.38682392E+00
  0.30982046E+00  0.28527203E+00  0.84005565E+00
  0.79555145E+00  0.25483178E+00  0.12627866E+00
  0.33113374E+00  0.75408615E+00  0.62914011E+00
  0.31386662E-01  0.88027837E-03  0.87273145E+00
  0.47033079E+00  0.48975998E+00  0.24538957E+00
  0.98418854E+00  0.92711988E+00  0.54755311E+00
  0.96132294E+00  0.48133190E+00  0.58374775E+00
  0.48009019E+00  0.98692538E+00  0.99975503E-01
  0.11230854E-01  0.48971078E+00  0.90129887E+00
  0.48060985E+00  0.40043679E-01  0.38322155E+00
  0.20958115E+00  0.25308232E+00  0.37790835E+00
  0.78723172E+00  0.73082989E+00  0.86152426E+00
  0.75437588E+00  0.52326765E+00  0.64308673E+00
  0.22803097E+00  0.78189134E+00  0.13106316E+00
  0.28067734E+00  0.25531798E+00  0.58198665E+00
  0.74818124E+00  0.70982722E+00  0.15559929E+00
  0.69617639E+00  0.22173533E+00  0.37491946E+00
  0.50451158E+00  0.89519974E+00  0.47974456E+00
  0.47564211E+00  0.24709828E+00  0.99597665E+00
  0.21595719E-01  0.72143462E+00  0.45862682E+00
  0.46555541E+00  0.77266098E+00  0.75560373E+00
  0.95721316E+00  0.74714453E+00  0.24647310E+00
  0.79942000E+00  0.30659059E+00  0.62266122E+00
  0.95907510E+00  0.83547503E+00  0.10452119E-01
  0.50903838E+00  0.20831165E+00  0.48146527E+00
  0.47979099E+00  0.72905583E+00  0.15039349E-01
  0.24514493E+00  0.26855238E+00  0.25036558E+00
  0.10727765E+00  0.80091284E+00  0.72492025E+00
  0.27845726E+00  0.76432324E+00  0.26469886E+00
  0.16260347E-01  0.97949531E+00  0.24936910E+00
  0.72203319E+00  0.28813263E+00  0.71825833E+00
  0.48125123E+00  0.34733736E-01  0.70791194E+00
  0.94781092E+00  0.50092841E+00  0.24807360E+00
  0.17776542E+00  0.25345697E+00  0.97526293E+00
  0.72693873E+00  0.69264899E+00  0.52182756E+00
  0.29952042E+00  0.72049634E+00  0.49868326E+00
  0.70610632E+00  0.24952969E+00  0.25299192E-01
  0.96257655E+00  0.43976817E-01  0.75398270E+00
  0.50570092E+00  0.19888025E+00  0.25439700E+00
  0.78994715E-01  0.48947864E+00  0.72968598E+00
  0.54469350E+00  0.91998990E+00  0.23696915E+00
  0.19913184E+00  0.25109350E+00  0.47710506E+00
  0.75418610E+00  0.77384437E+00  0.11926336E-01
  0.77032340E+00  0.18565383E+00  0.47039230E+00
  0.20968255E+00  0.72532593E+00  0.80409933E-02
  0.98149536E+00  0.11287001E+00  0.99002030E+00
  0.49815962E+00  0.50530930E+00  0.49083199E+00
  0.49324001E+00  0.46625955E+00  0.35199697E-01
  0.97721381E+00  0.18467142E+00  0.51398003E+00
  0.47264298E+00  0.92083083E+00  0.97550436E+00
  0.99084852E+00  0.45467277E+00  0.47962549E+00
  0.19724521E-01  0.53321387E+00  0.18398950E-01
  0.48163653E+00  0.99514730E+00  0.59224796E+00
  0.19341078E-01  0.25890444E+00  0.23317377E+00
  0.84136432E+00  0.79180258E+00  0.72495178E+00
  0.23367802E+00  0.58644762E+00  0.35906497E+00
  0.73711318E-01  0.26215083E+00  0.74218660E+00
  0.61717875E+00  0.68759168E+00  0.28038215E+00
  0.37473218E+00  0.27457397E+00  0.72520220E+00
  0.71226135E+00  0.21229189E+00  0.23486445E+00
  0.25907067E+00  0.77228818E+00  0.86894762E+00
  0.45007658E+00  0.49517469E+00  0.13330304E+00
  0.73321188E+00  0.98745722E+00  0.65215087E+00
  0.74864318E+00  0.98212183E+00  0.86944043E+00
  0.48662511E+00  0.45159335E+00  0.36864167E+00
  0.24251336E+00  0.57387882E+00  0.86245517E+00
  0.75309313E+00  0.95263731E+00  0.37519371E+00
  0.70325567E+00  0.99563018E+00  0.14976831E+00
  0.13100684E+00  0.57966857E+00  0.60762847E+00
  0.74160863E+00  0.52934943E+00  0.87391358E+00
  0.26108574E+00  0.15595743E-01  0.38073065E+00
  0.41921309E+00  0.47528571E+00  0.61843907E+00
  0.23744684E+00  0.38459561E-01  0.11910333E+00
  0.22116858E+00  0.20975832E-02  0.63187378E+00
  0.73583592E+00  0.49447569E+00  0.11557218E+00
  0.28988198E+00  0.96012399E+00  0.87564253E+00
  0.70216023E+00  0.47572319E+00  0.37066115E+00
  0.25640520E+00  0.30270828E-02  0.25169933E+00
  0.80933274E+00  0.50857625E+00  0.76287627E+00
  0.26915784E+00  0.18434336E-01  0.74945381E+00
  0.69829088E+00  0.47123064E+00  0.25652879E+00
  0.23264444E+00  0.97480138E+00  0.45999340E-02
  0.75034946E+00  0.45105143E+00  0.50285899E+00
  0.20138554E+00  0.16192723E-01  0.50139113E+00
  0.76257868E+00  0.49991899E+00  0.98614828E+00
  0.73201950E+00  0.41030313E-01  0.75672966E+00
  0.21716743E+00  0.53224137E+00  0.24605246E+00
  0.32302700E+00  0.55727297E+00  0.73841216E+00
  0.78110046E+00  0.98068616E+00  0.26081531E+00
  0.25754630E+00  0.46729940E+00  0.50408210E+00
  0.69302245E+00  0.28568260E-01  0.10279874E-01
  0.72273040E+00  0.96477939E+00  0.51144689E+00
  0.25410646E+00  0.48437983E+00  0.98806879E+00
  0.95570287E+00  0.24194335E+00  0.35700267E+00
  0.51803399E+00  0.76635189E+00  0.88308725E+00
  0.51162037E+00  0.25487164E+00  0.60806064E+00
  0.97614396E+00  0.75371821E+00  0.12687122E+00
  0.53824060E-01  0.24683008E+00  0.86779545E+00
  0.46996976E+00  0.74592931E+00  0.38131272E+00
  0.42751997E-02  0.76988789E+00  0.62422137E+00
  0.47543471E+00  0.22959838E+00  0.12984861E+00
  0.15445389E+00  0.40178056E+00  0.46690851E-01
  0.62023904E+00  0.84833040E+00  0.55856103E+00
  0.62556159E+00  0.13581757E+00  0.94954135E+00
  0.15794181E+00  0.57140849E+00  0.44610730E+00
  0.34331744E+00  0.35639220E+00  0.94298200E+00
  0.83008694E+00  0.86928703E+00  0.46270997E+00
  0.77606656E+00  0.10996081E+00  0.80985644E-01
  0.35662503E+00  0.58337840E+00  0.54987639E+00
  0.85517003E+00  0.93648652E-01  0.20191358E+00
  0.44171542E+00  0.65268841E+00  0.68165472E+00
  0.89699408E+00  0.88735830E+00  0.31205745E+00
  0.39278823E+00  0.47059759E+00  0.80653373E+00
  0.11167633E+00  0.64828017E+00  0.28846129E+00
  0.66227258E+00  0.16222535E+00  0.81240844E+00
  0.12986703E+00  0.39838620E+00  0.19414160E+00
  0.64950683E+00  0.90673592E+00  0.72189347E+00
  0.86324452E+00  0.62783660E+00  0.95415718E+00
  0.32525404E+00  0.11019452E+00  0.45028207E+00
  0.86980103E+00  0.35538894E+00  0.53610839E+00
  0.34052017E+00  0.87036153E+00  0.57280268E-01
  0.11515515E+00  0.10897738E+00  0.56614083E+00
  0.64831383E+00  0.61034452E+00  0.45391868E-01
  0.13102887E+00  0.86890798E+00  0.94386878E+00
  0.65190626E+00  0.35806374E+00  0.44911063E+00