Na88 Ge16 P8 Se96                       
   1.00000000000000     
    13.9614333504000001    0.0000000000000000    0.0000000000000000
     0.0000000000000000   13.9614333504000001    0.0000000000000000
     0.0000000000000000    0.0000000000000000   27.9228667008000002
   Na   Ge   P    Se
    88    16     8    96
Direct
  0.9921207011933796  0.7544348381189067  0.9885872022568487
  0.4998858129670288  0.5156857143020345  0.5188614712454255
  0.5010917024841881  0.4765413826800082  0.0223073624034888
  0.9803686814126626  0.0123969447072474  0.2480435363083053
  0.2613612134731835  0.7450347968853196  0.8750454560009162
  0.0119814673099362  0.5076557138370678  0.4874533032454429
  0.0049376876375459  0.5019039974566674  0.1267154789672553
  0.2567329126928849  0.2119326011255485  0.1558226770373714
  0.7842186497682297  0.7087832702917327  0.6300405701301861
  0.7423550698871931  0.2375607460978490  0.8561564945235562
  0.7290707382576493  0.6814866354934274  0.3803021300908426
  0.2802365833321329  0.2368889247726682  0.8745804005423582
  0.7558527298159452  0.9930057285354218  0.1180564026009733
  0.2466958519493828  0.7462266108529716  0.6393161944829252
  0.1438203492495072  0.0077465720405733  0.8902712944555731
  0.2064866231063204  0.4758903541664533  0.3811858359662034
  0.2208105586669085  0.9970115579558392  0.6376796300120946
  0.0164684486917974  0.4725637128135534  0.6146001555731383
  0.5234683519633597  0.9939999416447306  0.1243936788545280
  0.9716993964376655  0.4846137573747981  0.8885150942591947
  0.5137589661680946  0.9912066293223137  0.3842567266909934
  0.2034214775832175  0.2204660640474349  0.3043428461594823
  0.6453143092480700  0.7698161895889862  0.7541993859154249
  0.7879274707431067  0.2450272708936161  0.6043113995232180
  0.3024410105304374  0.7362211897125929  0.1171592741719860
  0.2274159562165708  0.2626194147390981  0.7531280772695949
  0.7678930990839687  0.7515728144936028  0.0055673937408552
  0.8004978527298843  0.4244098399167683  0.3876364904510132
  0.4945438206252428  0.8040931110651380  0.5256829064892792
  0.4954730327455845  0.0503364125580842  0.0131321323281877
  0.9977405216880634  0.7965219901077569  0.4868678993432063
  0.4973792622737592  0.4960887396587040  0.7579742907722337
  0.9886991683578735  0.7613065370460640  0.2763621503086190
  0.4918449453289138  0.2530181341898000  0.7592950727897726
  0.9987436822440710  0.0320181143003752  0.9818498057549014
  0.4986765782553358  0.0179127354867785  0.5017712638507613
  0.5255968205021359  0.7456166779902990  0.9954354161512556
  0.5126156842748291  0.2403948027063638  0.2829829567543605
  0.9924680974624212  0.9638636070540209  0.7362384743548970
  0.5039119772099828  0.7591639681150076  0.2451248172388509
  0.9847381048489073  0.0207628936942133  0.1179771128233533
  0.5101147495034881  0.5665513585908623  0.6354492977307699
  0.4732964163021344  0.0154584967978416  0.7428589201032502
  0.9926911990130124  0.4610749205915008  0.2613836473916457
  0.2873939604390120  0.2416943811085806  0.0270411544743932
  0.7196708038648043  0.7347442702933304  0.5009224107788698
  0.2478534873303009  0.7945646629534174  0.5067979734174438
  0.7305520017585538  0.2423477608719498  0.0016592530427385
  0.9720563586146296  0.0082138386389535  0.5876691904693659
  0.4764658181521821  0.5015617554369738  0.2699461061660563
  0.0126492293924973  0.4814539933056411  0.7457636407480320
  0.4943623258387474  0.0106361165476915  0.2493060013431337
  0.2571499813639639  0.3002603609414458  0.4772741469346116
  0.7656831585909684  0.7507553861407081  0.8647336649525655
  0.7676486268232700  0.2571971545587645  0.4738573305964261
  0.2522587191174475  0.7340710288316243  0.0073646391967382
  0.9990149028374884  0.2450952216092509  0.0062655098542652
  0.4836401241125187  0.2402874824150237  0.4961205700655193
  0.4984590776187429  0.4861173886370644  0.1443128704002500
  0.9857912068715585  0.0271221733095558  0.3685131300200903
  0.5034342068637702  0.0254886188821594  0.8736506783974634
  0.0333107661732232  0.1449406590251935  0.4914399400941873
  0.0111541786179934  0.5293364872767669  0.0087823965430651
  0.4403378809173035  0.0090567082182032  0.6306092067539116
  0.7934015725879078  0.2809000913785175  0.1381217049888944
  0.0149782036946448  0.7264948614662193  0.7640448706452970
  0.2343568505434358  0.7362713339248215  0.2475381504273500
  0.7267562217369535  0.2595575661310749  0.7352673414123597
  0.7422244718992678  0.7550386399839493  0.2551144300069059
  0.9792438305504004  0.2379550598793965  0.7628403918495754
  0.7655623934066088  0.2706002026502974  0.2706368239594475
  0.2737453796548049  0.7430790655569305  0.7547367555608792
  0.2713083676587066  0.4725363387519933  0.1265152582448623
  0.7646837053717804  0.9884263253043037  0.6233398741850936
  0.7644108030997221  0.9734169518515017  0.8691602942480747
  0.2468117704102298  0.7489020042524054  0.3901130531010640
  0.5221396094147128  0.4853960471417916  0.8825048184093608
  0.7826719294771658  0.1059334109752366  0.3705269898483146
  0.7198041244184272  0.7540551387490823  0.1354373608840200
  0.2747194374696479  0.5027068302783433  0.6191052607191119
  0.7269762521975029  0.5440991639417178  0.8723485467702725
  0.2431658840605673  0.0146086356873911  0.3841276317169428
  0.7500160434185962  0.4741299458405769  0.6413923781141325
  0.2879764600930416  0.9694174135142618  0.1384480783776279
  0.2380757477758617  0.2621407067795721  0.6207327831527077
  0.7105808934423071  0.4955248662793633  0.1168586919493764
  0.2520057822601295  0.4851090198429089  0.8746129789490440
  0.5154068164074632  0.4947073729024233  0.4105948506612454
  0.2510994094340999  0.9933607077194828  0.2650446662912184
  0.7624641612975975  0.4851152749147893  0.7547184531475315
  0.2426006557943493  0.9795304140115512  0.7534502717478223
  0.7364987060086866  0.5076199376612169  0.2650739911978629
  0.2660608082188917  0.9930449652641153  0.0002933172476275
  0.7630795112486484  0.5065736264345464  0.5131633028402073
  0.2387978628284858  0.0514236223814064  0.5082440479997703
  0.7573859858789549  0.5237052689543961  0.9985663645999541
  0.7188566178205259  0.9992177614040963  0.7371895749141846
  0.2344828457669067  0.4817404883588322  0.2511515308908664
  0.2560346849556682  0.4926008124149968  0.7440824640308714
  0.7388184463752998  0.9965795894938805  0.2414800934241106
  0.2678528280406491  0.5577917584825615  0.5046589335166293
  0.7591236398906831  0.9968027377404788  0.9889728660726350
  0.7475483190188728  0.0175314796608148  0.4872289777820416
  0.2483665032225903  0.4875381745609559  0.9885579036681241
  0.0339251053188677  0.2889869967131808  0.3785353636079120
  0.5092274717343065  0.7347509960051405  0.8704408433980212
  0.4925732204894922  0.2583446401288437  0.6231308340881873
  0.9800709795015839  0.7549657031766792  0.1323167679037332
  0.0250491606616213  0.2214072735832085  0.8810258017029420
  0.4903089114107587  0.7298889320182687  0.3805242203051420
  0.0060750186124749  0.7602666062289846  0.6205268330702739
  0.5207469189176294  0.2411825510870426  0.1342914183530175
  0.1476810236587554  0.3919506292572039  0.0462764488502942
  0.6664848204970392  0.9190825357909298  0.5509694631812926
  0.6633438695791424  0.0893841164363719  0.9371484407276773
  0.1579780071757030  0.6511373951286833  0.4577363774038746
  0.3376410344765589  0.3900037764331628  0.9449841925121680
  0.8270990949598300  0.9171195053532677  0.4381570990753534
  0.8442340011168873  0.1130796442943469  0.0454108546278743
  0.3465513879492677  0.6505041685544730  0.5643081440667193
  0.8176761880444786  0.1036024341071026  0.1888659683632517
  0.3511436261460615  0.5992432629933817  0.6995108218202516
  0.8347221333264345  0.9205214702526638  0.2988397159253419
  0.3515001138491581  0.3936213080288018  0.7957146577010813
  0.1338648809421489  0.5881779293986877  0.2989717627557577
  0.6526020656891309  0.1023781496318747  0.8022690734844244
  0.1334379799018257  0.3763560267318904  0.1922189205313041
  0.6137338976882684  0.9350483080694341  0.6801057365003168
  0.8669055337697479  0.6236791924500844  0.9554029817594825
  0.3425676381800526  0.1429688737817194  0.4607436284619045
  0.8615082137282437  0.3974578664788703  0.5446914140776904
  0.3725191226746508  0.8923325142561517  0.0447272879292580
  0.1483990029718051  0.1393269834035861  0.5612033569961419
  0.6496806449370344  0.6200773368464425  0.0517128510491201
  0.1540820488129086  0.8781447584010568  0.9613383067925622
  0.6574595728733127  0.4132768892305034  0.4767250777963528
  0.6528315411237686  0.4060359444584594  0.3232850497355061
  0.1376890351995267  0.8829557437420565  0.8027927989764277
  0.1414414328259225  0.0942534149438419  0.7095778000854046
  0.6310835148492875  0.5928495491639095  0.2156851923124095
  0.8737242625043542  0.3779880381201062  0.7042946105959561
  0.3586368113022109  0.8820531273880395  0.2131291777591935
  0.3615005152491076  0.0722068184985704  0.3093956947422113
  0.8719678194413717  0.5775704458329416  0.8041788870891208
  0.1816495245876424  0.0833525541085517  0.0634087019529981
  0.6646915789893154  0.6149792656102800  0.5643416717212338
  0.6603675984247207  0.4255582577337710  0.9506139665746407
  0.1237649576822124  0.9687599935417727  0.4627470802855478
  0.3555345408217946  0.1063487868073814  0.9521419631818023
  0.8464890557374315  0.5991637997176599  0.4558746553901606
  0.8438603348110512  0.4025825453050398  0.0459137765169390
  0.3323190767783072  0.9353823558111352  0.5537581665837008
  0.1497974650923801  0.0971973323044285  0.2160712755290680
  0.6604736170846978  0.5845635081093826  0.7067500702011559
  0.1506721771177327  0.8960758540599855  0.3115515924338081
  0.6446765417343021  0.4010516857632114  0.7992990902930402
  0.8473386129452793  0.6105066980509867  0.3052624123786790
  0.3379860243762451  0.0826237494034369  0.8085639418475036
  0.8388887667598711  0.4113515301000359  0.2055058380198137
  0.3372069729120147  0.9041993477118734  0.6933611130791127
  0.8636698556349159  0.8869058680176519  0.9463097538589295
  0.3401989253975510  0.4671719934757762  0.4519951714696822
  0.8456451343120548  0.1220430984395861  0.5327995644221961
  0.3466648687003883  0.5767615247421185  0.0434911758986119
  0.1571048946091607  0.4535767152265894  0.5474256078427022
  0.6405781639242994  0.8907973062372224  0.0346054657440133
  0.1514286059258683  0.5970068793240368  0.9407235990741545
  0.6404445039383154  0.1189391339865819  0.4416547116347311
  0.3237025022073658  0.3824467468260792  0.3023291721174062
  0.7962259183322772  0.8769238321831503  0.7788127528496835
  0.8355656842631797  0.1000884645036036  0.6997616605575071
  0.3348461312839828  0.5901790909165830  0.2005539175780917
  0.1681346260290810  0.3875677954831167  0.6914123093032997
  0.6202605839494714  0.9084174682375608  0.1916664619132650
  0.6314935274890114  0.0774026440004895  0.2962046171862948
  0.1570189535320627  0.5876643299465343  0.8110006727413560
  0.9219987658822488  0.2037047421808302  0.4112691606796640
  0.5799449744688715  0.6290056165909540  0.8231935816639083
  0.5791871869661490  0.3525689366099974  0.6690829327676686
  0.0435379862087255  0.8513107664051185  0.1854619430849247
  0.3977325033915934  0.1942168034047527  0.6774410745732867
  0.8974376734429474  0.6375164212427605  0.1650976241274974
  0.0048050980818192  0.4389617195327103  0.3948495393531065
  0.4389733362812371  0.8161602303651354  0.8076552159207246
  0.1243667385077698  0.1655708928911128  0.9407776358577928
  0.5640713788918554  0.6724535953482502  0.4433201336023341
  0.1202724699115297  0.8550256503290552  0.5809295215859258
  0.6100329581782906  0.1642225181525595  0.0805887687783190
  0.9438625061732900  0.6518401272665577  0.5749520775131352
  0.4294243475056345  0.3323689008970136  0.0860449009294506
  0.9005518064567685  0.2974869801879308  0.9125198485950969
  0.4067894547934088  0.8457044365238708  0.4219633957826492
  0.9144064168908388  0.8632199595858642  0.6636519986443331
  0.6215929053804746  0.3422594062116976  0.1749717687812927
  0.9969969710831200  0.0953934065644645  0.8364817200122635
  0.3937724168968124  0.6424363162389064  0.3344783073431545
  0.0948477634163408  0.3356041810349371  0.8317754669941585
  0.5959857621951129  0.8176140148241109  0.3402169451587677
  0.0794653412346623  0.6658691013174283  0.6756701297812112
  0.4492825432005947  0.1520906206116638  0.1878611055274974
  0.4067607116941231  0.3508651556574614  0.5762758676132563
  0.8914934963981351  0.8472594175602211  0.0832171736381454
  0.1777433993574135  0.2299692236942632  0.3987602939074148
  0.4161095151487558  0.6690067386566547  0.9268300136588296
  0.0197683032128357  0.2653822096769527  0.3012206278649240
  0.6094309952592525  0.8294410437253825  0.9131210852789313
  0.5837949470245856  0.1450970769081481  0.5849349307028301
  0.0994147263578356  0.6784602748219637  0.0895372825660793
 
 -0.15615005E-02  0.35047000E-02 -0.87616059E-02
  0.65523804E-02  0.39945973E-02  0.50485724E-04
  0.47500135E-02 -0.46083901E-02  0.15255559E-02
 -0.55901305E-02  0.85231906E-02  0.66243669E-02
  0.21521625E-02 -0.47492858E-02 -0.47153882E-02
  0.54022192E-02  0.10068642E-02 -0.63709916E-02
  0.97838313E-03 -0.68861050E-02 -0.22429076E-02
  0.72164746E-02 -0.10585548E-02 -0.33437497E-02
  0.67829780E-02 -0.86849012E-03  0.54599536E-02
 -0.61724209E-02  0.57228621E-02  0.23182424E-02
  0.64687266E-03  0.83434354E-03 -0.92559323E-02
 -0.82266239E-02  0.55846792E-02 -0.48726721E-02
  0.51905140E-02  0.28517260E-02  0.40468887E-02
  0.12806718E-05  0.65702860E-02 -0.76988796E-02
  0.42710768E-02  0.25880341E-03 -0.43066889E-02
  0.10833075E-01  0.37421775E-02  0.42476913E-02
 -0.57836990E-03  0.29308506E-02 -0.10868419E-01
  0.22551148E-03  0.30019773E-03  0.13348075E-02
 -0.11379482E-01  0.96957140E-03 -0.24481613E-02
  0.10746745E-02 -0.19163193E-02 -0.58217419E-02
  0.55725336E-02 -0.80667502E-03 -0.41409532E-03
 -0.50954972E-03  0.63556375E-04 -0.25448864E-02
  0.88485729E-02  0.64647736E-03 -0.13225480E-02
  0.16016577E-02  0.22854054E-02 -0.18677858E-02
 -0.34459783E-02  0.48415046E-02 -0.68269461E-02
 -0.62777030E-02  0.17482433E-02  0.11272894E-02
  0.30050593E-02  0.54638062E-02  0.29344871E-02
  0.45708134E-02  0.37279708E-02  0.73080699E-02
  0.44025038E-02 -0.10956003E-02  0.38067361E-02
 -0.93726638E-03  0.22008612E-02  0.37979260E-02
 -0.29023940E-02 -0.26692468E-02 -0.36924439E-02
 -0.14657822E-01 -0.15740876E-02 -0.73282938E-02
  0.90061547E-02  0.30944759E-02  0.69025360E-02
 -0.15879700E-02  0.12633995E-02  0.12091414E-01
 -0.45508611E-02  0.30448535E-02  0.13011421E-02
 -0.40835903E-02  0.90235062E-03 -0.70974587E-02
 -0.35889151E-02 -0.49427748E-02 -0.13589760E-02
  0.43117685E-02 -0.51938260E-03 -0.17311005E-02
 -0.53011638E-02  0.14782113E-02  0.33755085E-02
 -0.28229190E-02  0.32714098E-02  0.66135406E-02
 -0.55458581E-02 -0.75062068E-02 -0.13527426E-03
  0.93359638E-04 -0.24755750E-02  0.48873473E-02
  0.27407749E-03 -0.48392048E-02  0.12054910E-01
  0.27473264E-02 -0.42848472E-02  0.10930971E-02
  0.67583456E-02  0.12769374E-02  0.39158572E-02
  0.13223271E-02  0.97083513E-03 -0.61152838E-02
 -0.14506559E-02  0.12016511E-03 -0.10577857E-02
  0.56407570E-02 -0.30613948E-02  0.41223614E-03
 -0.26238137E-02  0.17747229E-02  0.20725021E-02
  0.50659156E-02 -0.97426377E-02 -0.56966320E-02
  0.62955576E-02 -0.12747608E-01 -0.20443723E-02
  0.38391803E-03  0.62120671E-02 -0.90296225E-02
 -0.28477456E-02 -0.15523143E-01  0.41981234E-02
 -0.35206510E-02  0.10668928E-02 -0.13611565E-02
 -0.84122487E-02  0.32120055E-03 -0.50161835E-02
 -0.11973230E-01 -0.28033280E-02 -0.67863264E-03
  0.11864040E-01 -0.43016340E-03 -0.21016077E-02
  0.99531544E-02  0.45070966E-02 -0.10526160E-02
  0.26545045E-03  0.36997958E-02  0.37697622E-02
  0.59422816E-02  0.46998718E-02 -0.74776062E-02
 -0.19400007E-02 -0.84444474E-02 -0.32146941E-02
 -0.90913300E-03 -0.26425519E-02 -0.56474551E-02
 -0.79950537E-02 -0.17392842E-02 -0.32298879E-02
  0.21962400E-02 -0.61505998E-02  0.11227148E-02
  0.32963287E-03 -0.46182898E-02  0.21767358E-03
  0.49679393E-02 -0.66305911E-02  0.33688764E-02
 -0.56168409E-02  0.52915882E-03 -0.32172883E-02
 -0.11124892E-02  0.57312466E-02  0.44605153E-02
  0.11387993E-03  0.87758962E-02 -0.57734213E-02
 -0.35312773E-02 -0.35382270E-02 -0.45831683E-02
  0.32908928E-04  0.84099929E-03  0.25027100E-02
 -0.65615083E-02  0.14349739E-02 -0.93332614E-02
 -0.30856067E-02 -0.51015859E-02  0.14871481E-02
  0.39344427E-02  0.10204359E-02  0.68400139E-02
  0.46093134E-02 -0.50604738E-03 -0.14527904E-01
 -0.60097723E-02 -0.58476764E-02 -0.59530893E-02
  0.38117818E-02 -0.32522880E-02 -0.70136287E-02
 -0.93511758E-02  0.20626146E-03  0.47221621E-03
 -0.71590281E-02  0.42171769E-02 -0.26847015E-03
  0.53082906E-02  0.12124649E-02  0.43433720E-02
  0.12066482E-02 -0.32978524E-02  0.15986863E-02
 -0.27998301E-02 -0.68209081E-03  0.51690109E-02
 -0.45797343E-02  0.39347343E-02  0.17589066E-02
 -0.79313271E-03  0.92816059E-02 -0.28877736E-02
 -0.45494511E-02  0.56170083E-02  0.42560960E-02
 -0.15563516E-02  0.86420296E-03 -0.10891692E-01
 -0.10673350E-02  0.81423272E-02  0.83220451E-02
  0.41872124E-02  0.15193686E-02  0.18397204E-02
  0.57101014E-02 -0.43113045E-03 -0.54379897E-02
 -0.36819309E-02 -0.73458307E-03  0.13750365E-03
  0.55109846E-02  0.26843006E-02  0.20713498E-02
 -0.76412623E-04 -0.69026600E-02 -0.23083036E-02
 -0.37938882E-02  0.15613842E-02 -0.15005931E-02
  0.38425485E-03 -0.15891499E-03  0.31256803E-02
 -0.27165987E-02  0.31917905E-02 -0.16165536E-02
 -0.51900074E-02  0.38173005E-02 -0.37220394E-02
 -0.97765705E-03  0.27393894E-02 -0.39204910E-04
  0.27383889E-02 -0.35897252E-02  0.53717929E-02
 -0.46717098E-03  0.31668902E-04 -0.51509679E-03
  0.22829179E-02 -0.10082722E-02  0.14945285E-02
 -0.67586438E-02 -0.40750802E-02  0.40535339E-02
 -0.35280155E-02 -0.52653127E-03 -0.25827201E-02
 -0.19966463E-02 -0.27784895E-02  0.19074110E-02
 -0.39222077E-02 -0.64892920E-03  0.22008705E-02
 -0.21114341E-02  0.35397594E-02 -0.30931385E-02
  0.92385199E-03 -0.52609661E-02 -0.30339386E-02
  0.36873206E-02  0.16912604E-02  0.21252971E-02
 -0.51282936E-02 -0.16334340E-02  0.71105782E-02
 -0.63634294E-02 -0.20747830E-02 -0.93898052E-02
 -0.43265674E-02  0.69009350E-02  0.40550165E-02
 -0.23164491E-02 -0.17305750E-03  0.39994437E-02
 -0.67876333E-02 -0.36604289E-02  0.75289575E-03
 -0.77063597E-03 -0.55693746E-04  0.27174334E-02
 -0.35144559E-03 -0.10690711E-02  0.31229364E-02
  0.92577619E-03  0.15611662E-02 -0.12575360E-02
 -0.35803644E-02  0.59742694E-02  0.32115662E-02
  0.13769053E-02 -0.38887996E-02  0.43895661E-02
  0.15174564E-02  0.10105106E-02  0.38311268E-02
  0.57009257E-03 -0.37719506E-02  0.35364286E-02
  0.80615041E-03  0.49926576E-03  0.87234983E-03
 -0.19128264E-02  0.31710430E-02  0.12865564E-04
  0.26299787E-02 -0.45869525E-02 -0.90766874E-03
 -0.39837469E-02  0.24630967E-02  0.47398203E-02
 -0.22766317E-02 -0.47590874E-02 -0.34226736E-02
 -0.59088734E-04  0.29712339E-02  0.12335398E-02
 -0.16634814E-02  0.28826937E-03 -0.38028639E-02
 -0.96859314E-03 -0.86362850E-03  0.48001228E-02
  0.14929519E-02  0.16838130E-02  0.13064889E-02
  0.30908469E-03 -0.20368780E-02 -0.30954531E-02
 -0.33609574E-02  0.20805587E-02 -0.73325222E-03
  0.26818622E-02  0.60584762E-03  0.47384479E-02
  0.21271084E-02  0.11677031E-02  0.13899763E-02
  0.61224371E-02 -0.20695368E-02  0.26053385E-02
  0.95173182E-03  0.35331720E-02 -0.63231086E-02
 -0.18855065E-02 -0.33235362E-02  0.23287466E-02
 -0.18522370E-02  0.12972292E-02 -0.16214509E-02
 -0.18299194E-02 -0.83389255E-04  0.25101696E-02
  0.36931087E-02 -0.35309394E-02 -0.49717161E-02
  0.48239351E-02 -0.18764194E-02 -0.69505108E-03
 -0.33921392E-03 -0.54091234E-02 -0.34946709E-02
 -0.47366744E-02 -0.84091018E-03 -0.99269904E-03
 -0.79712538E-03 -0.49091369E-02 -0.43558403E-02
  0.29688016E-02  0.45026733E-02  0.11756136E-03
  0.26711029E-05  0.15820560E-02  0.38408402E-02
 -0.34193646E-02 -0.27723213E-03 -0.16086222E-02
 -0.33916179E-02 -0.10752351E-03  0.13473391E-03
 -0.22913623E-02  0.87857855E-03 -0.35610018E-02
  0.13138369E-03 -0.11198615E-02  0.62872600E-03
 -0.45289031E-03 -0.10860356E-02  0.46049306E-02
  0.54103076E-02  0.42867867E-02 -0.24327060E-02
 -0.19952127E-02  0.50036884E-03  0.13551367E-02
  0.16600068E-02  0.46177722E-02  0.30136474E-02
  0.20477092E-02 -0.71543260E-03 -0.13093120E-02
  0.25781647E-02 -0.29632540E-02  0.11430935E-02
 -0.63940351E-03 -0.25079136E-02  0.20078728E-02
  0.37786921E-02  0.92731753E-04 -0.27820517E-02
 -0.16614461E-02  0.49083881E-02  0.83339334E-03
  0.97414068E-03  0.34921343E-02  0.16068351E-02
 -0.12333944E-02 -0.49616617E-03 -0.36886058E-02
 -0.17274100E-03  0.20824134E-02 -0.10554634E-02
  0.36199393E-02  0.39095125E-02 -0.16876118E-02
 -0.25693529E-02  0.12700688E-02 -0.11675652E-02
 -0.56553765E-03 -0.56409408E-03 -0.16044897E-02
 -0.19298012E-02 -0.73250862E-03 -0.53367231E-03
 -0.25445412E-02 -0.20214469E-02 -0.33222960E-02
  0.13848603E-02 -0.40666715E-02  0.10660088E-03
  0.33744701E-02  0.33950609E-02  0.31838578E-02
  0.11196261E-02  0.33139465E-03 -0.17911386E-02
 -0.42958099E-02  0.16869742E-02 -0.18005606E-02
 -0.50169097E-02 -0.12543018E-02  0.12701691E-02
 -0.12371376E-02  0.20851643E-02  0.43817017E-02
  0.13532934E-02 -0.10343625E-02  0.20871037E-02
  0.15426475E-02 -0.25479259E-02 -0.98170918E-04
  0.22900165E-02 -0.10100419E-02 -0.62599154E-02
 -0.10384204E-02 -0.27519186E-02  0.94586501E-03
  0.18908935E-02 -0.12878047E-02 -0.17756223E-03
  0.44740493E-02  0.40604244E-02  0.95387269E-03
  0.88537198E-03 -0.24848868E-03  0.38577288E-02
  0.22318570E-02  0.19554539E-02 -0.16068620E-02
 -0.13030671E-02 -0.45424930E-03 -0.24303579E-02
  0.44809073E-02 -0.17251482E-02  0.13589062E-02
 -0.39213935E-03  0.47378433E-02  0.56157248E-04
 -0.42256135E-02 -0.51204778E-03  0.27414687E-02
  0.22929962E-02 -0.15741289E-02  0.48966238E-02
  0.20345836E-02  0.34907422E-02  0.31668945E-03
 -0.30039997E-02 -0.42646006E-03 -0.63126344E-03
  0.10971051E-02 -0.65397861E-03 -0.40914229E-03
  0.11975057E-02 -0.43924512E-02  0.13410740E-02
  0.29538226E-02  0.17928036E-02  0.17219515E-02
  0.13070967E-02 -0.25708281E-02 -0.15708125E-03
  0.32062309E-02 -0.10736870E-02 -0.97978553E-04
  0.17882717E-02  0.18520329E-02  0.12416856E-02
  0.37628361E-02 -0.24812491E-02 -0.21690299E-03
  0.21727510E-02 -0.87831738E-03 -0.23084138E-02
 -0.10594536E-02  0.39540127E-02  0.29906170E-02
 -0.51994480E-03  0.60973575E-02  0.33628403E-02
  0.40166576E-02 -0.53945914E-03  0.16906213E-02
  0.70251778E-03 -0.13561773E-02 -0.66852512E-03
 -0.42090271E-02  0.38417026E-02  0.36188453E-03
  0.26273867E-02 -0.71455314E-03 -0.13451162E-02
  0.27215092E-02 -0.47547888E-02 -0.29308885E-02
 -0.12407918E-02 -0.52561076E-02 -0.38829292E-02
 -0.43475949E-02 -0.20337003E-02 -0.37818202E-02
 -0.38945410E-02  0.28666162E-02 -0.56208555E-03
  0.41217603E-02  0.19381454E-02  0.29855480E-02
 -0.25625853E-03  0.12592785E-02 -0.21140555E-02
 -0.30061639E-03 -0.14339479E-02  0.55987310E-02
  0.59790879E-03  0.19220167E-03 -0.39577264E-02
 
           1
   2.00000000000000     
  0.63175231E+00  0.92659823E-03  0.00000000E+00  0.00000000E+00
  0.99189701E+00  0.75493689E+00  0.98795964E+00
  0.50082445E+00  0.51625795E+00  0.51886509E+00
  0.50177215E+00  0.47588122E+00  0.22416632E-01
  0.97956789E+00  0.13617907E-01  0.24851801E+00
  0.26166951E+00  0.74435445E+00  0.87470771E+00
  0.12755345E-01  0.50779995E+00  0.48699698E+00
  0.50778428E-02  0.50091755E+00  0.12655483E+00
  0.25776669E+00  0.21178096E+00  0.15558318E+00
  0.78519032E+00  0.70865886E+00  0.63043164E+00
  0.74147086E+00  0.23838056E+00  0.85632254E+00
  0.72916340E+00  0.68160616E+00  0.37963917E+00
  0.27905810E+00  0.23768894E+00  0.87423139E+00
  0.75659628E+00  0.99341424E+00  0.11834626E+00
  0.24669604E+00  0.74716782E+00  0.63876476E+00
  0.14443219E+00  0.77836461E-02  0.88996282E+00
  0.20803848E+00  0.47642643E+00  0.38149008E+00
  0.22072771E+00  0.99743141E+00  0.63690117E+00
  0.16500754E-01  0.47260672E+00  0.61469576E+00
  0.52183822E+00  0.99413883E+00  0.12421833E+00
  0.97185335E+00  0.48433924E+00  0.88809811E+00
  0.51455724E+00  0.99109107E+00  0.38422707E+00
  0.20334848E+00  0.22047517E+00  0.30416057E+00
  0.64658188E+00  0.76990880E+00  0.75410466E+00
  0.78815691E+00  0.24535466E+00  0.60417762E+00
  0.30194737E+00  0.73691474E+00  0.11667029E+00
  0.22651666E+00  0.26286985E+00  0.75320882E+00
  0.76832358E+00  0.75235551E+00  0.57775790E-02
  0.80115263E+00  0.42494388E+00  0.38815994E+00
  0.49517449E+00  0.80393616E+00  0.52595557E+00
  0.49533877E+00  0.50651690E-01  0.13404162E-01
  0.99732475E+00  0.79613962E+00  0.48660342E+00
  0.49527950E+00  0.49586325E+00  0.75744940E+00
  0.98998932E+00  0.76174983E+00  0.27685655E+00
  0.49161747E+00  0.25319912E+00  0.76016113E+00
  0.99809176E+00  0.32454295E-01  0.98194300E+00
  0.49809160E+00  0.18041999E-01  0.50126290E+00
  0.52508270E+00  0.74490862E+00  0.99533808E+00
  0.51323335E+00  0.24032040E+00  0.28285897E+00
  0.99170870E+00  0.96407536E+00  0.73648025E+00
  0.50350759E+00  0.75963260E+00  0.24559852E+00
  0.98394365E+00  0.19687616E-01  0.11796742E+00
  0.51012812E+00  0.56619673E+00  0.63579936E+00
  0.47333568E+00  0.14765272E-01  0.74372236E+00
  0.99308476E+00  0.46046111E+00  0.26146194E+00
  0.28836211E+00  0.24187730E+00  0.27321631E-01
  0.71986023E+00  0.73488334E+00  0.50048440E+00
  0.24764568E+00  0.79458188E+00  0.50672221E+00
  0.73136005E+00  0.24190921E+00  0.16887798E-02
  0.97168049E+00  0.84680708E-02  0.58781764E+00
  0.47719152E+00  0.50016611E+00  0.26953808E+00
  0.13551079E-01  0.47962788E+00  0.74561721E+00
  0.49441732E+00  0.11526006E-01  0.24865925E+00
  0.25674204E+00  0.29803664E+00  0.47757484E+00
  0.76517882E+00  0.75090822E+00  0.86463617E+00
  0.76644356E+00  0.25724317E+00  0.47349804E+00
  0.25054353E+00  0.73366945E+00  0.73160315E-02
  0.71444747E-03  0.24503360E+00  0.61149803E-02
  0.48506593E+00  0.24093313E+00  0.49604518E+00
  0.49849710E+00  0.48664739E+00  0.14458288E+00
  0.98664245E+00  0.27795438E-01  0.36797754E+00
  0.50315630E+00  0.24278937E-01  0.87342042E+00
  0.33180531E-01  0.14456211E+00  0.49103544E+00
  0.10008873E-01  0.52908733E+00  0.85510530E-02
  0.44065250E+00  0.81756239E-02  0.63068962E+00
  0.79344879E+00  0.28023851E+00  0.13813730E+00
  0.15689870E-01  0.72554502E+00  0.76428617E+00
  0.23355223E+00  0.73634714E+00  0.24730771E+00
  0.72659686E+00  0.26037858E+00  0.73558683E+00
  0.74224079E+00  0.75629580E+00  0.25470090E+00
  0.97873797E+00  0.23744820E+00  0.76251212E+00
  0.76556711E+00  0.27072068E+00  0.27081608E+00
  0.27280543E+00  0.74328463E+00  0.75406825E+00
  0.27086635E+00  0.47180553E+00  0.12662178E+00
  0.76524732E+00  0.98857250E+00  0.62382980E+00
  0.76507110E+00  0.97334446E+00  0.86811972E+00
  0.24595086E+00  0.74806431E+00  0.38968666E+00
  0.52268565E+00  0.48493015E+00  0.88200246E+00
  0.78133236E+00  0.10596296E+00  0.37056081E+00
  0.71877858E+00  0.75465926E+00  0.13541813E+00
  0.27547986E+00  0.50288052E+00  0.61941636E+00
  0.72714911E+00  0.54362674E+00  0.87246305E+00
  0.24276480E+00  0.14510925E-01  0.38449787E+00
  0.74935999E+00  0.47469360E+00  0.64151836E+00
  0.28786284E+00  0.97074702E+00  0.13824124E+00
  0.23742403E+00  0.26294535E+00  0.62103763E+00
  0.71035794E+00  0.49564866E+00  0.11607856E+00
  0.25185288E+00  0.48627542E+00  0.87520905E+00
  0.51600664E+00  0.49492503E+00  0.41072662E+00
  0.25191739E+00  0.99329895E+00  0.26465517E+00
  0.76193672E+00  0.48501004E+00  0.75472830E+00
  0.24339011E+00  0.97991494E+00  0.75359863E+00
  0.73648776E+00  0.50663112E+00  0.26490866E+00
  0.26551733E+00  0.99326864E+00  0.18583594E-03
  0.76313456E+00  0.50655086E+00  0.51338718E+00
  0.23840871E+00  0.51880852E-01  0.50812826E+00
  0.75664251E+00  0.52425210E+00  0.99829977E+00
  0.71871657E+00  0.99961018E+00  0.73718677E+00
  0.23487512E+00  0.48122625E+00  0.25153629E+00
  0.25596776E+00  0.49260535E+00  0.74404557E+00
  0.73914548E+00  0.99643515E+00  0.24158714E+00
  0.26688464E+00  0.55720800E+00  0.50494927E+00
  0.75861825E+00  0.99672731E+00  0.98878788E+00
  0.74726230E+00  0.17133456E-01  0.48736560E+00
  0.24780464E+00  0.48744521E+00  0.98871554E+00
  0.33622639E-01  0.28949407E+00  0.37831381E+00
  0.50935982E+00  0.73399735E+00  0.87022353E+00
  0.49310144E+00  0.25858692E+00  0.62328306E+00
  0.97933634E+00  0.75473171E+00  0.13282607E+00
  0.24137588E-01  0.22111006E+00  0.88035325E+00
  0.48968912E+00  0.73087750E+00  0.38081466E+00
  0.57431832E-02  0.76024182E+00  0.62081330E+00
  0.51977458E+00  0.24065819E+00  0.13434535E+00
  0.14757063E+00  0.39194265E+00  0.46471087E-01
  0.66643448E+00  0.91892939E+00  0.55119315E+00
  0.66347649E+00  0.89607756E-01  0.93705837E+00
  0.15746511E+00  0.65199322E+00  0.45796641E+00
  0.33783828E+00  0.38944670E+00  0.94529860E+00
  0.82731647E+00  0.91726426E+00  0.43843151E+00
  0.84431567E+00  0.11253931E+00  0.45664154E-01
  0.34666687E+00  0.65057569E+00  0.56437063E+00
  0.81740217E+00  0.10405669E+00  0.18886689E+00
  0.35152038E+00  0.59858617E+00  0.69944581E+00
  0.83415145E+00  0.92087431E+00  0.29917921E+00
  0.35117398E+00  0.39293956E+00  0.79546951E+00
  0.13385642E+00  0.58860356E+00  0.29906012E+00
  0.65236377E+00  0.10241944E+00  0.80199669E+00
  0.13329923E+00  0.37623231E+00  0.19256273E+00
  0.61394777E+00  0.93528952E+00  0.68019931E+00
  0.86694981E+00  0.62338741E+00  0.95518127E+00
  0.34208618E+00  0.14326692E+00  0.46069111E+00
  0.86189240E+00  0.39754466E+00  0.54503081E+00
  0.37282383E+00  0.89249979E+00  0.44826846E-01
  0.14927605E+00  0.13903052E+00  0.56138997E+00
  0.64981698E+00  0.62058347E+00  0.51259953E-01
  0.15381195E+00  0.87766866E+00  0.96150511E+00
  0.65719424E+00  0.41346272E+00  0.47660894E+00