Na88 Sn16 P8 S96                        
   1.00000000000000     
    13.4813327813000008    0.0000000000000000    0.0000000000000000
     0.0000000000000000   13.4813327813000008    0.0000000000000000
     0.0000000000000000    0.0000000000000000   26.9626655626000016
   Na   Sn   P    S 
    88    16     8    96
Direct
  0.2607165845471844  0.0310871301054866  0.1246986950231392
  0.9803207274563104  0.4998401718490280  0.6160768336168263
  0.4958972022084785  0.4616937095569271  0.7369833016884636
  0.0041185810975973  0.7271546461173953  0.4960193216965340
  0.2425711120817896  0.9902108298441953  0.8716626686629447
  0.7460450030051644  0.6979158139565398  0.3903286460658170
  0.9572307386088321  0.4524691728610810  0.1266664506962810
  0.9888386926589198  0.4898346509961908  0.2415411886777765
  0.7293346532572667  0.0036079352071678  0.6289717935543746
  0.7772446888585097  0.2503652404578683  0.9883054651009172
  0.9654870607545540  0.9664421711520863  0.3914148155650948
  0.2571825580980791  0.2466903403641797  0.8546632069060616
  0.7742045636347904  0.0005962983155678  0.1337010784552722
  0.2034935927027360  0.7213912423996541  0.7253875632076008
  0.9900469677904613  0.0133539892299558  0.7514261002306726
  0.2428213647873013  0.2960642777640001  0.4915674343987226
  0.9989944248604017  0.0370035681663200  0.6275230189975962
  0.9735609210311909  0.4688445505788903  0.4838523714064303
  0.5254267033190051  0.9970289571667109  0.1486025057056170
  0.2502265340035332  0.4965050726065039  0.8632116115324076
  0.5138468132050968  0.9995598040691462  0.2655740263652770
  0.9738389727760809  0.2581833058424183  0.2424097807134786
  0.7481336653135892  0.5152278989477843  0.8700626679213020
  0.7425624556585327  0.2609155807181532  0.6312870132848342
  0.2291735250034524  0.7600410118859102  0.9856722019604168
  0.2683971515931717  0.5507219153677873  0.6253435921003767
  0.7252905181772055  0.5143162160569774  0.1201970780983112
  0.7388159408181922  0.2144840874088088  0.3729745720013248
  0.4727919647552862  0.7587616914991762  0.5152246086056465
  0.2209042766708993  0.2506209644084337  0.9832128118786261
  0.2490129525529444  0.5005516634138409  0.3642296054330385
  0.4846861590369818  0.0101970729273226  0.8810697507151574
  0.4883489673709961  0.7472449622948721  0.2404415667958597
  0.5207853733197305  0.2334678188901692  0.7841536097048402
  0.0237160860160195  0.9838906658465302  0.1325974652778065
  0.2317479573834677  0.2805076665865513  0.6217240646798531
  0.4974203004279689  0.5011222690504440  0.0080860923940107
  0.2215803919278627  0.2590739765106664  0.2372421490604768
  0.5290265504733587  0.7412413995003416  0.7318407168266904
  0.7964822915750522  0.7255044077429178  0.2313447282067593
  0.9994249266204992  0.9876517970905554  0.4973593568186596
  0.9965749492380632  0.7388643287986966  0.7936777500135482
  0.7115164372595179  0.9509605777024325  0.8824664183731042
  0.2571357284391683  0.2413010909106971  0.3716604289228094
  0.9315211341224405  0.2806583326015963  0.7557523674971907
  0.7500099914687073  0.7333642915415008  0.5079585526834522
  0.2414812908116775  0.7830630770897631  0.5195344469835360
  0.4720049998731153  0.7331958543342411  0.0037858307826903
  0.7452653380527652  0.2778865855455815  0.8650503523647158
  0.4487855173849741  0.2612441578691703  0.2484061173756758
  0.9939350396117002  0.5008684428409358  0.8811237858850207
  0.4643303878534409  0.4813279385660942  0.3362246567658456
  0.2687882911410078  0.2625534453540002  0.7415291228682358
  0.9652398258402846  0.7593972183823016  0.9801323142934205
  0.7439687154219996  0.2070481295743622  0.5055702872889037
  0.9939494133558989  0.0531761112517970  0.0106098392044383
  0.2190600091248362  0.2443091490616414  0.1223996127372888
  0.5027072622693470  0.5130913655374550  0.4996552743711247
  0.4667363637085308  0.2319348398171237  0.9875425818403513
  0.9941914987634264  0.2547863947830264  0.5126422329881222
  0.4827847083054040  0.9958902331136500  0.0180058016054290
  0.9687172540697083  0.5251167750198936  0.3590913307916183
  0.0116257968667971  0.3913756030777669  0.9959424249839087
  0.5028715267601491  0.9749383150298608  0.4780127847625619
  0.7365969938779103  0.2280601271353529  0.2273859094196944
  0.7243789179587122  0.7612186601807598  0.9869699491464915
  0.2123393716528540  0.7453117817912546  0.2260960888041528
  0.5239959507573426  0.2375002924175546  0.4996329352453077
  0.0128747923109594  0.9889064015123706  0.2837476674664274
  0.0135474083449708  0.5373167353103756  0.7338060102172063
  0.7463651729814434  0.2992896740421518  0.0994592820598631
  0.4971645015014781  0.9853853123153002  0.7602542228857642
  0.2431223509955681  0.7314781855388129  0.0916708508621441
  0.5093333022047548  0.9741423971187514  0.6265892669134600
  0.9474432522320373  0.0057223980820619  0.8850068201779449
  0.2149883899712265  0.7804463520130779  0.3790547402964304
  0.5063812459838526  0.4839612408331191  0.8731871687474224
  0.7308472774616668  0.9612425717126361  0.3814942626692371
  0.7289713944988606  0.7638082413454756  0.1010865781852171
  0.5311794452427899  0.4832138654945941  0.6121862855385346
  0.7419812651200313  0.7467643517104477  0.7623226323744478
  0.3260089907148760  0.9845074186498722  0.3703543381989041
  0.7451207835221860  0.7689033358618150  0.6349132896871935
  0.2306063523072958  0.5169277073485752  0.1227686210518609
  0.2502698142920123  0.0011562602445393  0.6201798749764968
  0.4808943872144618  0.5173807915689450  0.1370227021679753
  0.2459117701082951  0.7463325003007834  0.8581640161764673
  0.7377481039544860  0.4657763659142204  0.3730138328400217
  0.2605775062629124  0.9965713899731752  0.2469024728657332
  0.7712619216894300  0.4918081844867072  0.7461189073724596
  0.2507676212782493  0.9794927073750035  0.7395276730997289
  0.7137390817416711  0.4938207646087570  0.2420667906817482
  0.2423513059821869  0.9978482793093586  0.9973868640901352
  0.7349959013185169  0.4671476681487323  0.4957851338700254
  0.2438845538243023  0.0453084995494022  0.4987563613371185
  0.7437154979421415  0.5081406047570187  0.9914309541721656
  0.7453676314965776  0.0252896763801635  0.7603998758221505
  0.2612956017659886  0.5193409572742534  0.2470674596817801
  0.2719196099236856  0.4960301608489917  0.7471995339585999
  0.7805993474138921  0.9999435126600524  0.2575381732868130
  0.2486841339356340  0.5254776197752864  0.5004011811352754
  0.7310895968867133  0.0207211219730177  0.0121437590093659
  0.7459855756802523  0.9643372914692762  0.4999818762744814
  0.2463700686547044  0.4985786364252670  0.9897860786466254
  0.0084439844025703  0.2595621881027169  0.3733441230428064
  0.4910045535098500  0.7439399638805049  0.8706392919954288
  0.4933618845165856  0.2353921766487472  0.6287820262074535
  0.9853447585321037  0.7261625138847853  0.1060373140868576
  0.0042076704509305  0.2386402348436367  0.8675716845691669
  0.4856731177598776  0.7354268894741690  0.3636274539502918
  0.0095358737950534  0.7858938781014926  0.6206642950890349
  0.4922199458215206  0.2544832847411791  0.1283302162147999
  0.1798436516300747  0.3829452687316569  0.0472901832393323
  0.6359469902442070  0.8628955153779754  0.5535299007319225
  0.6141650033549469  0.1062239304914621  0.9574688908983431
  0.1308679548133558  0.6209648972460127  0.4375864094660030
  0.3418081680965862  0.3760560077700830  0.9389965271408328
  0.8258497948883864  0.8556788975526214  0.4437838376411402
  0.8487951937317504  0.1119391818423134  0.0638367590688913
  0.3565736168423960  0.6245786685137609  0.5497574091150963
  0.8977961259026288  0.0879590024789542  0.2072936375764087
  0.3816511339946543  0.5975230538852625  0.6990837443247321
  0.8692019320038642  0.8776752905059593  0.3040546501998903
  0.3737200896710560  0.3894992247683183  0.8066033973825049
  0.1266978418330694  0.6076583890015476  0.2847451350456280
  0.6274012672381868  0.0896207441646023  0.8192200820555847
  0.1398551018723982  0.4149094200744433  0.2012208703323646
  0.6390237112807001  0.9163097358840557  0.6952320367057949
  0.8590263772767369  0.5997994242389277  0.9434370728699625
  0.3516870297659972  0.1550952772035946  0.4409591415804875
  0.8473442713053403  0.3667848375841778  0.5465168388936348
  0.3305533846335302  0.8817516101936798  0.0451553697753105
  0.1467084715154086  0.1485631245951633  0.5502810577809187
  0.6318401747158205  0.5921096303050232  0.0448039118777783
  0.1210844266209204  0.9190529048821635  0.9475962150814657
  0.6429230972670773  0.3672088009569365  0.4393542583909776
  0.6342866024292543  0.3781444247677421  0.2988302105779838
  0.1389878725081509  0.8781046398581541  0.7977738022121544
  0.1460732343151978  0.0909274579134706  0.6984627702129802
  0.6230383757407466  0.6127266981723033  0.1920166322085036
  0.8711853978502685  0.4084698679100282  0.6919944477887011
  0.3655195072239524  0.9074834996689338  0.1879142667418259
  0.3515395649831506  0.1261486594110995  0.2940468760626588
  0.8583495519236324  0.5943258105728575  0.8114964506861312
  0.1512059015993191  0.1004939233891946  0.0479361579089518
  0.6702053212754836  0.5699388852188881  0.5607427096099530
  0.6627578304405493  0.3867972152076076  0.9415881265963778
  0.1437177262373270  0.9358224979866531  0.4460075856868864
  0.3508095651505781  0.0959655496474630  0.9475068763343503
  0.8423458408989584  0.5681088611821431  0.4390170285861614
  0.8486117540935820  0.4119170968162261  0.0452078442825610
  0.3599336946740841  0.9375187016758399  0.5392615861757619
  0.1364226472849571  0.0820865100311102  0.1959030216310691
  0.6867172494501160  0.6065997218662944  0.6997993113795860
  0.1945767273043328  0.8842528894974655  0.3010168856200808
  0.6542922030155336  0.3940787727681203  0.7964529300800289
  0.8279094975238990  0.5921095679466690  0.2931231202117972
  0.3335969703486559  0.0991669572738851  0.7953049055524452
  0.8251369947871939  0.3816277506447801  0.1924309948182775
  0.3558030388031987  0.8696808058588487  0.6933001697105395
  0.8435237308374013  0.9126884261940122  0.9557759045808312
  0.3546663192090889  0.4195376622458161  0.4423477025336250
  0.8483244924837698  0.0685269457369591  0.5500649599770817
  0.3583008124514455  0.6056841122330107  0.0516392722081542
  0.1464455272205666  0.4437703941396494  0.5590371271895691
  0.6362220856530616  0.8997748008810060  0.0570373100853895
  0.1605823080367988  0.6065020276211576  0.9360061644381672
  0.6471366743803915  0.0787956405065457  0.4471855321065114
  0.3161935066325222  0.3942494515630151  0.3015359061885409
  0.8327092549679054  0.9020394018966759  0.8095370546752806
  0.8440038688213809  0.1218884205148113  0.7014222810631703
  0.3331304646342448  0.6335768371001523  0.1878992732130544
  0.1706657902613652  0.4154658207604334  0.6864147160575089
  0.6754613187851591  0.9013234059237065  0.2036882630317172
  0.6778134390274000  0.0912068059049471  0.3075637862770074
  0.1537540654267819  0.5899409336314894  0.7972562756573870
  0.0918889455270871  0.1635074558782454  0.3226997346255169
  0.5938715110723403  0.6488347965265644  0.8388488635951143
  0.5906789740554639  0.3067002634087046  0.6806836918299584
  0.0728612131643487  0.7858616805898093  0.1613742953594688
  0.3927358715020167  0.1558454304752002  0.6683899003907011
  0.8840521349444118  0.6425484449384193  0.1414486872916249
  0.9118214378628432  0.3482115255376286  0.3280420175814295
  0.4077856364224480  0.8405175184517429  0.8272045433955242
  0.0885599465152942  0.1436573052965716  0.8979791551230560
  0.5579253295829845  0.6182043598361414  0.3958267294699098
  0.0976679932158427  0.8827830572621520  0.5787120889164394
  0.5602397253722068  0.3307017127787164  0.0727459334454555
  0.9214750688581526  0.7018551529507838  0.5797415139061407
  0.4016143903838018  0.1477988161151877  0.0968243809894855
  0.9216585292709168  0.3318616574672352  0.9113595849941122
  0.4275630364216584  0.8259474556563741  0.4231842555467307
  0.9377952306102157  0.8661057099323172  0.6785509366889724
  0.4034193639412580  0.3557306795651093  0.1676706862880798
  0.8884632851202079  0.1538006273460131  0.8280998632717621
  0.3758119603077356  0.6875971019697311  0.3188497055327824
  0.0800125431183167  0.3527214089446882  0.8272134201035927
  0.5731031150316108  0.8228317107068343  0.3261086721168803
  0.0925859189980788  0.6752212423457659  0.6547510491857936
  0.5961358954186267  0.1731519565655360  0.1730998287510181
  0.4256082733777893  0.3371689797344320  0.5852432988613105
  0.9279582837840085  0.8524005075692700  0.0732915388298351
  0.9176558003818253  0.1720702592499311  0.4203695750492614
  0.3946038292461465  0.6685434468505346  0.9141405862041061
  0.1049564931283598  0.3556161090382433  0.4073309291760158
  0.5692448915164381  0.8170068203629554  0.9250836645346022
  0.5594955564833873  0.1339941402447081  0.5789754889092484
  0.0622700439388615  0.6512629807441723  0.0535999495178321
 
 -0.77781184E-02  0.22379900E-02  0.35066477E-02
  0.19880768E-02 -0.66860750E-04  0.76873940E-02
  0.22929248E-02 -0.10931267E-01  0.43068697E-02
  0.55806336E-02  0.25417907E-02  0.54973616E-02
 -0.95035654E-03 -0.27756149E-02  0.93691851E-03
  0.10597400E-01 -0.61634166E-03 -0.97785188E-02
  0.24437977E-02  0.19020208E-02 -0.15971984E-02
  0.70094055E-02  0.54671427E-02  0.68089452E-03
  0.34390155E-02 -0.18898258E-02  0.14636175E-02
  0.27425388E-02 -0.58692070E-02 -0.24127224E-02
  0.40201811E-02  0.73773944E-03  0.14217170E-02
  0.96365385E-03 -0.17112286E-03  0.86637006E-03
 -0.58256616E-02  0.78232594E-02 -0.25151418E-02
 -0.58675216E-02  0.96116412E-02  0.15513150E-02
  0.37507059E-02  0.49623614E-02 -0.31206338E-02
 -0.53545696E-02  0.27020566E-02 -0.10375628E-02
  0.90258616E-02  0.22755832E-02 -0.64421083E-02
  0.36836244E-02  0.11589951E-02 -0.23103167E-02
 -0.12648875E-01 -0.40260727E-02 -0.11125478E-02
 -0.37402514E-02  0.43318350E-02  0.58082179E-02
 -0.42371874E-02  0.79203047E-02  0.62982716E-02
  0.63592080E-02 -0.52739830E-03 -0.18842980E-04
 -0.63719907E-02 -0.28270387E-02  0.28066559E-03
 -0.10381454E-01 -0.17739092E-02  0.69427900E-02
 -0.16643469E-03  0.30206822E-02 -0.54300861E-02
 -0.17856377E-02 -0.73829198E-02 -0.32013356E-02
 -0.43456082E-02 -0.34316414E-03  0.49406422E-03
  0.57992406E-02  0.60899727E-02  0.22957372E-02
 -0.26215003E-02 -0.30226248E-02  0.19506172E-03
 -0.24453849E-02 -0.25020364E-02  0.63874419E-04
 -0.19679612E-02 -0.14114367E-02 -0.12456834E-02
 -0.59884132E-02  0.57777349E-02  0.78064034E-02
  0.23844322E-02  0.44536861E-02  0.16274443E-02
 -0.77023582E-02  0.44240751E-02  0.16369533E-02
  0.48525247E-02 -0.49957838E-02 -0.26671348E-02
  0.49178101E-02 -0.28045842E-02  0.62058657E-02
  0.58028905E-02  0.11725496E-01 -0.47117622E-02
 -0.83939230E-02  0.76418164E-02  0.30661999E-02
  0.70989059E-02  0.63786281E-02  0.78226327E-02
 -0.90354427E-02 -0.42246802E-02  0.19737224E-02
  0.46349868E-02 -0.31156467E-02  0.26099536E-03
  0.67531382E-02 -0.15210063E-02  0.22150201E-02
 -0.69787705E-02  0.58119922E-02 -0.36950097E-02
  0.60979345E-02 -0.13791638E-02 -0.10085819E-01
 -0.91032577E-02  0.77584269E-02 -0.54272796E-02
  0.12158175E-02  0.13120575E-03  0.11249207E-01
 -0.22660143E-02  0.33261929E-02  0.54693776E-02
  0.34575820E-02 -0.93295493E-02 -0.41287327E-02
 -0.29535091E-02 -0.58870412E-04 -0.22416635E-02
 -0.37530118E-02  0.43831293E-02 -0.36906307E-02
  0.25847800E-02  0.29685255E-02  0.46339635E-02
  0.53142734E-02 -0.53751315E-02 -0.24701184E-02
 -0.14425104E-02  0.18642679E-02 -0.13396420E-02
 -0.88805238E-02  0.28376859E-02 -0.12182235E-02
 -0.19664850E-02 -0.92778741E-02 -0.49801088E-02
 -0.25480254E-02 -0.43851607E-02 -0.82775108E-02
  0.62963439E-02 -0.67784657E-02  0.10546782E-03
  0.34180477E-03 -0.21927336E-02  0.64689087E-03
 -0.18247292E-02 -0.40333157E-02  0.99478168E-02
 -0.18842719E-03  0.40023206E-02  0.95512364E-03
  0.47788637E-02  0.44204301E-02  0.48750533E-02
 -0.34429472E-02  0.23134295E-02 -0.68689368E-02
 -0.13011124E-03  0.12022284E-02 -0.38356374E-02
  0.36020063E-02 -0.19891921E-02 -0.16948231E-02
  0.14006816E-02 -0.38159283E-04 -0.86862661E-02
  0.25965747E-02  0.27150750E-02  0.41129385E-02
  0.43321329E-03  0.77343685E-03  0.12519044E-02
  0.37799556E-02  0.21000871E-02 -0.27731769E-02
 -0.11518950E-02  0.60210673E-03  0.24024272E-02
  0.55464085E-02 -0.16771909E-02 -0.10158684E-01
 -0.45197184E-02 -0.48595766E-02  0.48010940E-02
 -0.28930269E-02 -0.83446018E-03 -0.15119625E-02
 -0.89481139E-03 -0.19734007E-02  0.17589745E-02
  0.72140275E-02 -0.96278229E-02 -0.36760407E-02
 -0.70252047E-02  0.42525061E-02 -0.28041878E-02
  0.17142044E-02  0.50855438E-02  0.21753373E-02
 -0.10638933E-01 -0.66839123E-02  0.29350170E-03
 -0.48475285E-02  0.99966103E-02 -0.62689675E-02
 -0.52267509E-02 -0.41166068E-02  0.43493948E-02
  0.17105682E-02 -0.19068063E-02  0.10250681E-02
  0.67660700E-02 -0.13975519E-02 -0.13748569E-02
  0.94217980E-03  0.21645349E-02 -0.30559166E-02
  0.10376072E-02 -0.42585091E-02 -0.18423501E-02
 -0.34964651E-02  0.80646322E-02 -0.57304103E-02
  0.55353179E-02  0.61891192E-02  0.83231683E-02
  0.22022849E-02  0.43852205E-02 -0.31400709E-02
 -0.11861768E-02  0.25219363E-02 -0.33526527E-02
  0.36285141E-02  0.61337719E-02  0.19797948E-02
  0.24495028E-02  0.17517438E-02 -0.31617323E-02
  0.70222147E-03 -0.18538807E-02 -0.37588351E-02
 -0.25782537E-02 -0.19550034E-02  0.25695614E-03
  0.25721045E-02  0.13986413E-02  0.28195971E-02
 -0.65757014E-03  0.21572092E-02 -0.23698546E-03
  0.45888744E-03  0.40069072E-02 -0.98000703E-03
  0.28825608E-02  0.42528915E-02  0.17360547E-02
  0.22839728E-02 -0.19314256E-02 -0.25910248E-02
 -0.24232347E-02 -0.42941419E-03  0.62748979E-02
 -0.30437830E-02 -0.14714593E-02  0.16393290E-02
 -0.19560787E-03  0.21954703E-02 -0.30823673E-02
 -0.94309634E-03 -0.26698133E-02 -0.50100789E-03
 -0.52450821E-02  0.28998043E-02 -0.51761712E-02
  0.38338132E-02 -0.86332638E-03 -0.38301745E-02
  0.32591463E-03 -0.26911721E-02 -0.49554499E-03
  0.23603692E-04 -0.32640200E-02 -0.80993587E-03
  0.34502555E-02  0.35564683E-02 -0.57911095E-03
 -0.22796203E-02 -0.12249124E-02 -0.17656014E-02
  0.56959423E-03 -0.69120732E-02  0.23137022E-02
 -0.48031981E-03  0.72005697E-02  0.48753204E-02
 -0.32839984E-02  0.68175731E-02  0.81849467E-03
 -0.34060400E-02 -0.13237585E-02  0.17127381E-02
  0.58082651E-02  0.49069260E-02  0.50170743E-03
 -0.11851448E-02  0.37072421E-02  0.94096777E-03
  0.16801206E-02 -0.67217657E-02  0.60636660E-02
 -0.29170856E-02  0.30713619E-02 -0.27908803E-02
 -0.20262820E-02  0.18158610E-02  0.12240456E-02
 -0.36005445E-04 -0.16200254E-02  0.32098526E-02
  0.16756182E-02 -0.30615308E-02  0.18873850E-02
 -0.71608744E-02 -0.35617782E-03  0.92379386E-04
  0.31457063E-02  0.22653526E-02  0.39325194E-02
  0.11050080E-02  0.19811751E-02  0.37950926E-02
  0.36959362E-02 -0.15320508E-02  0.28459476E-02
 -0.63324546E-02 -0.48927747E-02 -0.16800572E-02
 -0.30361785E-02 -0.63812516E-02  0.11643739E-02
  0.15656924E-02 -0.31737703E-02  0.11730131E-02
  0.17483582E-02 -0.20070044E-02  0.72071458E-02
  0.24602351E-02 -0.24346872E-02  0.58169095E-03
  0.44812038E-02  0.15961085E-02 -0.19230515E-02
  0.44109046E-04 -0.44857358E-02  0.65540217E-02
 -0.73642225E-03  0.34066656E-02 -0.44033907E-02
 -0.47671527E-02 -0.30242902E-02 -0.52523089E-02
  0.93559356E-02 -0.51740528E-02 -0.65037728E-02
 -0.58696109E-02  0.36041234E-03 -0.23986815E-02
 -0.27398789E-02  0.12018623E-01  0.24881548E-03
  0.81868060E-02 -0.26825970E-02  0.35422334E-02
 -0.11062812E-02  0.15160826E-02 -0.37012552E-02
 -0.62804900E-02 -0.53074222E-02 -0.87148382E-03
  0.16926164E-02 -0.26006173E-02  0.31369313E-02
 -0.53586224E-03 -0.37613436E-02 -0.92926763E-03
 -0.26986693E-02 -0.17456899E-02  0.29819407E-02
  0.61614690E-02  0.59382564E-02  0.15749090E-02
  0.36415901E-02 -0.44710262E-02 -0.36359538E-02
  0.47241705E-03  0.39426756E-02 -0.10059628E-01
 -0.39429888E-02  0.39250838E-03  0.19806777E-02
  0.41477590E-02  0.22066485E-02  0.95138094E-02
 -0.39938978E-02 -0.28946906E-02 -0.12460192E-01
  0.52344422E-02 -0.92356799E-02  0.17110859E-02
 -0.30837281E-02  0.40689153E-03  0.21552612E-02
 -0.27325127E-02  0.10914638E-02 -0.52277792E-02
  0.14865723E-02  0.28121618E-02 -0.22043749E-02
 -0.80350503E-04  0.31914859E-03 -0.29052402E-02
  0.38760340E-02 -0.96121125E-03 -0.45189368E-02
 -0.12175357E-02 -0.32253493E-02  0.55001448E-02
  0.16671937E-02  0.16537935E-02 -0.41878258E-03
 -0.65858056E-03  0.67539911E-03 -0.13507007E-02
 -0.13567293E-02 -0.21661489E-03  0.42344191E-02
  0.63786719E-02 -0.97105104E-02  0.41801317E-03
 -0.72478397E-03 -0.60883240E-02 -0.24515790E-02
  0.63421038E-02  0.16735632E-02  0.38142891E-02
  0.19334073E-02 -0.20248560E-02 -0.10053166E-01
 -0.43194132E-02 -0.79318070E-03  0.22323494E-02
  0.15989129E-02  0.17360875E-02  0.72385120E-02
 -0.62055983E-03 -0.69325440E-03  0.49998406E-03
 -0.43845434E-02  0.85623851E-03 -0.17149980E-02
 -0.96593671E-02  0.25858882E-02  0.14562954E-02
  0.42975688E-02  0.38957889E-02 -0.15439293E-02
  0.79258411E-03  0.97471319E-04 -0.24377314E-02
  0.77095691E-02 -0.64586723E-02 -0.18255125E-02
  0.81302213E-03  0.29166988E-03 -0.17612593E-02
 -0.10862206E-02 -0.19981907E-02 -0.42823039E-02
 -0.19897609E-02  0.13547657E-02  0.11921050E-01
 -0.16522487E-02  0.22910672E-02 -0.17350768E-02
  0.57561424E-02  0.14404086E-02  0.28145241E-02
  0.98445447E-03 -0.35587368E-02  0.10763259E-01
 -0.11631081E-02 -0.34606057E-02 -0.62506745E-03
 -0.10464774E-02  0.74563206E-02  0.27759932E-02
  0.62762196E-02 -0.26826162E-02 -0.43122349E-02
  0.27812308E-02  0.23272264E-02  0.55477682E-03
 -0.30622125E-02  0.27775805E-02  0.26402791E-02
  0.40214782E-02 -0.68361525E-03 -0.14916410E-03
 -0.52425329E-02 -0.17651326E-02  0.26784110E-03
  0.19728993E-02 -0.10607757E-01  0.20520253E-02
 -0.82486459E-02 -0.23312154E-02 -0.17990327E-02
 -0.41272544E-02  0.58753510E-03 -0.11743825E-02
 -0.69510404E-02 -0.11016909E-02 -0.95792157E-02
 -0.26849461E-02  0.29286283E-02  0.21217658E-02
  0.20241421E-03 -0.22790946E-02  0.19924720E-02
 -0.42569017E-03  0.71059546E-02  0.28027432E-03
  0.18503454E-02 -0.82766858E-03  0.38601879E-04
 -0.36009368E-02  0.41072801E-03 -0.17340665E-02
 -0.31086006E-02 -0.64781674E-02  0.55589382E-02
  0.25962708E-03 -0.10678428E-02 -0.74587955E-02
 -0.10376915E-02 -0.89113623E-02  0.38096571E-02
 -0.14401036E-02  0.27004891E-03  0.25262017E-02
  0.19580875E-02  0.20523244E-02  0.53527270E-02
  0.59108075E-02 -0.70632357E-02  0.48224323E-02
  0.45273908E-02  0.40851136E-02  0.12239096E-02
 -0.38767376E-02 -0.14004447E-02  0.40419509E-02
  0.12966253E-02  0.13529860E-02 -0.74038084E-02
  0.45789617E-02  0.21121435E-02  0.30384174E-02
 -0.31801449E-02 -0.78020390E-03  0.47245034E-02
 -0.28463969E-02  0.58385639E-02  0.11475676E-02
 -0.31551839E-03  0.20991036E-02 -0.41882431E-02
 -0.14972009E-02  0.31562036E-02  0.60906860E-02
  0.82887617E-03  0.35877018E-02  0.14077828E-02
  0.82237206E-02  0.14307532E-02  0.24798092E-02
  0.24508958E-02 -0.25836414E-02 -0.49249571E-02
 -0.40004788E-02 -0.66956547E-02  0.59267009E-02
  0.10808522E-02  0.34886684E-04  0.37806423E-02
 
           1
   2.00000000000000     
  0.12205553E+01 -0.70857976E-02  0.00000000E+00  0.00000000E+00
  0.25956268E+00  0.31419143E-01  0.12495881E+00
  0.98061567E+00  0.49983025E+00  0.61664706E+00
  0.49623737E+00  0.46007202E+00  0.73730277E+00
  0.49464864E-02  0.72753173E+00  0.49642710E+00
  0.24243012E+00  0.98979906E+00  0.87173217E+00
  0.74761716E+00  0.69782438E+00  0.38960331E+00
  0.95759328E+00  0.45275134E+00  0.12654798E+00
  0.98987856E+00  0.49064572E+00  0.24159170E+00
  0.72984484E+00  0.33275733E-02  0.62908036E+00
  0.77765155E+00  0.24949452E+00  0.98812650E+00
  0.96608347E+00  0.96655162E+00  0.39152027E+00
  0.25732552E+00  0.24666495E+00  0.85472747E+00
  0.77334031E+00  0.17569045E-02  0.13351451E+00
  0.20262313E+00  0.72281716E+00  0.72550263E+00
  0.99060340E+00  0.14090172E-01  0.75119462E+00
  0.24202700E+00  0.29646514E+00  0.49149047E+00
  0.33344107E-03  0.37341158E-01  0.62704517E+00
  0.97410740E+00  0.46901649E+00  0.48368100E+00
  0.52355020E+00  0.99643168E+00  0.14851998E+00
  0.24967166E+00  0.49714771E+00  0.86364245E+00
  0.51321821E+00  0.73480728E-03  0.26604121E+00
  0.97478238E+00  0.25810506E+00  0.24240838E+00
  0.74718836E+00  0.51480850E+00  0.87008349E+00
  0.74102233E+00  0.26065242E+00  0.63180201E+00
  0.22914883E+00  0.76048914E+00  0.98526942E+00
  0.26813225E+00  0.54962663E+00  0.62510613E+00
  0.72464583E+00  0.51426531E+00  0.12023373E+00
  0.73967628E+00  0.21538755E+00  0.37314486E+00
  0.47240306E+00  0.75831328E+00  0.51523908E+00
  0.22054150E+00  0.25024978E+00  0.98321755E+00
  0.24872100E+00  0.50034227E+00  0.36413720E+00
  0.48379776E+00  0.11054219E-01  0.88164880E+00
  0.48870271E+00  0.74790568E+00  0.24056229E+00
  0.51964270E+00  0.23412414E+00  0.78427503E+00
  0.24435974E-01  0.98314952E+00  0.13239963E+00
  0.23247753E+00  0.28009160E+00  0.62218439E+00
  0.49828118E+00  0.50286178E+00  0.77365897E-02
  0.22033513E+00  0.26020767E+00  0.23746959E+00
  0.53007970E+00  0.74218769E+00  0.73242097E+00
  0.79514185E+00  0.72487766E+00  0.23149113E+00
  0.11254213E-03  0.98718958E+00  0.49737872E+00
  0.99757680E+00  0.73863868E+00  0.79384205E+00
  0.71048111E+00  0.95182281E+00  0.88219233E+00
  0.25804038E+00  0.24109649E+00  0.37091230E+00
  0.93017064E+00  0.28180932E+00  0.75534979E+00
  0.75019036E+00  0.73338376E+00  0.50879298E+00
  0.24114512E+00  0.78355653E+00  0.51994015E+00
  0.47251794E+00  0.73181179E+00  0.34795753E-02
  0.74482718E+00  0.27787785E+00  0.86488407E+00
  0.44822875E+00  0.26189441E+00  0.24813236E+00
  0.99431850E+00  0.50130883E+00  0.88146752E+00
  0.46511878E+00  0.48053052E+00  0.33604143E+00
  0.26857429E+00  0.26283002E+00  0.74142975E+00
  0.96392237E+00  0.75981820E+00  0.98004195E+00
  0.74367698E+00  0.20567173E+00  0.50520088E+00
  0.99357141E+00  0.52525558E-01  0.99958412E-02
  0.21999409E+00  0.24330354E+00  0.12240744E+00
  0.50275797E+00  0.51276607E+00  0.49970326E+00
  0.46646566E+00  0.23133648E+00  0.98828048E+00
  0.99416354E+00  0.25538015E+00  0.51271308E+00
  0.48349367E+00  0.99654602E+00  0.18367417E-01
  0.96820648E+00  0.52545998E+00  0.35858182E+00
  0.11606494E-01  0.39155396E+00  0.99565791E+00
  0.50340590E+00  0.97464321E+00  0.47788707E+00
  0.73680479E+00  0.22805447E+00  0.22674159E+00
  0.72476413E+00  0.76162145E+00  0.98727503E+00
  0.21240364E+00  0.74542652E+00  0.22618895E+00
  0.52455672E+00  0.23781185E+00  0.49942723E+00
  0.12703905E-01  0.98899573E+00  0.28392587E+00
  0.14370236E-01  0.53706792E+00  0.73305247E+00
  0.74569466E+00  0.29856874E+00  0.99815411E-01
  0.49673531E+00  0.98526152E+00  0.76014207E+00
  0.24298960E+00  0.73118543E+00  0.91801326E-01
  0.51040353E+00  0.97271408E+00  0.62631659E+00
  0.94640104E+00  0.63532713E-02  0.88479881E+00
  0.21524270E+00  0.78120081E+00  0.37921610E+00
  0.50480293E+00  0.48296966E+00  0.87320894E+00
  0.73012813E+00  0.96272560E+00  0.38102925E+00
  0.72819599E+00  0.76319753E+00  0.10140920E+00
  0.53143321E+00  0.48293098E+00  0.61226232E+00
  0.74298503E+00  0.74655702E+00  0.76222065E+00
  0.32614877E+00  0.98482853E+00  0.37012766E+00
  0.74527472E+00  0.76827157E+00  0.63477663E+00
  0.23008764E+00  0.51812412E+00  0.12234356E+00
  0.25109100E+00  0.20744364E-02  0.62079726E+00
  0.48122110E+00  0.51803135E+00  0.13678978E+00
  0.24573580E+00  0.74670664E+00  0.85791533E+00
  0.73828641E+00  0.46668633E+00  0.37316069E+00
  0.26094090E+00  0.99683127E+00  0.24666795E+00
  0.77136610E+00  0.49153316E+00  0.74584009E+00
  0.25038513E+00  0.97920268E+00  0.73954673E+00
  0.71412066E+00  0.49402826E+00  0.24227594E+00
  0.24225375E+00  0.99816831E+00  0.99736929E+00
  0.73506398E+00  0.46774211E+00  0.49571244E+00
  0.24431219E+00  0.45939430E-01  0.49888514E+00
  0.74405433E+00  0.50785407E+00  0.99123876E+00
  0.74500814E+00  0.25225971E-01  0.76086533E+00
  0.26084405E+00  0.51912266E+00  0.24718906E+00
  0.27189059E+00  0.49635587E+00  0.74697089E+00
  0.78045944E+00  0.99954744E+00  0.25750101E+00
  0.24790601E+00  0.52590782E+00  0.50001723E+00
  0.73165836E+00  0.20593045E-01  0.11859650E-01
  0.74603393E+00  0.96393805E+00  0.49994512E+00
  0.24637357E+00  0.49809441E+00  0.98972600E+00
  0.89558411E-02  0.26008980E+00  0.37330117E+00
  0.49066636E+00  0.74375824E+00  0.87050833E+00
  0.49344639E+00  0.23436675E+00  0.62895365E+00
  0.98527350E+00  0.72723074E+00  0.10639895E+00
  0.37204785E-02  0.23965164E+00  0.86763240E+00
  0.48516782E+00  0.73523051E+00  0.36375450E+00
  0.10397549E-01  0.78662184E+00  0.62070151E+00
  0.49204413E+00  0.25503327E+00  0.12840001E+00
  0.18009290E+00  0.38194807E+00  0.47739966E-01
  0.63551423E+00  0.86335116E+00  0.55332288E+00
  0.61386440E+00  0.10649332E+00  0.95755969E+00
  0.13086261E+00  0.62072456E+00  0.43782451E+00
  0.34205675E+00  0.37560182E+00  0.93913653E+00
  0.82478746E+00  0.85562606E+00  0.44379069E+00
  0.84926187E+00  0.11227525E+00  0.64128460E-01
  0.35673755E+00  0.62487258E+00  0.55003892E+00
  0.89834443E+00  0.87731718E-01  0.20750474E+00
  0.38071169E+00  0.59679719E+00  0.69895912E+00
  0.86875150E+00  0.87672861E+00  0.30414102E+00
  0.37395237E+00  0.38902839E+00  0.80669041E+00
  0.12695722E+00  0.60736064E+00  0.28527974E+00
  0.62776625E+00  0.89259550E-01  0.81926323E+00
  0.14051990E+00  0.41514621E+00  0.20107822E+00
  0.63903026E+00  0.91564426E+00  0.69571819E+00
  0.85891713E+00  0.60030481E+00  0.94311044E+00
  0.35097981E+00  0.15464661E+00  0.44056954E+00
  0.84873226E+00  0.36601725E+00  0.54603441E+00
  0.32968261E+00  0.88180508E+00  0.44977444E-01
  0.14630200E+00  0.15034613E+00  0.55029951E+00
  0.63305471E+00  0.59171166E+00  0.45066663E-01
  0.12092031E+00  0.91927782E+00  0.94732167E+00
  0.64199137E+00  0.36642143E+00  0.43928961E+00