Na88 Ge16 P8 S96                        
   1.00000000000000     
    13.3422163233000006    0.0000000000000000    0.0000000000000000
     0.0000000000000000   13.3422163233000006    0.0000000000000000
     0.0000000000000000    0.0000000000000000   26.6844326466999995
   Na   Ge   P    S 
    88    16     8    96
Direct
  0.9829156072997116  0.7208303027744370  0.9951579840101811
  0.4712772597004439  0.9369480755304473  0.7701643740069088
  0.5027375987483776  0.4379212643553532  0.0118755263330461
  0.0027418080973289  0.9338620100918594  0.5233270349361134
  0.2473995477490373  0.2353096076118696  0.9941314913471438
  0.0379415613658074  0.7286793320661674  0.2865846675440693
  0.1841134541739952  0.7160147940527569  0.7326622572770572
  0.2719992148661939  0.2437264339353994  0.2230272545074561
  0.5380234553501168  0.9789510571109471  0.6323081991919920
  0.7424935412137353  0.0023361755758786  0.3833474903366866
  0.6815333635325391  0.6928335611917964  0.6530183726665224
  0.5316678546209047  0.4424648192415437  0.8733091320322678
  0.7476455018233289  0.2632687788019656  0.1291168079395195
  0.2926699562477937  0.7651478170319433  0.6083722831791815
  0.7812866330822147  0.9679414226224048  0.8623905924959503
  0.9469591452429090  0.4764907579810371  0.3945355291733115
  0.1788832993750999  0.2483373080907512  0.6326519422256994
  0.9258863190980389  0.6796495674044486  0.7627132370759756
  0.5149145973640069  0.4917610692658899  0.2393685660967855
  0.4267381832782530  0.2196259759453323  0.7489946238329741
  0.2456272350142688  0.9998243748269293  0.3628379699361332
  0.9667635651832359  0.1669833837018731  0.4765181892544792
  0.6581557441916281  0.6946207600801931  0.7861774715573896
  0.9466946469983419  0.4466573408925429  0.6078193200216523
  0.4864725508429436  0.2183558246409538  0.9723266222132309
  0.2102321921400425  0.4864938703130256  0.6163032439807629
  0.0020929248715965  0.9592463311724796  0.2233120181244119
  0.4959418195860014  0.9593585686106513  0.4883639695263690
  0.2483387671229074  0.7528585951372566  0.3502453099519601
  0.7286264189480526  0.9546631068855944  0.1345799409010085
  0.2061950446112967  0.4705439897311323  0.3611056271685647
  0.7250627623885593  0.2004014585105931  0.8724022200889464
  0.7768465343285618  0.7148919096984770  0.2445320866369106
  0.1148047694268277  0.2301954644402181  0.7472669789246530
  0.0015384824921768  0.9507145225809452  0.0793516412011064
  0.2842804820452964  0.0498418763893173  0.6334964773719877
  0.2120928776141479  0.9390705424303296  0.1252688681795149
  0.6909267678444878  0.2504135542142268  0.5095726457577708
  0.9539044655089757  0.3945895082537441  0.7483738628738351
  0.7809629578338791  0.5411230933102241  0.1161033438868954
  0.9539965878277080  0.2067327999820274  0.2476059366430766
  0.4691551779489788  0.7535640699382130  0.0231789147787882
  0.7516561962174583  0.6841367281594027  0.8833350316538625
  0.4788196423802105  0.9817381801874283  0.0913195519861029
  0.2121513676604176  0.9763802208734755  0.8808222481720672
  0.7615875104524344  0.8938118174584986  0.6367608170426889
  0.5134323084614029  0.7254186161565808  0.2346587928571670
  0.7160086675674234  0.7070925107055059  0.0063770643972750
  0.1999933927995464  0.1987112248920636  0.4873158556561680
  0.0060993148779901  0.3988416391292891  0.1316793162118264
  0.0138126720815478  0.2052510204996656  0.0074476267437417
  0.5154487608406343  0.9921925439671627  0.2374682991490199
  0.4319182838138471  0.3786362533170149  0.5193466686513407
  0.2375092708715302  0.7251101295315111  0.0170192260976808
  0.7448705599700370  0.1658408547183515  0.6437666517638798
  0.2522087068528588  0.4819930267237193  0.8686173535773475
  0.9283782983490142  0.4460971146844616  0.8761166748968742
  0.7016737985036660  0.5461814142115072  0.3851118158599410
  0.1747523027155659  0.5690239391940234  0.1390654565632282
  0.9958913773800171  0.7263558363199798  0.4951047057203051
  0.5110183947447988  0.9498139934058967  0.9283884765587499
  0.9687435619561454  0.4067547609011274  0.4952733834967478
  0.9595861361237000  0.9889129895542321  0.9557838603271315
  0.7433811333501135  0.7628276204629659  0.5152066726076120
  0.4948778498768793  0.9799449029209698  0.3659876018206525
  0.4575314665355757  0.7237293340322526  0.7557098150480126
  0.7409031095865770  0.7525276510674662  0.3661465043138282
  0.7400258069464414  0.1957150726648355  0.7595385576566649
  0.2142325291609427  0.7543762292303949  0.2247225475355409
  0.4167506176671247  0.4700415642269273  0.7663009021936992
  0.3207859323584527  0.4192056310067980  0.1131023945890834
  0.0007466073522739  0.9640781416260332  0.7654140125894828
  0.6357895367427797  0.2096082907424676  0.2437583109516363
  0.9856208294065910  0.9546228212348650  0.6241212773861251
  0.0057239349359814  0.4793408842649476  0.0045221855158300
  0.2708004746840050  0.2455069368742104  0.3709280176011851
  0.2273613784964175  0.7381281458501043  0.4857036024440303
  0.9975313189153100  0.9855134551913444  0.3856552634065719
  0.7759752540247747  0.2139883752790870  0.0044414961944265
  0.4481343418215196  0.5216902796500240  0.6336495534451106
  0.2779378903710250  0.1894477273914721  0.8650413309306246
  0.6863535909897421  0.2682379240055316  0.3644580115223996
  0.6951332248511988  0.4857557565351696  0.6310254149649435
  0.5313710358920523  0.4704587892642556  0.1331265228101190
  0.4950388042908759  0.6910678346104210  0.5103944474326401
  0.9996510683228879  0.4847312583395564  0.2592822669669116
  0.2557747802293207  0.7132997878436613  0.8717069802958610
  0.4781188005804163  0.4766032025449664  0.3791857295943976
  0.2720520024301756  0.0096551496952885  0.2445183857407546
  0.6788774443893022  0.4593910207729875  0.7460588851829317
  0.2374611121808726  0.9472493612492049  0.7452868385959668
  0.7436887579375966  0.4541047287104619  0.2492967273498383
  0.2235904012549309  0.9787494545247124  0.0072195611556792
  0.7320114487641661  0.4736092307329050  0.4950450809013181
  0.2432707848416281  0.9867957261009624  0.4992149310155948
  0.7601260464379744  0.4326265869729156  0.9959804345260388
  0.7197763545406498  0.9259632116346513  0.7618863841329458
  0.2696794952617751  0.5034865184641969  0.2439686997707640
  0.1703823071999468  0.4653476259184520  0.7418558154443371
  0.7595909165489231  0.9810444107907624  0.2655880727797501
  0.2290834764298794  0.4787265594109710  0.4954156952117556
  0.7425197355017878  0.9574189393183800  0.9896097327242189
  0.7487789443748567  0.0075860225089952  0.5144666623142604
  0.2656952320887236  0.4835106871565894  0.9943908582000744
  0.9884716621003643  0.2314114148473624  0.3712130000113754
  0.4918215858024699  0.7069933901986184  0.8870908831437735
  0.4660986510331125  0.2408330888528930  0.6260960369358550
  0.9969081373008818  0.7271469866216429  0.1288616161979925
  0.9805968120904708  0.1692871324629079  0.8734720136656438
  0.4919678998812064  0.7412648414417423  0.3775031552694973
  0.9834473680511603  0.7058008179182891  0.6234461780320782
  0.4953075258213428  0.2052064605680204  0.1238514814575820
  0.1768129738009512  0.3885243693845600  0.0563883863275587
  0.6428456438639639  0.9026372628004085  0.5554595509482083
  0.6469251630979338  0.0615315146201186  0.9466099981514954
  0.1184842565335621  0.5615483715667723  0.4512617219240883
  0.3663811334256318  0.3769366134285913  0.9564115119379353
  0.8412917517937616  0.9124829906952825  0.4615950266236217
  0.8190724763612187  0.0476539754996164  0.0448364188596711
  0.3536104690062927  0.5649151363652007  0.5346174712323484
  0.8217372857568884  0.0821869562373454  0.2053769600017798
  0.2593014855963562  0.5638713797628586  0.6965611085265253
  0.8585753064769888  0.8840176909147296  0.3195639759585567
  0.2687675166506880  0.3655461218532126  0.7891540658581189
  0.1794862558382421  0.6029904037426764  0.2983312263247648
  0.6421556840115984  0.0349480080262076  0.8061086316601210
  0.1621202207483612  0.4048544706840002  0.2014782240732559
  0.6234139905250415  0.8451516012718665  0.6999384306688685
  0.8452175237201446  0.5419482436427507  0.9492876532385627
  0.3486777821328484  0.0711953829834914  0.4430979653022892
  0.8054831677148385  0.3798465901201757  0.5528943507899604
  0.3318680986392666  0.8831127292670150  0.0561860284620716
  0.1472166393854268  0.0739051104896736  0.5551123902252399
  0.6625483931985318  0.5306083640069261  0.0419861255527762
  0.1275253183202180  0.8701254403127053  0.9613106068260365
  0.6355502684824390  0.3900697430298647  0.4419965835247020
  0.6439708585743650  0.3818237624506571  0.2993241937716953
  0.1504979835961797  0.8574680311748911  0.8062115281049385
  0.1445905347268042  0.0362000132139675  0.6911037903047744
  0.6747771144858044  0.5673098724980692  0.1996949167772698
  0.7712691752936401  0.3669127112018635  0.6949282351243593
  0.3599252022787282  0.9079129382582800  0.1931856137804106
  0.3662637667449744  0.1067755429207891  0.2881554946634923
  0.7827253567411754  0.5237994312052795  0.7977957067189723
  0.1248893925125324  0.0794349960207005  0.0436584440021380
  0.6726494101990667  0.5796885681277116  0.5435221008395772
  0.6821156963978836  0.3453471830154624  0.9372739711096223
  0.1439265169750786  0.8994425527611949  0.4508385066118835
  0.3109263868481018  0.0582623101673824  0.9493414125623403
  0.8438890430356552  0.5864650332722671  0.4601005545669004
  0.8585968712191139  0.3635668399350763  0.0528490707501413
  0.3371321937791747  0.8646152517661043  0.5373497860982840
  0.1610622846617104  0.0938822775856715  0.2049537383897709
  0.5788496784911030  0.5645087332972365  0.7099382761517210
  0.1584501401746779  0.8931082397849678  0.2845121940878962
  0.5679474981027376  0.3436945318665038  0.7817341891556185
  0.8501728171006288  0.5580696601497196  0.2929174821418449
  0.3042683373862898  0.0724129216185190  0.7917258130796788
  0.8481981130919445  0.3568002439306011  0.1933469689140178
  0.3467963613013434  0.8479408522093779  0.7013249056980073
  0.8306272719201759  0.8618252917615387  0.9424315417805953
  0.3204801894106221  0.3777710262450336  0.4434411417150893
  0.8561251552330912  0.1091254336976856  0.5592861825993131
  0.3747498005479260  0.5772644666794204  0.0397359876377681
  0.1338457312205206  0.3529017723407353  0.5351431195551075
  0.6423193562560195  0.8786500299653300  0.0426810965418169
  0.1564505499980857  0.5516200719371308  0.9472088456539628
  0.6498353285679551  0.0835529679121162  0.4590230689601102
  0.3599046967172143  0.4120431736981834  0.2895038745689670
  0.8235710102528226  0.8092451912754214  0.7994508897156872
  0.8293660160782136  0.0197102486037978  0.7138251449411986
  0.3497922870601372  0.5889616596773477  0.1868318322937982
  0.0734839275987565  0.3652468553501590  0.6860486034736978
  0.6611466793974270  0.8669487373395348  0.2245353678549450
  0.6599860529906053  0.0739473090270488  0.3082809314002644
  0.0625426996447909  0.5374698090316951  0.7944609631332121
  0.1067218721767477  0.1450273568282962  0.4074356763633523
  0.3895383374582512  0.7933348325279816  0.9288627446992497
  0.3504942179997223  0.3377060550547306  0.6583965842527008
  0.0563885510730744  0.6448691905673684  0.0702381345022690
  0.5565215415410828  0.3467818862744030  0.5929706682389791
  0.9592473971157454  0.6320917040736581  0.1856031929949788
  0.8778328464343986  0.3050480514416596  0.4186358555316377
  0.4085814737127796  0.6108297126362536  0.8348142563546173
  0.8901466390593599  0.1717516560811882  0.9363635511272090
  0.5900393896755783  0.8291241730589475  0.4246936009436383
  0.9041030800602483  0.8065222201390635  0.5728431491637787
  0.4517469312896965  0.3156881882898448  0.1813496632582488
  0.8692343146471768  0.6230268339873984  0.6602935475469890
  0.5706064486049950  0.3027760041253060  0.0748620300027230
  0.8980155570958533  0.2397375443432231  0.8194489149556645
  0.4078223089579435  0.8297702799994896  0.3363730946241996
  0.0362730891819958  0.7916845791236233  0.6745847916925674
  0.3625170575346813  0.1402485680367562  0.1040248680357646
  0.0153918836813711  0.0265782992178503  0.8591294817713274
  0.4015199536423181  0.6505533867539213  0.4233234387319498
  0.0942708797228943  0.2715362318180833  0.8920211301665996
  0.5845336395685496  0.6487096878073201  0.3304820992050533
  0.0769931731012794  0.6317872539202664  0.5800469375268934
  0.5902449556681312  0.1040466251908972  0.1606187856637385
  0.5426459308053835  0.1649823584286464  0.6728544585618405
  0.0792662651798501  0.8399699727915083  0.1674752582549845
  0.0653713841171301  0.3488125374072946  0.3354377173134097
  0.5759651302514412  0.8111921408910704  0.8496099544074839
  0.9105106520509542  0.1326420562225079  0.3343676542041026
  0.5813130627848980  0.6231557256074537  0.9339488024198190
  0.4054112029562861  0.1476524743441790  0.5731837261913769
  0.8727377306184024  0.7883994141270189  0.1019139837260997
 
  0.86365597E-02  0.33737172E-04 -0.66620469E-02
 -0.71938381E-03 -0.36276364E-02  0.12476468E-02
 -0.68137379E-02 -0.13821181E-02  0.18546513E-02
 -0.28498417E-03  0.17332164E-01 -0.88753463E-02
  0.66400157E-02  0.33671813E-03  0.17561308E-01
 -0.32224485E-02 -0.39122771E-02  0.94395681E-04
  0.38645129E-02  0.48431103E-02  0.11291037E-01
  0.63264479E-02 -0.23662817E-02  0.50159509E-02
 -0.19492784E-02 -0.15808938E-02 -0.13463379E-01
 -0.10807011E-01  0.26601729E-02 -0.60087222E-02
 -0.57728638E-02  0.10070674E-03  0.26153765E-02
  0.95999725E-02  0.45595216E-02 -0.27143099E-02
  0.15672407E-01  0.10157292E-01  0.41954608E-03
  0.45985886E-02 -0.22982863E-02  0.68448257E-02
 -0.16398006E-01  0.32397490E-03  0.14191709E-02
 -0.16520709E-02 -0.32409570E-02  0.86195184E-03
  0.11259139E-01  0.67699147E-02 -0.10630295E-01
 -0.24777495E-02  0.33338036E-02 -0.82118508E-02
  0.86266872E-02  0.45865921E-02  0.32980458E-02
  0.31588231E-02  0.33890629E-02 -0.57105488E-02
  0.39087798E-02  0.10693688E-01  0.31214302E-02
  0.51238108E-03  0.65422756E-02 -0.49466507E-02
 -0.73840949E-03 -0.90380268E-02 -0.53725681E-02
 -0.61861784E-02  0.49782410E-02 -0.17043437E-02
  0.15869052E-02  0.40147311E-02  0.13190213E-02
 -0.83901518E-02 -0.49777347E-02 -0.34920220E-02
  0.70702949E-02 -0.12799836E-02  0.41656924E-02
 -0.19741376E-02 -0.72588421E-02 -0.32184836E-04
  0.39301967E-02  0.25462492E-02  0.24862669E-02
 -0.24201624E-02  0.83813825E-03 -0.73786347E-02
  0.81662717E-02 -0.31026189E-02  0.30772697E-02
 -0.63882463E-02 -0.24459169E-03  0.26867334E-03
  0.98223959E-03 -0.70257929E-02 -0.72461860E-02
 -0.48768062E-02 -0.30125203E-02  0.27287546E-02
  0.52486265E-03 -0.12070690E-04  0.75250075E-02
  0.91869952E-02  0.43793113E-02 -0.92562808E-02
  0.59051454E-02 -0.72933275E-02  0.10529501E-01
 -0.40133496E-02  0.55728804E-02 -0.56918354E-02
  0.53728467E-02  0.21050653E-02  0.40119892E-02
  0.22995288E-02  0.14724309E-02 -0.52757784E-02
  0.20331078E-02  0.13859284E-02 -0.56135222E-02
 -0.93084254E-02 -0.44105027E-02 -0.23712921E-02
  0.38626501E-02  0.37246130E-02  0.61865377E-02
  0.63937879E-02 -0.35022952E-02  0.64215381E-03
 -0.36779921E-02  0.95864600E-02  0.24287449E-02
  0.21834454E-02  0.88062005E-03  0.30161196E-02
  0.59802350E-03 -0.46054466E-02  0.45445582E-02
 -0.14125389E-02  0.85657825E-02 -0.46773186E-03
 -0.38366374E-02 -0.10162339E-01  0.10126022E-02
  0.21797471E-02 -0.46812101E-02 -0.35580059E-02
  0.13313795E-02 -0.35086498E-02  0.71570406E-02
  0.10550253E-02 -0.17779897E-02  0.13170691E-02
  0.31278080E-02  0.26467857E-03  0.98124049E-02
  0.15080789E-02  0.27358530E-02  0.71488856E-02
  0.48168050E-02 -0.54003785E-02  0.63497556E-02
  0.82605575E-02  0.27946639E-02 -0.51842515E-02
  0.69602193E-02  0.11234119E-01  0.11223157E-02
  0.12533858E-02 -0.71128384E-02 -0.11058498E-02
 -0.15171977E-02  0.34198767E-03 -0.62830495E-02
 -0.88352655E-03 -0.51110031E-02  0.36499717E-02
 -0.62201778E-02  0.45722872E-02 -0.20713056E-02
 -0.86376915E-03  0.47839517E-02 -0.74095723E-02
  0.17242244E-02 -0.16372414E-02  0.51995279E-02
  0.18909059E-02 -0.46487253E-02 -0.87912846E-02
 -0.54436340E-02 -0.64040944E-03 -0.41978840E-02
 -0.11402193E-01 -0.14119944E-02  0.31658277E-02
 -0.32255097E-02  0.10159789E-01  0.82379040E-02
 -0.47412101E-02 -0.62446875E-02 -0.91152969E-03
 -0.88400893E-02  0.54004436E-02 -0.13327244E-01
  0.76672905E-02  0.28614859E-02  0.28398319E-02
 -0.69814790E-02 -0.80075377E-02 -0.90393238E-02
  0.88481705E-02  0.10365219E-02  0.10540772E-02
  0.47229780E-02  0.57143783E-02 -0.45644353E-02
 -0.45469289E-02 -0.49867267E-02  0.52370356E-02
  0.11857869E-02  0.74237321E-02 -0.79981874E-02
  0.16018402E-02  0.41106762E-02  0.13546080E-02
  0.10803079E-02 -0.15447420E-02  0.31876434E-02
  0.23833904E-03  0.44996798E-02 -0.66130301E-02
 -0.15465558E-01  0.34466313E-02 -0.47739046E-02
 -0.87708531E-02 -0.40261577E-02  0.13341869E-03
 -0.18198260E-02  0.52204547E-02  0.82598592E-02
  0.27524046E-03 -0.11672833E-02  0.42521924E-02
  0.31982212E-02 -0.88203570E-02  0.15519076E-01
 -0.22895415E-02  0.24098126E-03  0.10010343E-01
 -0.16694333E-02 -0.82345639E-03 -0.15778687E-01
 -0.71082232E-02  0.13194778E-02 -0.16472596E-02
  0.88404480E-02 -0.34917332E-02 -0.54139535E-02
 -0.28582114E-02  0.46925600E-03 -0.49727164E-02
  0.91533426E-04 -0.14431193E-02  0.12582253E-02
 -0.22788525E-02 -0.27824488E-02  0.13873833E-02
  0.10669091E-02 -0.16122303E-02  0.14389511E-02
 -0.19631303E-02 -0.37644662E-02 -0.47486473E-03
  0.80655100E-03 -0.21463529E-02 -0.14008134E-02
  0.52076929E-03  0.64371771E-04 -0.23641363E-02
  0.66884068E-03 -0.41793282E-02 -0.32791435E-02
  0.64907794E-03  0.76857856E-04 -0.44661224E-02
  0.76492423E-02  0.97310886E-03 -0.49743563E-02
 -0.23384286E-02 -0.56150146E-03  0.21860556E-02
 -0.52261691E-02 -0.31039016E-02 -0.52556940E-02
 -0.53276875E-02  0.13535647E-02  0.82136535E-02
 -0.39203604E-02 -0.34055694E-02  0.24323096E-02
  0.88065278E-03  0.63447318E-03 -0.12323244E-03
  0.41466559E-02 -0.72754744E-02  0.25223579E-02
 -0.70274683E-02  0.43928525E-03 -0.24303790E-02
  0.37026290E-02 -0.67035706E-02 -0.56829612E-02
 -0.38926074E-02 -0.17540103E-04  0.53041984E-03
 -0.18266296E-02  0.13508321E-01 -0.59737308E-02
 -0.26107817E-02 -0.21168152E-02 -0.27132393E-02
  0.13716027E-02  0.49515019E-02  0.65767897E-02
  0.29256866E-02  0.38655648E-02 -0.55685119E-02
 -0.75619164E-02 -0.50793759E-03 -0.10378390E-02
  0.19233973E-02  0.66122036E-04 -0.27441876E-02
  0.43936116E-02 -0.53331989E-02 -0.56288061E-02
 -0.42051061E-02 -0.36929996E-03 -0.94293122E-04
 -0.15800423E-03  0.64828421E-02 -0.59817981E-02
 -0.17968532E-02  0.95851839E-02 -0.14879185E-01
 -0.56449902E-02  0.22246146E-03 -0.32282742E-02
  0.75762489E-02  0.11390117E-02  0.95495232E-02
  0.28859481E-02  0.10695312E-01 -0.28399816E-02
  0.41141099E-02 -0.46798208E-02  0.43855943E-02
 -0.54298428E-02  0.27758652E-02  0.17712785E-02
 -0.16532170E-02  0.10894642E-01 -0.72431540E-02
  0.74299485E-02  0.15820820E-02  0.44177166E-02
 -0.59164286E-02  0.54862488E-02 -0.57347189E-03
  0.41544168E-02 -0.22957492E-02 -0.44329294E-02
 -0.46214153E-02  0.85101492E-02 -0.10038170E-01
  0.18095324E-02  0.90534693E-02 -0.52921698E-02
 -0.28138409E-02 -0.50343344E-03  0.63772871E-02
  0.87278280E-02 -0.59166224E-02 -0.11459006E-02
 -0.34676410E-02 -0.91638267E-02 -0.13247892E-02
 -0.40023430E-02 -0.11060966E-02  0.12291897E-02
  0.53556055E-02 -0.64897004E-02  0.48011301E-02
 -0.27926816E-02  0.43364385E-02  0.88861979E-02
 -0.34887680E-02 -0.17181906E-02 -0.87540548E-03
  0.83016417E-02  0.36313244E-02  0.14599217E-02
  0.69367700E-02 -0.41120818E-02 -0.24221405E-02
 -0.46635699E-03  0.21865098E-02 -0.71961274E-02
  0.37172828E-02  0.21857578E-02  0.33623815E-02
 -0.10448413E-02  0.27618617E-02  0.54524370E-02
 -0.24093538E-02 -0.16317773E-02 -0.71120862E-02
  0.26754137E-02  0.75052825E-02 -0.10656246E-01
 -0.42341935E-04 -0.49723737E-02  0.16648187E-02
 -0.93161215E-03  0.41300304E-02  0.30429893E-03
 -0.27096353E-02 -0.44303779E-02 -0.42936498E-02
 -0.28490498E-02  0.88389947E-03 -0.30636234E-02
 -0.37272789E-02 -0.37275884E-02 -0.60504126E-02
  0.83529741E-02 -0.45133977E-02 -0.31766013E-02
 -0.58619784E-02  0.70855714E-02  0.25474682E-03
  0.23807966E-02 -0.38422686E-02  0.44865707E-02
 -0.60456936E-03 -0.35967524E-02  0.96093380E-02
 -0.38029937E-02  0.53924107E-02  0.47642100E-02
 -0.43808934E-02 -0.32750053E-02  0.91599568E-02
 -0.77896451E-03 -0.14167378E-02 -0.29995805E-02
  0.59201781E-02 -0.47458159E-02  0.57258062E-02
 -0.10063845E-01  0.43153211E-02 -0.38767563E-03
  0.36655833E-02 -0.54670166E-02 -0.12355496E-02
 -0.41992021E-03  0.49538248E-02  0.73031146E-03
  0.36326137E-02 -0.27956824E-02 -0.49951325E-02
 -0.89503997E-02  0.83166920E-02  0.81716256E-02
  0.36415019E-02 -0.18519323E-02  0.53171648E-03
 -0.12610648E-02 -0.17062694E-02 -0.47782738E-02
  0.21131998E-02 -0.69945467E-02 -0.22199649E-02
  0.31114794E-02 -0.22290582E-04  0.60193637E-02
  0.36125187E-02  0.52186622E-02 -0.29878949E-02
  0.23793224E-02  0.60789121E-03  0.12314294E-01
  0.50829100E-02 -0.59552010E-02 -0.49694425E-02
  0.13956375E-01  0.23857640E-02 -0.24091413E-02
 -0.60190098E-02  0.22581093E-02  0.67266078E-02
 -0.53439351E-02  0.44044546E-02  0.23997827E-02
  0.65993172E-02  0.15822935E-02 -0.22428263E-02
  0.24902290E-02 -0.42595471E-02  0.70547216E-03
 -0.37814611E-02 -0.76247967E-03  0.75333155E-02
  0.44048781E-03  0.68622995E-02  0.39737688E-02
 -0.37390466E-02 -0.34324923E-02  0.79908705E-03
  0.15370276E-02  0.75342974E-02 -0.17074771E-02
  0.15615658E-02  0.53418047E-02 -0.12523514E-02
 -0.69115084E-05 -0.75687758E-03  0.74143486E-02
 -0.37592672E-02 -0.35982755E-02 -0.16418972E-02
  0.40252639E-02  0.14662609E-02  0.18877828E-02
 -0.52623262E-02 -0.25580496E-02 -0.30621563E-02
 -0.40202468E-02 -0.32068799E-02 -0.26167122E-03
  0.52610168E-02  0.29129750E-02  0.99927954E-02
  0.10213446E-02 -0.31772857E-02  0.20493816E-02
  0.80766908E-02  0.24686111E-03 -0.96930964E-02
  0.57206419E-02  0.86131316E-02 -0.58904087E-02
  0.46190476E-02  0.20044453E-03 -0.61518202E-02
 -0.16252948E-02 -0.42697204E-02  0.77105132E-02
 -0.37957564E-02  0.10275079E-02  0.10092293E-02
  0.21913866E-02 -0.65054395E-03  0.39652186E-03
  0.10220464E-03 -0.16509056E-02  0.11974665E-01
 -0.50620471E-02 -0.90369898E-02 -0.36107176E-02
 -0.35045099E-02 -0.20262808E-02 -0.54464250E-02
 -0.43849957E-02  0.59778178E-02  0.59308752E-02
  0.65940719E-02  0.16323483E-02  0.40219422E-02
 -0.41815076E-02 -0.47041224E-02 -0.22176569E-03
 -0.67524669E-02 -0.31404063E-02 -0.33996151E-02
  0.59898332E-02 -0.21639535E-02  0.88791810E-03
  0.39022674E-03  0.26434233E-02  0.22895154E-02
 -0.99662121E-02  0.24917481E-02  0.63722969E-02
  0.39941259E-02  0.58741285E-03  0.73062388E-02
 -0.26797817E-02 -0.34647063E-03  0.11470329E-01
  0.19392979E-02 -0.56795309E-02  0.53391420E-03
 -0.51215512E-02  0.41264814E-02  0.66661164E-03
  0.58501943E-03  0.41475415E-02  0.56888090E-02
  0.17441912E-02 -0.72814308E-02 -0.18346096E-02
  0.98287231E-03 -0.10583408E-01 -0.47222499E-02
  0.57173962E-02  0.28080726E-02  0.17030644E-02
 -0.21447953E-02 -0.75782596E-02  0.13737734E-02
 
           1
   2.00000000000000     
  0.97615074E+00 -0.18218732E-02  0.00000000E+00  0.00000000E+00
  0.98421023E+00  0.72083536E+00  0.99465866E+00
  0.47116942E+00  0.93640429E+00  0.77025789E+00
  0.50171622E+00  0.43771408E+00  0.12014533E-01
  0.26990889E-02  0.93646010E+00  0.52266183E+00
  0.24839489E+00  0.23536008E+00  0.99544771E+00
  0.37458516E-01  0.72809288E+00  0.28659174E+00
  0.18469275E+00  0.71674078E+00  0.73350852E+00
  0.27294755E+00  0.24337173E+00  0.22340320E+00
  0.53773126E+00  0.97871408E+00  0.63129912E+00
  0.74087357E+00  0.27349358E-02  0.38289714E+00
  0.68066801E+00  0.69284866E+00  0.65321440E+00
  0.53310689E+00  0.44314829E+00  0.87310569E+00
  0.74999480E+00  0.26479136E+00  0.12914825E+00
  0.29335929E+00  0.76480330E+00  0.60888530E+00
  0.77882857E+00  0.96798999E+00  0.86249696E+00
  0.94671150E+00  0.47600494E+00  0.39460013E+00
  0.18057105E+00  0.24935212E+00  0.63185520E+00
  0.92551490E+00  0.68014931E+00  0.76209776E+00
  0.51620774E+00  0.49244860E+00  0.23961575E+00
  0.42721169E+00  0.22013400E+00  0.74856662E+00
  0.24621316E+00  0.14273601E-02  0.36307192E+00
  0.96684037E+00  0.16796407E+00  0.47614744E+00
  0.65804506E+00  0.69326596E+00  0.78577480E+00
  0.94576734E+00  0.44740358E+00  0.60769158E+00
  0.48671043E+00  0.21895763E+00  0.97242548E+00
  0.20897451E+00  0.48574771E+00  0.61604152E+00
  0.31527630E-02  0.95905446E+00  0.22362424E+00
  0.49564590E+00  0.95827047E+00  0.48836156E+00
  0.24892790E+00  0.75324028E+00  0.35043166E+00
  0.72826364E+00  0.95478874E+00  0.13402691E+00
  0.20741917E+00  0.47007891E+00  0.36133627E+00
  0.72410516E+00  0.20036479E+00  0.87242236E+00
  0.77699377E+00  0.71383874E+00  0.24398898E+00
  0.11407374E+00  0.22974389E+00  0.74747150E+00
  0.16171595E-02  0.95071271E+00  0.79915641E-01
  0.28565761E+00  0.50498336E-01  0.63280272E+00
  0.21297806E+00  0.93797727E+00  0.12605805E+00
  0.69032517E+00  0.25124893E+00  0.50914604E+00
  0.95470986E+00  0.39490506E+00  0.74867456E+00
  0.78130766E+00  0.54134381E+00  0.11570792E+00
  0.95430135E+00  0.20694055E+00  0.24718520E+00
  0.46775984E+00  0.75290293E+00  0.23001186E-01
  0.75223521E+00  0.68469505E+00  0.88379871E+00
  0.47977807E+00  0.98121319E+00  0.91367681E-01
  0.21160004E+00  0.97781723E+00  0.88100428E+00
  0.76191481E+00  0.89394382E+00  0.63698688E+00
  0.51352195E+00  0.72472826E+00  0.23499941E+00
  0.71579693E+00  0.70837652E+00  0.63420079E-02
  0.19941828E+00  0.19718789E+00  0.48739175E+00
  0.64260593E-02  0.39813993E+00  0.13141264E+00
  0.14012246E-01  0.20472507E+00  0.79840474E-02
  0.51560691E+00  0.99192602E+00  0.23756701E+00
  0.43238714E+00  0.37867593E+00  0.52008211E+00
  0.23773533E+00  0.72552023E+00  0.17555036E-01
  0.74559260E+00  0.16503134E+00  0.64424257E+00
  0.25344697E+00  0.48241195E+00  0.86822879E+00
  0.92942164E+00  0.44778111E+00  0.87620079E+00
  0.70186168E+00  0.54511520E+00  0.38502893E+00
  0.17452487E+00  0.56907520E+00  0.13859454E+00
  0.99575894E+00  0.72558970E+00  0.49537827E+00
  0.51008599E+00  0.95049938E+00  0.92823323E+00
  0.96861408E+00  0.40747188E+00  0.49471804E+00
  0.95984460E+00  0.98866757E+00  0.95617357E+00
  0.74366458E+00  0.76213078E+00  0.51454777E+00
  0.49406185E+00  0.97984891E+00  0.36567297E+00
  0.45582228E+00  0.72351768E+00  0.75594709E+00
  0.74041961E+00  0.75405060E+00  0.36676394E+00
  0.73931510E+00  0.19477899E+00  0.75947024E+00
  0.21290740E+00  0.75518576E+00  0.22372367E+00
  0.41789995E+00  0.47047050E+00  0.76651375E+00
  0.31973941E+00  0.41800530E+00  0.11242490E+00
  0.20729493E-02  0.96423352E+00  0.76549302E+00
  0.63649751E+00  0.21046488E+00  0.24341621E+00
  0.98493924E+00  0.95387531E+00  0.62451379E+00
  0.59016846E-02  0.48045370E+00  0.39227208E-02
  0.27104059E+00  0.24612313E+00  0.37102955E+00
  0.22752332E+00  0.73789659E+00  0.48594252E+00
  0.99756705E+00  0.98618796E+00  0.38515962E+00
  0.77365696E+00  0.21450503E+00  0.40836917E-02
  0.44681959E+00  0.52108676E+00  0.63365955E+00
  0.27766510E+00  0.19023027E+00  0.86566041E+00
  0.68639485E+00  0.26806295E+00  0.36477671E+00
  0.69561264E+00  0.48443358E+00  0.63218857E+00
  0.53102783E+00  0.47049491E+00  0.13387680E+00
  0.49478856E+00  0.69094440E+00  0.50921183E+00
  0.99858554E+00  0.48492905E+00  0.25915880E+00
  0.25709996E+00  0.71277638E+00  0.87130120E+00
  0.47769035E+00  0.47667354E+00  0.37881302E+00
  0.27206572E+00  0.94388259E-02  0.24461269E+00
  0.67853584E+00  0.45897393E+00  0.74616287E+00
  0.23762104E+00  0.94700769E+00  0.74539469E+00
  0.74339448E+00  0.45354043E+00  0.24926114E+00
  0.22371130E+00  0.97842772E+00  0.71145701E-02
  0.73208951E+00  0.47361888E+00  0.49486789E+00
  0.24337104E+00  0.98616924E+00  0.49896916E+00
  0.76022334E+00  0.43263811E+00  0.99564570E+00
  0.72092298E+00  0.92610908E+00  0.76151356E+00
  0.26932896E+00  0.50340235E+00  0.24413254E+00
  0.16959890E+00  0.46488235E+00  0.74146190E+00
  0.75879230E+00  0.98124731E+00  0.26620369E+00
  0.22849581E+00  0.47821606E+00  0.49559800E+00
  0.74265175E+00  0.95751405E+00  0.98960050E+00
  0.74940053E+00  0.64954279E-02  0.51465571E+00
  0.26464181E+00  0.48357654E+00  0.99420870E+00
  0.98902669E+00  0.23040655E+00  0.37078706E+00
  0.49123808E+00  0.70699076E+00  0.88713064E+00
  0.46582484E+00  0.24285799E+00  0.62564831E+00
  0.99651678E+00  0.72682968E+00  0.12865826E+00
  0.98080242E+00  0.17002936E+00  0.87396494E+00
  0.49240646E+00  0.74184429E+00  0.37708579E+00
  0.98231384E+00  0.70572468E+00  0.62336839E+00
  0.49559584E+00  0.20521637E+00  0.12364580E+00
  0.17747158E+00  0.38772492E+00  0.55966507E-01
  0.64221530E+00  0.90258190E+00  0.55545248E+00
  0.64690148E+00  0.62503294E-01  0.94616166E+00
  0.11821491E+00  0.56298519E+00  0.45014653E+00
  0.36553495E+00  0.37696996E+00  0.95616955E+00
  0.84242743E+00  0.91265373E+00  0.46231076E+00
  0.81950508E+00  0.49257204E-01  0.44623562E-01
  0.35422717E+00  0.56421363E+00  0.53494617E+00
  0.82092335E+00  0.82603059E-01  0.20550972E+00
  0.25905367E+00  0.56550449E+00  0.69601823E+00
  0.85968906E+00  0.88425485E+00  0.31989508E+00
  0.26788064E+00  0.36636851E+00  0.78911108E+00
  0.18010900E+00  0.60264627E+00  0.29799898E+00
  0.64146293E+00  0.36223681E-01  0.80535627E+00
  0.16239147E+00  0.40621159E+00  0.20108158E+00
  0.62299220E+00  0.84507614E+00  0.70041641E+00
  0.84652583E+00  0.54106134E+00  0.94920177E+00
  0.34815798E+00  0.69821724E-01  0.44299867E+00
  0.80488322E+00  0.37968079E+00  0.55298648E+00
  0.33267090E+00  0.88213992E+00  0.56545873E-01
  0.14679802E+00  0.74555143E-01  0.55577841E+00
  0.66202543E+00  0.53035081E+00  0.41920514E-01
  0.12876974E+00  0.87066978E+00  0.96142003E+00
  0.63659009E+00  0.38945334E+00  0.44181504E+00