Na88 Sn16 P8 Se96                       
   1.00000000000000     
    14.0793397336999995    0.0000000000000000    0.0000000000000000
     0.0000000000000000   14.0793397336999995    0.0000000000000000
     0.0000000000000000    0.0000000000000000   28.1586794673000007
   Na   Sn   P    Se
    88    16     8    96
Direct
  0.3007297458881534  0.0262740070953986  0.1303308609424977
  0.5051728888356789  0.4801438201423796  0.7460341402081446
  0.4769356419758676  0.4400436053827972  0.8741493818075546
  0.9557648496489310  0.0070291048180625  0.4906955646333142
  0.7658436152532757  0.0112296370654188  0.8691389490225307
  0.9093023171012361  0.4762191098684119  0.3734107768915498
  0.7480809996872961  0.7374302250752417  0.2135013452936017
  0.1942381172064495  0.2352308571283975  0.9846595678219665
  0.7899640107580568  0.7463370256491398  0.5972028198363349
  0.7192808703955480  0.2632713285415228  0.8664637305245160
  0.6739988872194603  0.6055057845528165  0.3578692330966809
  0.9986825788483090  0.9846623761393922  0.8887410609832731
  0.7492176618678221  0.2391913477848744  0.1249444343661836
  0.2488896300260941  0.7517374713228834  0.7381691092105426
  0.4571347645203860  0.0347302430570471  0.8755307112010667
  0.2309154009617963  0.5364634916599803  0.3723625659242328
  0.0180237094628102  0.9881977398449990  0.6219755376564943
  0.0171825253448096  0.4690702773980671  0.7614405099917183
  0.5767513306389153  0.0001751586018518  0.1340581752543294
  0.0008351954727775  0.0149378269227999  0.9874710025711573
  0.4435151719355424  0.0579741298565139  0.3898194927637245
  0.2357621388109489  0.2703764299713792  0.3977783381400901
  0.7867950187887762  0.7707378093674417  0.8824027752646768
  0.4976311310673260  0.4733394556934755  0.5094658164088162
  0.2270356341448444  0.7757433101396606  0.3754149642505792
  0.2278684239567750  0.1601207148540866  0.6005967807386604
  0.5126319150819816  0.7454703571234566  0.2390302174439773
  0.7373980682325608  0.2487498898405187  0.3819903308169598
  0.4981432198731782  0.1807128261736237  0.4979721901884493
  0.5155277541402081  0.2497302515473007  0.9988004975833027
  0.9810031955113947  0.7584526851372037  0.5028984212465939
  0.5173724936771881  0.7222928835256546  0.7225531122048960
  0.7991478597099854  0.5570544900120575  0.1070222837061008
  0.7630564517365531  0.4941310546595702  0.6189915246449745
  0.9924380016041636  0.5109725770215832  0.9988703811873110
  0.7424602333892399  0.2322074820253220  0.4857359336063711
  0.5141676344783731  0.7491770065479790  0.9966763812581613
  0.2623481806171497  0.2830463913711797  0.1153565608835194
  0.2401030270884893  0.7568785532038227  0.8616232335922507
  0.9492388069033761  0.7366339739865859  0.2565089325208034
  0.0412848201665853  0.0229709442011893  0.2451587150192428
  0.8001626591947910  0.2843983365720064  0.7433774506158678
  0.4919580570635702  0.9829339387997416  0.7465274319853757
  0.9895459297267267  0.5123310822485172  0.2418876141468349
  0.0368490810725510  0.7380447243896407  0.9774098957539940
  0.6932001501248909  0.7616181561565848  0.4659997860590356
  0.2371435625895599  0.7699160643544506  0.5077047568017842
  0.7838960824861522  0.2581242409881215  0.9968473103432191
  0.0060986002565638  0.0400001971843905  0.7648565672219036
  0.4868705197409853  0.2837652359827395  0.2486489526570720
  0.9561025119964275  0.7556226349275901  0.7591374204851478
  0.5376174759490073  0.0061659901328847  0.2755153269896203
  0.2470502942962916  0.2620826616033036  0.5004341059468468
  0.8086571713041220  0.7446255614510311  0.0113564682225940
  0.7517259259987318  0.2725309080603066  0.6308722341781179
  0.2545733926451276  0.7592705753127961  0.1259091247887389
  0.0304283185346407  0.9856878069050162  0.1153950514820377
  0.4565723811202371  0.8030044522979954  0.5109248946267687
  0.5254229031659724  0.5214833080361864  0.9858241243781990
  0.0106273720502476  0.2985451243872902  0.4989896793031877
  0.4751729636695083  0.0198166528159952  0.0052988265235108
  0.0355650255364577  0.4588706826299819  0.6244403823070267
  0.0009744313457856  0.3812952187629894  0.1072702617942543
  0.4831502003935641  0.9742326204741846  0.5941145783632185
  0.1953420426534315  0.2973630024632450  0.2746749481298690
  0.7261331381638380  0.7522165629331835  0.7634529349476507
  0.2579694823112518  0.0070271973726497  0.3735055912767039
  0.2087487290709508  0.2559206426678438  0.7711951731492253
  0.4860360746232433  0.5120960475802682  0.2367480501867618
  0.4972623875040705  0.2397239828115305  0.7409326796296796
  0.7609401611722755  0.2479082125993644  0.2316880450957923
  0.2429267904665492  0.7116868458568389  0.9776745474127616
  0.2425461678014844  0.4945526111728071  0.1136194611546871
  0.7129199266103937  0.0103913928342991  0.6265640539117512
  0.2432559206413407  0.9805814819005408  0.8655367764276695
  0.4821044189784142  0.4843917093225390  0.3764063492194019
  0.9647486903302137  0.4898824313739346  0.8809234297850382
  0.7280500696587066  0.8961876419876771  0.3755864731082873
  0.7680216663556779  0.9527299038361430  0.1189348012961814
  0.2514927315022134  0.4996466934127337  0.6228922493751474
  0.7151225954179914  0.5477892681191672  0.8600337083979038
  0.9822308895137337  0.0305520987845734  0.3741448699282381
  0.5083395852388835  0.5627678859772534  0.6223203636408060
  0.2505774664515065  0.7540398423522441  0.2438492127539312
  0.2484888366244656  0.7944706385578310  0.6304756071737231
  0.5058820621573361  0.5340793931507707  0.1000474912304346
  0.2282825543005957  0.4623206055110319  0.8621332632729286
  0.9805333835554509  0.5163501627368068  0.4838518297235210
  0.2926845364591286  0.0189621802323367  0.2554866641911714
  0.7684136214274517  0.5138018144574049  0.7416234968944729
  0.2411916778725434  0.9914236770513949  0.7349866254193138
  0.7447157719481660  0.4907525894438005  0.2466822702585825
  0.2741393075520940  0.9612242648195661  0.0022243515459889
  0.7319390220230931  0.4976495836645224  0.4818473391653985
  0.1941540550460961  0.0289850431807378  0.4997671141980774
  0.7489130012700954  0.5112082580537587  0.9952095610756271
  0.7629669393323029  0.9981217398484606  0.7476915265401688
  0.2355765027869687  0.5140041748323492  0.2477983187627702
  0.2800838849303716  0.5062872833246697  0.7491654572931175
  0.7821021535002812  0.0102535830880566  0.2583865070639335
  0.2531979356850268  0.5384902329261125  0.4966784489208456
  0.7459815510943211  0.9964173239474476  0.9940280413565051
  0.7091360638151757  0.9829233342131475  0.5108562382596185
  0.2535548326267703  0.4904337169905861  0.9914516940087327
  0.0122297651855089  0.2700118043966211  0.3626531273452987
  0.5124531474476541  0.7352445710229223  0.8564223417035568
  0.4992623857966434  0.2438418530503333  0.6181933562705387
  0.9904310808294080  0.7609781228586120  0.1243867142391154
  0.0010359334627910  0.2277179440638663  0.8845795503025290
  0.4811004799491661  0.7671863425542088  0.3711164617460154
  0.9992223207787350  0.7311435809675185  0.6266320164419408
  0.5185796793858805  0.2378661167873929  0.1182485598492366
  0.1595917622451331  0.3711778751148122  0.0367974433225221
  0.6195247320555832  0.8518903959514943  0.5606254916927156
  0.6379127734941643  0.1028838229666027  0.9435598419130753
  0.1358928165693714  0.6490663915355771  0.4610060797822939
  0.3707312150836803  0.3695263860270208  0.9465040575728603
  0.8214028068395416  0.8948656291773105  0.4526759717488743
  0.8588082605089061  0.0925057818052235  0.0429818200434159
  0.3594192394369791  0.6375798497165961  0.5553178754666434
  0.8575653541142252  0.0719968462421618  0.1842085363218180
  0.3792609091532045  0.5956464395893720  0.6874791561263069
  0.8910769163391261  0.9195239972809066  0.3081875315221015
  0.3663402923876372  0.3764597607820153  0.7916591105925955
  0.1005398607960986  0.6091018354747072  0.3070744885041581
  0.6547682681752784  0.1020459572153837  0.7972659809084813
  0.1264218570476024  0.4008272113823091  0.1856441654199224
  0.6630857572717869  0.8864055642908194  0.6971313825022336
  0.8602383592468658  0.6232112184111491  0.9480519868372357
  0.3075098679410392  0.1257594509001201  0.4552115005261961
  0.8465940146763636  0.3905645245031440  0.5333445789866339
  0.3678464546346663  0.8408867507654294  0.0574156038610467
  0.0722329799997464  0.1286013234606588  0.5381963927841050
  0.6357765149099482  0.6176819031596317  0.0422011879926554
  0.1585136757982618  0.8816426423987926  0.9431171965586471
  0.6406303997751044  0.3706753957284664  0.4392686581011924
  0.6255218997375809  0.4148087814828509  0.3047628794163020
  0.1480102412664530  0.8848496201860544  0.7921419081126919
  0.1531577507830888  0.1042965653331639  0.6880640874313517
  0.6301463950495457  0.5877649035320960  0.1827694672715492
  0.8837169989026091  0.4240001838969447  0.6846850658216357
  0.3799686074954336  0.9205507926930733  0.1959109038964139
  0.3817128450737426  0.1317930696533844  0.3112563079796856
  0.8699865679626044  0.5919488921970314  0.7979083159993359
  0.1792869877840900  0.0739890383381658  0.0569941273435199
  0.6344448819362246  0.5918056544280150  0.5476210929716117
  0.6482073163491480  0.4107802893966517  0.9381324888607629
  0.1049930027615140  0.9070013472954763  0.4444912635796731
  0.3394017514645175  0.0878753986639956  0.9484514015358043
  0.8214199169284508  0.6080366651355832  0.4313307152026398
  0.8566573275959185  0.4086413901261939  0.0476038878691162
  0.3090851723845844  0.9352782114645882  0.5542045967627693
  0.2136241366281660  0.1311475053215385  0.1997946995255450
  0.6619573587478320  0.6065956580748363  0.6913957638934780
  0.1739428138486460  0.9082720004516115  0.2932121748931992
  0.6824218246969322  0.3957038034727309  0.7947653924754968
  0.8323663456763363  0.6143654114430271  0.2946228430130349
  0.3349881785052036  0.0886533898743847  0.7961021241192808
  0.8512233872762418  0.4155999086233599  0.1820002206286257
  0.3609227948198445  0.8927084659026516  0.6941762223760047
  0.8609217327668411  0.9020384712446871  0.9486102870896954
  0.3388923985034699  0.4201654818106060  0.4446497306024348
  0.8385452106930101  0.0919716847139380  0.5534047501496985
  0.3450749001885647  0.5970339180745321  0.0421174359008622
  0.1399850575261383  0.4277778030431327  0.5441269654089385
  0.6660116450984053  0.8776127767616096  0.0405268895893329
  0.1385338443414778  0.5808258365091853  0.9370294037681182
  0.6093052334292597  0.0654951798382288  0.4403607811547303
  0.3390977993643394  0.4261865031162611  0.2989932538834402
  0.8661392812447746  0.8902920871451644  0.8042389133337504
  0.8527254081479169  0.0995568653323489  0.6952250249672814
  0.3414641626698944  0.6096160758021605  0.1865585241702363
  0.1711206600785168  0.4037044360532233  0.7019784312712603
  0.6608235559047136  0.9036876837580805  0.2093650922314570
  0.6734122204052081  0.1379465937927631  0.2967034457945141
  0.1671147693215293  0.5992353801142735  0.8007862032978131
  0.1233781264467299  0.1741094096606777  0.3362453352318733
  0.5686149125407410  0.6231044886226966  0.8086902996205212
  0.5792378554601630  0.3574673667902304  0.6600800911183941
  0.0771663911302609  0.8469201772666961  0.1815268469745147
  0.4178911996678220  0.1250314481315017  0.6557205781680679
  0.9073371600688406  0.6695305236351110  0.1758538956817768
  0.9153987422518033  0.3274134280058610  0.3058274774479663
  0.4041993412491688  0.8140122016207242  0.8134909627225595
  0.0752180631081931  0.3222228464368925  0.8326712819404977
  0.5536750185498530  0.6750971844351185  0.4229473169395151
  0.0734602907496241  0.8322981601715251  0.5792311429459773
  0.6018719390882961  0.3222804588957965  0.0640776999034224
  0.9345689200248529  0.6183590850706900  0.5848550706016008
  0.4051194093389388  0.1470997346901876  0.0793818567594696
  0.8831713629859280  0.1559333603260972  0.8475872173307490
  0.3732445181218054  0.8558496296750097  0.4152781273411671
  0.8867365573407051  0.7921967048244725  0.6695222081311503
  0.4345832919394551  0.3629535897846976  0.1448150545228951
  0.9542122774340156  0.3136879267630360  0.9439250727545639
  0.4015422537966596  0.6504007254356000  0.3274621852041252
  0.1188838954354587  0.1404555354163597  0.9106339241822308
  0.5706724180627314  0.8534742437130883  0.3230834654380386
  0.1168496548681791  0.6615961219574694  0.6716832750297194
  0.5872089957600837  0.1752086285485624  0.1897487867208342
  0.4118717142982754  0.3257042921398395  0.5648623398559516
  0.9196368904326913  0.8642462756437094  0.0706646826521359
  0.9098390906357384  0.1975982328516508  0.4166538964102799
  0.4404275049502093  0.6485885080514590  0.9130335441430283
  0.0742007412129506  0.3916645985922978  0.4058497700844390
  0.6007860702099751  0.8530230560389267  0.8851269005036716
  0.6299319546634046  0.1759552680492357  0.5827489995835775
  0.0817395863846040  0.6633568664686851  0.0778418167068526
 
  0.32380487E-02 -0.70840432E-02 -0.57159160E-02
  0.70527690E-02 -0.13657094E-01  0.14996418E-02
 -0.10923768E-02  0.79617906E-02 -0.38580763E-02
  0.31747609E-03 -0.39337012E-02  0.68024556E-02
 -0.17372914E-02  0.43401173E-02  0.56007684E-02
 -0.34139475E-02  0.25477849E-03 -0.69913104E-02
  0.41006731E-03 -0.48254863E-02 -0.55605025E-02
  0.89430131E-02  0.11110422E-02 -0.50459920E-02
 -0.39164663E-02  0.11739586E-02 -0.47831452E-02
 -0.76466209E-02  0.55316180E-02 -0.66267391E-02
 -0.21266310E-02  0.47199863E-02 -0.12641494E-02
 -0.19533792E-02  0.89337803E-02  0.13698788E-01
 -0.13008987E-02 -0.89069108E-02 -0.12646202E-01
  0.63746493E-02 -0.60661951E-02  0.67578579E-02
 -0.57157060E-02  0.26610835E-02 -0.11047418E-02
 -0.55879412E-03  0.81132805E-03  0.48619485E-02
 -0.45654531E-02  0.16076239E-02 -0.68865902E-03
  0.56068297E-03  0.83002891E-02  0.93284600E-02
 -0.26599920E-02 -0.24431304E-03 -0.63615731E-02
 -0.44673759E-02 -0.30689907E-02 -0.43484398E-02
  0.51346320E-02  0.31261888E-02  0.34237028E-02
 -0.98575186E-02  0.42546707E-02 -0.16030398E-02
 -0.15245362E-02 -0.89403786E-03  0.48224807E-03
  0.21931488E-03  0.46983702E-02 -0.86314427E-02
 -0.13583333E-02 -0.13397948E-02 -0.11082774E-01
  0.45909067E-02  0.11889038E-02  0.11522888E-01
  0.18769504E-02 -0.46440869E-02 -0.36701464E-02
 -0.97662428E-03  0.13265882E-02  0.11008652E-02
  0.33958516E-02 -0.13438153E-02  0.55538437E-02
 -0.40475180E-02  0.49384156E-02  0.11787459E-01
 -0.27759973E-02  0.81957443E-02  0.30227816E-02
 -0.15673733E-02 -0.29364425E-02  0.72554515E-02
  0.27745510E-02  0.45537172E-02  0.17658865E-02
 -0.70291873E-02 -0.43129366E-03  0.20568267E-02
  0.18795984E-02 -0.13980227E-03 -0.17236565E-02
 -0.28792362E-02 -0.20425200E-02 -0.19849818E-02
 -0.39566273E-02  0.37275726E-02 -0.63248001E-02
 -0.55510918E-02  0.16158043E-02 -0.98200467E-02
  0.41941547E-02 -0.48854127E-02 -0.22779198E-02
  0.82369508E-02 -0.67879167E-02  0.57711899E-02
 -0.66799777E-02 -0.14555877E-02  0.53998992E-02
  0.41576387E-02 -0.30927032E-02  0.11882667E-02
 -0.60170356E-02  0.55330082E-06  0.12342461E-02
 -0.82253980E-02  0.38731982E-02 -0.20345194E-02
 -0.41870178E-02  0.49582797E-02  0.17130269E-03
  0.22465733E-02  0.72565106E-02 -0.24360973E-03
 -0.82234235E-02  0.21304506E-02 -0.98665633E-02
 -0.93077010E-02 -0.11491325E-01  0.56173157E-03
  0.29374266E-03 -0.25255079E-02 -0.60780659E-02
  0.10628421E-01  0.77258871E-02 -0.46418519E-02
 -0.13665601E-02  0.46313022E-02 -0.59464010E-02
  0.28325209E-02 -0.17902672E-02 -0.37713235E-03
 -0.57585703E-02  0.87826677E-02  0.87062412E-02
 -0.72736812E-02  0.22132660E-02  0.88441849E-02
 -0.50238225E-02  0.75460445E-02  0.90813648E-02
  0.17656237E-02 -0.34542304E-02 -0.10995261E-01
 -0.25558514E-02  0.34454495E-02  0.47749448E-02
  0.30782484E-03  0.67461439E-02  0.18691393E-02
 -0.11627258E-01 -0.34365585E-02 -0.79572213E-03
  0.11079734E-01 -0.31084989E-02 -0.39750375E-02
  0.17576801E-02  0.63006035E-02 -0.33358378E-02
  0.30915104E-02 -0.86210937E-02  0.51656642E-02
  0.99396914E-02 -0.24125735E-02  0.63165485E-02
 -0.25797975E-02 -0.68484847E-02 -0.47444030E-02
  0.47786540E-02 -0.26255880E-03 -0.39120932E-03
 -0.10080998E-02 -0.85647155E-03  0.10760461E-04
 -0.28313194E-02  0.32940119E-02 -0.40765488E-02
  0.28947237E-02 -0.36439895E-02  0.26713400E-02
 -0.62957266E-02 -0.57034236E-03  0.21856053E-02
 -0.37756147E-02 -0.13664561E-01  0.51084346E-02
 -0.50115773E-04  0.56739008E-02 -0.82004591E-02
 -0.43778214E-02 -0.27392015E-02 -0.42780803E-02
 -0.20277592E-02  0.42001581E-02  0.88227721E-02
 -0.78854810E-03 -0.10563394E-02  0.88206507E-02
 -0.31656685E-02  0.41891159E-02  0.36574032E-02
 -0.11823945E-02 -0.58933294E-02 -0.47255084E-02
 -0.18182919E-02  0.80236857E-02 -0.50515770E-02
 -0.23298484E-03  0.36437579E-02  0.12896091E-02
 -0.61571505E-02 -0.86095126E-02  0.12987621E-02
  0.89593426E-02 -0.41512453E-02 -0.38416774E-02
  0.85161194E-03 -0.27226210E-02 -0.99280287E-03
 -0.37380147E-02 -0.75321990E-02  0.12614924E-02
 -0.39116415E-02  0.16588326E-02  0.53739801E-02
  0.80947718E-02 -0.81404108E-02  0.40407669E-02
  0.41386165E-02 -0.62424693E-02  0.79333847E-02
  0.62196332E-03  0.19788372E-02  0.83053526E-02
 -0.11253470E-02  0.20849937E-02 -0.67655932E-02
 -0.10322321E-01 -0.25532884E-03 -0.37975795E-02
 -0.19825003E-03  0.19494499E-02 -0.16179710E-02
  0.25514597E-02  0.20528245E-02  0.31920197E-02
 -0.57926309E-03 -0.22058290E-02  0.29484095E-02
  0.23212184E-02  0.37362612E-02 -0.39880099E-04
 -0.12566681E-02 -0.38641433E-02  0.49400883E-03
  0.25275556E-02 -0.32603985E-02  0.13826495E-02
  0.16193962E-02  0.78013210E-04 -0.16371272E-03
  0.24411141E-02  0.27335721E-02  0.11869973E-02
 -0.30948205E-02 -0.28652530E-03 -0.38447889E-02
  0.38127398E-03 -0.15181915E-02 -0.66040538E-03
  0.36781099E-02 -0.39775531E-03 -0.76710185E-03
 -0.84898910E-03 -0.31798459E-03 -0.62193629E-03
 -0.27834014E-02  0.32445658E-02  0.47655105E-02
  0.97453209E-03 -0.28257331E-02 -0.48634703E-02
 -0.14025602E-02 -0.24180599E-02 -0.13685794E-02
  0.27761670E-02  0.23797684E-02 -0.12072414E-02
  0.53835963E-02 -0.21874106E-02 -0.57594971E-02
 -0.23049961E-02 -0.22510913E-02  0.96273102E-03
 -0.17108198E-02 -0.65245449E-03 -0.19006469E-02
  0.41894570E-02 -0.19946452E-02 -0.28241339E-02
 -0.86457888E-02  0.28738965E-02 -0.80345041E-03
 -0.38380434E-03  0.25233736E-02 -0.66776843E-02
 -0.40721088E-02  0.62588266E-02  0.10265794E-02
  0.17448972E-02 -0.22276805E-02  0.10610026E-01
  0.40119761E-03 -0.15521689E-02  0.45766806E-02
 -0.29285090E-02 -0.13753334E-02  0.97449530E-03
 -0.20134284E-02  0.74391317E-03 -0.21893107E-02
  0.62900565E-02 -0.19289587E-02 -0.40420839E-02
 -0.29567405E-03 -0.33473166E-02 -0.49238215E-02
  0.24744080E-02  0.18812975E-02  0.24637083E-02
 -0.29853541E-02 -0.14815238E-04  0.30846203E-02
 -0.70500585E-03  0.20800671E-02  0.28205295E-02
  0.76830670E-03 -0.74194812E-03 -0.63670182E-02
 -0.16800285E-02  0.89692882E-02 -0.18488191E-02
 -0.14856978E-02 -0.21580457E-02  0.49116182E-02
  0.43105380E-04 -0.19700155E-02 -0.24560793E-02
 -0.13741994E-02  0.11158411E-03 -0.17830733E-03
  0.14729482E-02 -0.16158020E-03  0.85352302E-04
 -0.65238697E-02  0.42025541E-04 -0.22210806E-02
  0.73560443E-04 -0.35275181E-02  0.65069034E-03
 -0.14780445E-02  0.17528293E-02 -0.45254376E-02
  0.70281037E-03  0.12617466E-02 -0.36162303E-03
  0.68593778E-03 -0.87138488E-03 -0.46573042E-02
  0.74541628E-02 -0.22891299E-02  0.58687062E-02
  0.15043654E-02  0.26598342E-02  0.48080981E-02
  0.11958309E-02 -0.84033214E-03 -0.13967222E-02
  0.62392980E-02 -0.22951827E-02 -0.57243636E-02
  0.60460805E-03  0.65571168E-02  0.49522931E-02
  0.45964156E-02 -0.86052005E-03  0.27717286E-02
  0.20049510E-02 -0.28158329E-02 -0.86296525E-03
  0.39797348E-02 -0.38715048E-02 -0.37576562E-03
  0.19457104E-02 -0.75106816E-03 -0.28082787E-02
 -0.56106830E-02 -0.43440159E-03  0.25388495E-02
  0.21041944E-02 -0.45944928E-02 -0.64743242E-02
 -0.97186290E-03  0.98065541E-03 -0.58680769E-02
  0.31858019E-04  0.16325224E-02  0.18849419E-02
  0.41281925E-02 -0.96311173E-03  0.54340598E-02
 -0.12682612E-02  0.46464271E-02  0.17407271E-03
 -0.80166008E-03 -0.53068776E-04  0.94517389E-04
 -0.39897045E-02 -0.30157134E-02 -0.27748024E-02
 -0.28328934E-02  0.22790255E-02  0.38572830E-02
  0.13013849E-02  0.45844188E-03 -0.23101548E-02
 -0.33423841E-02  0.23393816E-02  0.22492889E-02
 -0.61471075E-03 -0.29849240E-03  0.18052159E-02
 -0.91176532E-03 -0.45651700E-02  0.36831985E-04
 -0.57863782E-03  0.17858210E-02 -0.21762288E-02
 -0.59999028E-02 -0.24115366E-02 -0.25753893E-03
  0.29234282E-02 -0.96139194E-03  0.43586773E-02
  0.23733777E-02  0.16125945E-02  0.10626615E-02
  0.43986693E-02  0.22759539E-02  0.13174702E-02
 -0.73679272E-03 -0.15548787E-02  0.31640549E-02
  0.35359788E-03 -0.14691006E-02 -0.25423748E-02
 -0.17773450E-02  0.54462030E-02 -0.16134370E-02
  0.69208670E-02  0.44109264E-03 -0.11224521E-02
 -0.18930162E-02 -0.41789734E-02  0.34283875E-02
 -0.31857723E-02 -0.36685109E-02 -0.33433064E-02
  0.17627429E-02  0.14239682E-02 -0.10539910E-02
  0.17771441E-03 -0.38656172E-02  0.36576875E-03
  0.36618816E-02  0.74142022E-02  0.30824237E-02
 -0.30470256E-02  0.54948199E-02  0.54070629E-02
 -0.40089773E-02  0.50158372E-02  0.19031941E-02
 -0.29502182E-03  0.18785546E-02 -0.25884915E-02
  0.67609930E-02  0.17210458E-03  0.14883727E-02
 -0.95139486E-03 -0.20750240E-03  0.14724913E-02
  0.13251469E-02 -0.41185753E-02 -0.15861653E-02
 -0.42695206E-02  0.15195405E-02  0.11495443E-02
  0.13439505E-02 -0.22963664E-02 -0.50806036E-02
 -0.18709266E-02  0.99484017E-03 -0.60316158E-02
 -0.29607846E-02  0.77324055E-03  0.39349336E-02
  0.49115019E-02 -0.15093783E-02  0.90146939E-03
  0.11175519E-02  0.29510189E-02  0.38319730E-02
  0.24197277E-02 -0.76534855E-03 -0.19172725E-02
 -0.58778617E-03  0.26752392E-02 -0.28884482E-03
  0.52703203E-02  0.37042829E-02 -0.15278230E-02
 -0.14101904E-02 -0.51115098E-02  0.13671768E-02
  0.10814498E-02  0.29038860E-02  0.25726144E-02
 -0.29743440E-03  0.24558134E-02  0.19501404E-02
  0.26642660E-02  0.38569249E-02 -0.21070265E-02
 -0.89866951E-03  0.82594927E-03  0.32612526E-02
 -0.14767774E-02 -0.67813050E-03 -0.66849346E-02
 -0.22770232E-02  0.38771166E-02 -0.61969599E-07
  0.81267412E-03  0.13495457E-02  0.64205053E-04
  0.48199331E-02 -0.46122943E-02 -0.19871758E-03
  0.33888049E-02 -0.40556645E-02 -0.33895491E-02
 -0.87639168E-03  0.20627431E-02  0.75732755E-03
  0.49594387E-03  0.27075143E-02  0.18480404E-02
  0.54297330E-03  0.41648145E-02  0.24026013E-02
 -0.32762360E-02 -0.27357499E-02 -0.16325059E-02
 -0.34383812E-02 -0.33834972E-02 -0.19199963E-02
 -0.14248575E-02  0.89381973E-03 -0.23437447E-02
  0.77342668E-05 -0.37672094E-02  0.14834661E-02
  0.81323831E-03  0.34422754E-03  0.55640549E-02
 -0.46292431E-02 -0.19399478E-02  0.62121403E-03
  0.11285556E-02 -0.57431379E-03 -0.12258588E-02
  0.10264589E-02 -0.98021030E-03  0.20864341E-02
 -0.61082432E-02 -0.88988997E-03  0.24141226E-02
 -0.80383298E-04  0.75819595E-03  0.20383758E-02
 -0.82687584E-03 -0.36920135E-02 -0.24350219E-02
 -0.11474489E-03 -0.90724212E-04 -0.48122728E-02
 -0.48657863E-03 -0.41921143E-02  0.13577968E-03
 
           1
   2.00000000000000     
  0.59137297E+00 -0.37469486E-03  0.00000000E+00  0.00000000E+00
  0.30118972E+00  0.25267704E-01  0.12992488E+00
  0.50617475E+00  0.47820380E+00  0.74614065E+00
  0.47678047E+00  0.44117459E+00  0.87387536E+00
  0.95580995E+00  0.64703142E-02  0.49117872E+00
  0.76559683E+00  0.11846160E-01  0.86953675E+00
  0.90881736E+00  0.47625530E+00  0.37291421E+00
  0.74813925E+00  0.73674475E+00  0.21310640E+00
  0.19550849E+00  0.23538868E+00  0.98430117E+00
  0.78940767E+00  0.74650379E+00  0.59686309E+00
  0.71819465E+00  0.26405711E+00  0.86599306E+00
  0.67369679E+00  0.60617627E+00  0.35777945E+00
  0.99840510E+00  0.98593144E+00  0.88971403E+00
  0.74903287E+00  0.23792610E+00  0.12404622E+00
  0.24979516E+00  0.75087576E+00  0.73864909E+00
  0.45632284E+00  0.35108256E-01  0.87545225E+00
  0.23083602E+00  0.53657874E+00  0.37270789E+00
  0.17375177E-01  0.98842611E+00  0.62192662E+00
  0.17262172E-01  0.47024935E+00  0.76210307E+00
  0.57637347E+00  0.14045342E-03  0.13360634E+00
  0.20059527E-03  0.14501870E-01  0.98716215E+00
  0.44424456E+00  0.58418212E-01  0.39006266E+00
  0.23436186E+00  0.27098081E+00  0.39766448E+00
  0.78657846E+00  0.77061081E+00  0.88243703E+00
  0.49766229E+00  0.47400687E+00  0.50885276E+00
  0.22684268E+00  0.77555299E+00  0.37462780E+00
  0.22852057E+00  0.16028960E+00  0.60141521E+00
  0.51289854E+00  0.74481065E+00  0.23876954E+00
  0.73725934E+00  0.24893833E+00  0.38206852E+00
  0.49862561E+00  0.18052193E+00  0.49836666E+00
  0.51495280E+00  0.25043176E+00  0.99963771E+00
  0.98060886E+00  0.75961691E+00  0.50311312E+00
  0.51714984E+00  0.72187576E+00  0.72306844E+00
  0.79954199E+00  0.55770136E+00  0.10714771E+00
  0.76205794E+00  0.49406979E+00  0.61913761E+00
  0.99270500E+00  0.51095272E+00  0.99874796E+00
  0.74205123E+00  0.23191734E+00  0.48559495E+00
  0.51360559E+00  0.74970652E+00  0.99622716E+00
  0.26155964E+00  0.28327592E+00  0.11465908E+00
  0.24069882E+00  0.75618457E+00  0.86146144E+00
  0.95040888E+00  0.73566974E+00  0.25691884E+00
  0.40335915E-01  0.22764175E-01  0.24554225E+00
  0.80075326E+00  0.28395901E+00  0.74346185E+00
  0.49110332E+00  0.98293402E+00  0.74661510E+00
  0.98837749E+00  0.51288128E+00  0.24174311E+00
  0.36254306E-01  0.73874906E+00  0.97742206E+00
  0.69351928E+00  0.76264896E+00  0.46598248E+00
  0.23597541E+00  0.77021870E+00  0.50700397E+00
  0.78257390E+00  0.25649187E+00  0.99688721E+00
  0.61403270E-02  0.39641443E-01  0.76442487E+00
  0.48838031E+00  0.28486271E+00  0.24831926E+00
  0.95590839E+00  0.75628052E+00  0.75871507E+00
  0.53801984E+00  0.59116789E-02  0.27548854E+00
  0.24623228E+00  0.26333026E+00  0.50105248E+00
  0.80762393E+00  0.74493996E+00  0.11984636E-01
  0.75101228E+00  0.27360284E+00  0.63151725E+00
  0.25482420E+00  0.75877989E+00  0.12512817E+00
  0.30065254E-01  0.98617724E+00  0.11573420E+00
  0.45661611E+00  0.80396276E+00  0.51105765E+00
  0.52377123E+00  0.52099514E+00  0.98576761E+00
  0.12201272E-01  0.29810356E+00  0.49870735E+00
  0.47542265E+00  0.20711667E-01  0.50618951E-02
  0.36004181E-01  0.45764604E+00  0.62480728E+00
  0.23863855E-02  0.38095251E+00  0.10771890E+00
  0.48278373E+00  0.97325978E+00  0.59377760E+00
  0.19602086E+00  0.29732571E+00  0.27464716E+00
  0.72598994E+00  0.75209490E+00  0.76345370E+00
  0.25756729E+00  0.74951187E-02  0.37321605E+00
  0.20915993E+00  0.25540301E+00  0.77138491E+00
  0.48514175E+00  0.51201503E+00  0.23690329E+00
  0.49672605E+00  0.23778290E+00  0.74129551E+00
  0.76093304E+00  0.24871420E+00  0.23110560E+00
  0.24230491E+00  0.71129774E+00  0.97737069E+00
  0.24225812E+00  0.49514925E+00  0.11424611E+00
  0.71280791E+00  0.10241338E-01  0.62719055E+00
  0.24280623E+00  0.98117655E+00  0.86579655E+00
  0.48193646E+00  0.48355455E+00  0.37607071E+00
  0.96449040E+00  0.49102221E+00  0.88056464E+00
  0.72801697E+00  0.89670525E+00  0.37567807E+00
  0.76714703E+00  0.95150690E+00  0.11902705E+00
  0.25276543E+00  0.49905700E+00  0.62261939E+00
  0.71524357E+00  0.54740251E+00  0.85996319E+00
  0.98169990E+00  0.29482134E-01  0.37423447E+00
  0.50778393E+00  0.56300353E+00  0.62270206E+00
  0.25172735E+00  0.75288348E+00  0.24413621E+00
  0.24907674E+00  0.79358388E+00  0.63103908E+00
  0.50597041E+00  0.53436049E+00  0.10063739E+00
  0.22812270E+00  0.46261678E+00  0.86165273E+00
  0.97906708E+00  0.51631389E+00  0.48358210E+00
  0.29265637E+00  0.19239104E-01  0.25537175E+00
  0.76877606E+00  0.51409342E+00  0.74185021E+00
  0.24110939E+00  0.99111033E+00  0.73519604E+00
  0.74504551E+00  0.49128333E+00  0.24667944E+00
  0.27396080E+00  0.96067536E+00  0.22594390E-02
  0.73229807E+00  0.49718644E+00  0.48194554E+00
  0.19438409E+00  0.28996125E-01  0.49975549E+00
  0.74925977E+00  0.51159657E+00  0.99529387E+00
  0.76252731E+00  0.99808104E+00  0.74741845E+00
  0.23563066E+00  0.51378851E+00  0.24775141E+00
  0.28060637E+00  0.50623078E+00  0.74911097E+00
  0.78198155E+00  0.10208413E-01  0.25834233E+00
  0.25280255E+00  0.53895113E+00  0.49701692E+00
  0.74611999E+00  0.99601592E+00  0.99368261E+00
  0.70893683E+00  0.98257984E+00  0.51075903E+00
  0.25394919E+00  0.49077177E+00  0.99136595E+00
  0.12994516E-01  0.26970108E+00  0.36224405E+00
  0.51212572E+00  0.73492480E+00  0.85649072E+00
  0.49901936E+00  0.24374917E+00  0.61805836E+00
  0.99102620E+00  0.76069478E+00  0.12418613E+00
  0.99980778E+00  0.22812619E+00  0.88452248E+00
  0.48104596E+00  0.76754479E+00  0.37064217E+00
  0.99864387E+00  0.73203266E+00  0.62670493E+00
  0.51882755E+00  0.23754967E+00  0.11900215E+00
  0.15964875E+00  0.37095739E+00  0.37122507E-01
  0.61910873E+00  0.85169503E+00  0.56069471E+00
  0.63762676E+00  0.10298950E+00  0.94340434E+00
  0.13678633E+00  0.64879238E+00  0.46071899E+00
  0.37068921E+00  0.36905089E+00  0.94615434E+00
  0.82175430E+00  0.89513287E+00  0.45285096E+00
  0.85838418E+00  0.92503677E-01  0.43200908E-01
  0.35931909E+00  0.63787533E+00  0.55551821E+00
  0.85767449E+00  0.71891451E-01  0.18375631E+00
  0.37902226E+00  0.59692055E+00  0.68734784E+00
  0.89086587E+00  0.91921744E+00  0.30853638E+00
  0.36634642E+00  0.37617992E+00  0.79148466E+00
  0.10034465E+00  0.60911769E+00  0.30706182E+00
  0.65497750E+00  0.10202300E+00  0.79727204E+00
  0.12549513E+00  0.40083318E+00  0.18548641E+00
  0.66309621E+00  0.88590447E+00  0.69717760E+00
  0.86002840E+00  0.62346021E+00  0.94773056E+00
  0.30760970E+00  0.12593868E+00  0.45518582E+00
  0.84669145E+00  0.39044074E+00  0.53301379E+00
  0.36890533E+00  0.84056158E+00  0.57832435E-01
  0.72446678E-01  0.12897916E+00  0.53853789E+00
  0.63594639E+00  0.61756253E+00  0.42101984E-01
  0.15939998E+00  0.88131661E+00  0.94271062E+00
  0.64071629E+00  0.37160685E+00  0.43962040E+00