Na88 Sn16 P8 Se96                       
   1.00000000000000     
    14.0793397336999995    0.0000000000000000    0.0000000000000000
     0.0000000000000000   14.0793397336999995    0.0000000000000000
     0.0000000000000000    0.0000000000000000   28.1586794673000007
   Na   Sn   P    Se
    88    16     8    96
Direct
  0.8147559681739780  0.9618718647689808  0.1134942991863859
  0.5246196340432969  0.5395611894525986  0.7549732169640896
  0.5258774250637336  0.4682780035328168  0.0166337022668566
  0.2146576671922157  0.0328354191754558  0.3725542825191668
  0.5102192382687583  0.0179325076047553  0.8719927066069869
  0.0612909665341436  0.4994326381514557  0.3679763799363023
  0.2410876125251612  0.2159953009327740  0.1169313676094765
  0.2729871075036755  0.2112794246482020  0.2388671389417034
  0.7325655392278719  0.7585476376239940  0.6087218535829476
  0.7446269250608382  0.0463885115272557  0.8759210622577596
  0.6446476012206160  0.7419734554176940  0.4727209530217709
  0.7258512083625168  0.2781437626766244  0.7526892695687351
  0.7568001823798667  0.2033762544921678  0.1292862892429402
  0.2453449532954052  0.5158383430011264  0.6236950168645318
  0.0052984845062436  0.0071154551960541  0.8857839477566943
  0.7513068696736034  0.4931111015759082  0.3610242747728261
  0.7948833768900508  0.9861892721610311  0.6228222603478915
  0.9856692046724277  0.4781174205795234  0.4861032156969582
  0.5164717794546618  0.9816100450071820  0.0016141105726313
  0.0553461020690490  0.5439477028106183  0.8577972471693032
  0.4587491246855941  0.0056524105460998  0.3848417771057512
  0.0073328801027529  0.2587821878793055  0.2469912956019790
  0.7783755888139466  0.7467593725460578  0.8669220632607632
  0.7389946806736596  0.4744670057409076  0.6223291649320428
  0.2364970592737639  0.7281439719527705  0.2346396193144556
  0.2300591322931974  0.2607430245453441  0.7533522315112580
  0.7572086887717703  0.7310272581719564  0.1161053812833849
  0.7301372543306754  0.2473707137510063  0.5031035819171444
  0.3182619201877595  0.5077357310581734  0.3657705481684635
  0.2841941466747916  0.2527014058459962  0.8686389608310026
  0.9737451232498445  0.9646295469769605  0.5198247907576959
  0.2551699031667279  0.7460584672988710  0.6100719150315689
  0.7590366225961562  0.7599219178266087  0.3153666360124180
  0.7995840067984407  0.2331676416230182  0.9780184187629318
  0.0400456785213578  0.6894975350524156  0.0027118425687279
  0.5014546956432677  0.5440866811729372  0.4703673324750351
  0.2574228074586581  0.2234907037551458  0.9776646346972055
  0.5402756343182537  0.2355230802105095  0.2337459139964354
  0.7195961933521002  0.7870873727817894  0.7426726668693944
  0.5617720694222501  0.7411353868811486  0.2517390551502787
  0.0359944801664789  0.0065923575429035  0.2596133893146094
  0.5173148862269625  0.4974713880722559  0.8715373195016558
  0.4864250945688042  0.0129541531771058  0.7562190680518610
  0.0004143168036218  0.7115410400302918  0.2445548801251879
  0.0081904155352449  0.2470417461127773  0.0102430914296842
  0.9427994513166876  0.7334650000048754  0.4924465998214950
  0.4803526270081381  0.9982061139445121  0.5003967020131350
  0.5367820118410102  0.2576936336157436  0.9937448469895357
  0.0071742130729138  0.7634476347550009  0.7508513514671931
  0.5191321665423400  0.4983455676004613  0.2740195810041310
  0.0459278639781189  0.5351849529592950  0.7464923003712423
  0.5447522712564734  0.0032066645141331  0.2281411894113200
  0.2668548764485838  0.2495291412187488  0.5140805408779852
  0.7995092057091818  0.7600501173580100  0.9938928161312621
  0.7244408126454635  0.2082086030435605  0.6249599762781565
  0.2820381008608764  0.7356904689751834  0.9812652337246418
  0.2550409128822053  0.5113005731793607  0.1299758748360899
  0.4881893956236197  0.5140495462671894  0.6055730138572979
  0.4970361547423875  0.5101180793397939  0.1373698142337507
  0.9526461888320215  0.9943753619270297  0.7585168189981176
  0.5295362837734336  0.7264520526122494  0.0105379818414717
  0.9849552131869480  0.2310111570918600  0.5123447215821625
  0.0376324628471473  0.4931364374743299  0.0792168055182157
  0.4713490668036736  0.2731792553429556  0.4905701581984443
  0.0158026476682126  0.5021016595243304  0.2375744901762905
  0.3498656244077350  0.7547763615679156  0.7522426607108162
  0.2408891400131910  0.7591620765427386  0.4930635312406408
  0.0101554738042745  0.2685602534581121  0.7486201396736613
  0.7419920121558222  0.9771014139487892  0.3751727569445051
  0.5163499123334897  0.3071362915298299  0.7515455359314931
  0.7880803360212232  0.2520051340658192  0.2401723190512780
  0.2304638237964287  0.7610874538272779  0.8706165563228875
  0.2609822309866282  0.8529712495858051  0.1440778504307240
  0.4527386803905571  0.9879969723281637  0.6268659892382027
  0.0024937128052676  0.9895047700752223  0.0012646175131545
  0.2109617342346073  0.7494618562514638  0.3608296956750546
  0.2936790711593182  0.5158369281481827  0.8704930304530148
  0.9507153568567738  0.9920168957967914  0.4020209549690288
  0.3913223451088091  0.0202291786600819  0.1268795703863917
  0.2133027888628348  0.2477978730929584  0.6442773034606563
  0.7967741679714317  0.4810364337190413  0.8680770131133442
  0.2524647866337714  0.2808007925150968  0.3682235133779066
  0.9849382190151756  0.4781611447900303  0.6237169495587599
  0.0183116405813181  0.0009984042942971  0.1224685072558331
  0.1862715784215050  0.9472798314585601  0.6249684012641460
  0.7461229516170746  0.4643523418845871  0.1095018890461084
  0.2457751703533520  0.9953961804005879  0.8740515127143620
  0.6965041717308414  0.2375458197684060  0.3701388848803738
  0.3096097135347485  0.9654744102419583  0.2505244996363701
  0.7769263171682832  0.5340542448860398  0.7432653053731736
  0.2015865418836549  0.0148130506770746  0.7520338369287066
  0.7670273323405482  0.5002485300470093  0.2288026072805427
  0.2405357575779401  0.9669618902137378  0.0010372292493209
  0.7461291104303586  0.4870503877378419  0.4889319995143196
  0.2364139046592077  0.0216463477118634  0.5011742969787122
  0.7844291550960121  0.4943826041180617  0.9937806259211933
  0.7008406827584285  0.0275084291051835  0.7567841656176240
  0.2527656925175419  0.4752372515372474  0.2482711073946793
  0.2904347078054620  0.5098638975969682  0.7490731000103789
  0.7901828956351816  0.9999569962541595  0.2494714645141439
  0.2500977763066545  0.5157945894737720  0.4952598840869043
  0.7494043652208801  0.9973974830521409  0.9989431779150935
  0.7101749853750668  0.9881511628492264  0.5024285073073997
  0.2894144032517098  0.4842017626116386  0.9972967393917502
  0.9840354008380617  0.2426460008491025  0.3833939163654607
  0.5194664125607191  0.7722898691059620  0.8663639994854806
  0.4716662760156421  0.2614744350338950  0.6231063065679266
  0.0175137344353150  0.7349876363499467  0.1263776322320211
  0.0103397421542971  0.2552473106176053  0.8755760114872929
  0.4881507845428328  0.7428705232096073  0.3579967171359265
  0.9728779693973446  0.7508244853400167  0.6224204111885944
  0.4852946028319858  0.2415408447099821  0.1183341124494195
  0.1836091449058397  0.3644903781543991  0.0448978681033259
  0.6139192488831297  0.8908190985977148  0.5596705772577878
  0.6449988257267517  0.1134474035471323  0.9493761486134414
  0.1481990230218641  0.6189150458803158  0.4366513311504858
  0.4048819041544873  0.3890142603632704  0.9448779462038899
  0.8152398508009771  0.8694112408725377  0.4593070251989685
  0.8561491105120904  0.1084445050216706  0.0484339937411187
  0.3530703706525912  0.6267024839720826  0.5401230469458226
  0.8883508027030206  0.1040439444537721  0.1859413919057071
  0.3824988049671281  0.6137413102291649  0.6906861209594448
  0.8790053665576827  0.9109766576662545  0.3161911603808404
  0.3796012099471733  0.4038912531876295  0.8029122618908623
  0.1516279607948461  0.5973170790094529  0.2951697910352897
  0.6035134469500150  0.1440399587108193  0.8020634411991433
  0.1429065894641092  0.3681325292802743  0.2023126831084393
  0.6198821498989272  0.9351490402850047  0.6906139685931751
  0.8654210962445564  0.6107563857028477  0.9412004540359888
  0.3469845191222358  0.1097368972400479  0.4476821530786683
  0.8517058842928712  0.3738226555820229  0.5377089119892720
  0.3532834438274868  0.8619793255825774  0.0534338901158682
  0.1357541708341988  0.1164591469342983  0.5543933394482441
  0.6771956003677818  0.6022461027081439  0.0442773820880519
  0.1382234125095671  0.8726044536852827  0.9411219191291783
  0.6410039483945972  0.3879922583630800  0.4328252723929911
  0.6728912423522527  0.3939425205516564  0.2858279106256313
  0.1246862358685030  0.9009878022618756  0.8083286520901076
  0.0811097028518886  0.0959579105013710  0.7014605921518414
  0.6467322989306753  0.5998535756173219  0.1910406283454161
  0.8713119194438957  0.4158809386023301  0.6974521243051361
  0.4064413351579145  0.8570636088020196  0.1992191490209816
  0.3936878723432051  0.0996618427833370  0.3021859389933945
  0.8920856385777218  0.6090624267622343  0.8011544419361704
  0.1506785735312652  0.0997626465419426  0.0473907122254947
  0.6348648568143728  0.5776637631409305  0.5409799342687892
  0.6766605586522567  0.3943419986325727  0.9388226195615829
  0.1233988913373073  0.9163132377859720  0.4515794261763640
  0.3626173352865892  0.0675487879806230  0.9523366089265047
  0.8315154301004334  0.5996578423818211  0.4359336798535902
  0.8792900425261878  0.3756757435108196  0.0394268569557529
  0.3370407221382180  0.9024055505851334  0.5471373433029607
  0.2169350509910150  0.0458717365137722  0.1863422083955078
  0.6654444778184934  0.6223031720651185  0.6894560677022138
  0.1733741320472459  0.8946010955045336  0.2987703434865790
  0.6633167436500287  0.4485014608054861  0.7933059570079573
  0.8666359589504221  0.6005434589455231  0.2862143205752274
  0.3280212572346817  0.1040957117038022  0.7958640774546126
  0.8539882753051349  0.3742586587584464  0.1787687816076194
  0.3098914676124195  0.9223458998925710  0.7043473266286151
  0.8713684851761959  0.9211763592635202  0.9444268022373231
  0.3580057148046654  0.4156251101871674  0.4478990307957484
  0.8183941549434446  0.0983405533020129  0.5473949869013089
  0.3846865977531115  0.5965157932853284  0.0532179153161118
  0.1412939939671642  0.4024472592069379  0.5409944633441471
  0.6563224108265890  0.8862012785903541  0.0563558322744825
  0.1832292398979667  0.5896313592827580  0.9421794657578094
  0.6247938887948252  0.0637480090899507  0.4382672180466995
  0.3499685041853194  0.3631371986237698  0.2932960812205020
  0.7975550172085931  0.9084210732729702  0.8038393918992085
  0.8128348567354787  0.1296499366846722  0.7134346281674633
  0.3543076344787272  0.5879137508786130  0.2002133920493221
  0.1553942930924230  0.4125394514866427  0.6991286300189260
  0.7070976573708461  0.8794464536499449  0.2023558693812481
  0.6761390839107616  0.1191491529599528  0.2912859350381370
  0.2020864756322633  0.6191286982412456  0.7945492589217670
  0.0797828627434464  0.1624210824016656  0.3372242151947950
  0.6144970519506338  0.6776005731479759  0.8217800606754730
  0.5783894560813996  0.3603697756217197  0.6587766556765605
  0.0775806010252158  0.8352270852274254  0.1789993100270275
  0.4134611004578865  0.1727554975889768  0.6842735621167759
  0.9273145854594087  0.6068430848336629  0.1389897206414643
  0.9172463536835516  0.3342357796895185  0.3278729631500424
  0.4322605246484564  0.8717747397354352  0.8236837281297126
  0.1113044505201551  0.1558070122749832  0.9139247607140689
  0.5625979068011927  0.6100953386805702  0.3816926472251056
  0.0648816294735001  0.8246563493854764  0.5704741344575311
  0.6065616700433319  0.3379441694242766  0.0898329530391292
  0.8759143383112294  0.6510919639277406  0.5850892267871013
  0.4070694955141398  0.1696210335148902  0.0538444084029975
  0.9187188714162997  0.3401553029048003  0.9180648056608027
  0.4029957589550477  0.8082290634971074  0.4149905553060408
  0.8982699886145172  0.8431697439248780  0.6737308231627953
  0.3845455840582399  0.3156308495260447  0.1644460707464765
  0.9093414343443494  0.1751012575685872  0.8231902796322660
  0.4129129666931422  0.6733282901889324  0.2946980523360979
  0.0892893894443771  0.3554596664176862  0.8244842527539598
  0.5850781779479564  0.8607437914292574  0.3322292334680220
  0.0946528448209337  0.6685972782680170  0.6647557655943893
  0.5698575011714112  0.1237712150550021  0.1485965417090961
  0.3623372896300712  0.3565056364383541  0.5843896549487209
  0.9314769762941459  0.8269376180383102  0.0737163958134037
  0.8685772552145992  0.1598863709256086  0.4157509270081011
  0.4156663341802831  0.6780962756925391  0.9030146369268777
  0.0714928451371103  0.3233198628560363  0.4328429325666744
  0.5978456803183357  0.8546460516731201  0.9250428789351700
  0.5523508331020450  0.1729161764652174  0.5669604329561034
  0.1512771341587718  0.6919065173683173  0.0892031234626414
 
 -0.33436754E-02 -0.16485504E-03  0.58744408E-02
 -0.51004926E-02  0.57876475E-02 -0.67369147E-02
 -0.19088322E-02  0.23307071E-02 -0.20467835E-02
  0.29832776E-02 -0.52057793E-02 -0.47075105E-02
 -0.13951647E-02 -0.13817111E-02  0.26314335E-03
 -0.21398752E-03 -0.48177388E-02  0.18358584E-02
 -0.25122416E-02 -0.13130784E-02  0.67196572E-04
 -0.13896123E-02 -0.17742207E-02 -0.34337229E-02
 -0.60892208E-04  0.44774518E-03  0.12037307E-02
 -0.24592041E-02 -0.49377591E-02  0.13192246E-02
  0.29633740E-02  0.22288501E-02  0.72977487E-02
 -0.75591766E-02  0.99550670E-02  0.72607904E-03
  0.30418965E-02  0.32506030E-02 -0.65022388E-02
 -0.38416312E-03  0.89668372E-02  0.64352037E-03
  0.69508073E-03  0.14341963E-02  0.20017320E-02
 -0.58483056E-03  0.29094824E-02 -0.46857741E-02
 -0.63011240E-02 -0.42105360E-02 -0.29671889E-02
  0.25305060E-02  0.47450825E-02  0.26973296E-02
  0.27435076E-03  0.16615386E-02  0.21897456E-02
 -0.35222193E-02 -0.38855504E-02  0.54765947E-02
  0.33418919E-02  0.11809873E-01  0.60051195E-02
  0.76788772E-02  0.52881758E-02  0.49926864E-02
  0.19121624E-02 -0.19404671E-02  0.24699255E-02
  0.83877125E-03  0.27340392E-02 -0.47217044E-02
  0.12590800E-02  0.79180296E-03  0.65546552E-03
 -0.12576705E-03  0.11441774E-01  0.49277716E-02
 -0.11210205E-01 -0.45894174E-02 -0.51615802E-02
  0.20052470E-03 -0.24764003E-02 -0.14897432E-02
 -0.20993215E-02 -0.23794822E-03 -0.30247246E-02
 -0.88316329E-02  0.35559223E-02 -0.14673161E-02
  0.31806805E-03 -0.30476646E-02  0.22309293E-03
 -0.12839782E-02  0.36619772E-02  0.18475776E-03
 -0.49138971E-02 -0.75423266E-03 -0.31982827E-02
 -0.47181011E-02  0.13042486E-02 -0.99741496E-02
 -0.68234444E-02 -0.16697468E-02  0.85353827E-02
  0.28773732E-02 -0.22627767E-03  0.16235153E-02
 -0.39123355E-02  0.37423591E-03  0.28468060E-02
 -0.18552024E-02 -0.86269086E-02  0.10314226E-01
 -0.21965152E-02 -0.19521308E-02  0.60457692E-02
  0.49709825E-02  0.61795158E-02 -0.14833286E-02
 -0.12204582E-02  0.94928639E-02 -0.50223728E-02
  0.56028958E-02  0.36513700E-02  0.70662789E-02
 -0.86420260E-02 -0.53446493E-02 -0.87177872E-02
 -0.10205804E-02 -0.55011951E-02 -0.32174397E-02
  0.16389813E-02  0.24462215E-02 -0.63892291E-02
 -0.29051275E-02 -0.10403255E-01 -0.24990597E-02
  0.30674042E-02  0.44194796E-02 -0.29992277E-02
  0.99367127E-02 -0.22172787E-03  0.33133188E-02
  0.65268538E-02 -0.39360495E-02 -0.20878737E-02
  0.25677250E-02  0.68765866E-02  0.49399002E-02
  0.16051410E-02 -0.84326362E-03 -0.39803786E-03
  0.12776824E-02 -0.19696048E-02  0.64764898E-03
  0.27180688E-02 -0.35515684E-02  0.41017065E-02
 -0.35722624E-02  0.36057102E-03  0.41809875E-03
  0.49270404E-03 -0.37352916E-02  0.86105537E-02
  0.85640766E-02 -0.44774541E-02 -0.13959758E-02
  0.72564440E-03 -0.63622381E-02  0.11252648E-02
  0.44299063E-02 -0.29287966E-02  0.16474796E-02
 -0.77597464E-03  0.10141633E-02  0.88555857E-03
 -0.23036993E-02  0.33245997E-02  0.38005825E-02
 -0.93219259E-02  0.48778476E-02 -0.39737558E-03
  0.10538658E-01  0.27049717E-02 -0.28765955E-02
 -0.28240606E-02  0.16808693E-02 -0.24819219E-02
  0.63004435E-02  0.33020947E-02 -0.35362625E-02
 -0.39344814E-02  0.76142684E-03  0.16051617E-02
 -0.11019310E-02 -0.12360957E-02 -0.84818913E-02
 -0.31733948E-03 -0.25957750E-02  0.53737078E-03
 -0.37086496E-02  0.55380497E-02 -0.19466231E-02
  0.95522816E-03 -0.10779203E-01  0.19950684E-02
 -0.27179963E-02 -0.10872134E-02 -0.18397268E-02
  0.78726976E-02 -0.89446185E-03  0.65745826E-02
  0.17752433E-02 -0.36226576E-02 -0.90508515E-02
 -0.38082692E-02 -0.97669798E-02  0.33539690E-02
  0.15066618E-02 -0.93278263E-02 -0.39565489E-02
 -0.33155463E-02 -0.32618937E-02  0.19219022E-02
  0.19633930E-02 -0.76116577E-04 -0.52000987E-02
  0.13686413E-02  0.25456362E-02  0.59939804E-02
 -0.43296602E-02 -0.42986873E-02 -0.41271645E-02
  0.64128539E-02 -0.12155785E-03  0.43075639E-02
 -0.19576914E-02 -0.91629114E-02 -0.35010674E-03
  0.44239279E-02 -0.43227241E-02  0.22666385E-03
 -0.50799112E-02  0.27468930E-02 -0.42178755E-02
 -0.58580459E-02 -0.31654341E-02 -0.83901491E-03
  0.20588635E-02 -0.16165774E-02  0.82236581E-02
 -0.21577610E-02 -0.24358567E-03  0.32936905E-02
  0.35505701E-02  0.42205266E-03 -0.96944854E-03
  0.28199401E-02 -0.59075791E-02 -0.11240203E-02
 -0.67316294E-02  0.11091374E-01 -0.25634791E-02
 -0.84104217E-03  0.51353516E-03  0.22754431E-02
 -0.16880343E-02 -0.60071010E-03 -0.21172790E-02
  0.55238140E-03  0.21788953E-02 -0.37811274E-03
  0.69456873E-03  0.75271602E-03  0.84677528E-03
 -0.57908342E-03 -0.52421425E-03 -0.19614281E-02
 -0.14983106E-02 -0.89970279E-03  0.15640399E-02
 -0.10123768E-02  0.23680158E-02  0.30466795E-02
 -0.12186538E-02 -0.29370575E-02  0.62781707E-03
 -0.13776467E-02  0.56363800E-02 -0.12969265E-02
 -0.82000821E-03  0.39933590E-03 -0.10630215E-02
 -0.10177245E-02 -0.87428394E-03 -0.10761917E-02
  0.28634945E-03  0.25559282E-03  0.24365969E-02
 -0.24285499E-02  0.18620385E-02  0.15910255E-02
 -0.40692439E-02  0.52183798E-02 -0.19646713E-02
 -0.19230068E-02  0.24140865E-03  0.70862897E-04
  0.33380629E-02 -0.27860236E-02  0.64422379E-03
 -0.14778576E-02  0.42594345E-02  0.27262033E-02
  0.11446088E-02 -0.21337553E-02 -0.20352516E-02
  0.37700644E-03 -0.18607420E-02  0.21598152E-02
  0.18461281E-02 -0.59472406E-03  0.24748178E-02
 -0.65367600E-02 -0.12208134E-02  0.24111853E-02
 -0.15260334E-02 -0.26878557E-02 -0.14582008E-02
  0.63888838E-03  0.28618906E-02  0.49090070E-02
 -0.66438706E-03  0.69379017E-03 -0.24166100E-03
  0.17639927E-02 -0.23547511E-02 -0.37794536E-03
  0.22784782E-02 -0.28272614E-02 -0.22600700E-03
  0.88411694E-04 -0.10577462E-02 -0.29202041E-02
 -0.38339690E-03 -0.25302690E-02  0.27369011E-02
  0.46643972E-02  0.29259727E-02  0.30714724E-02
  0.47473106E-02 -0.54685491E-02  0.16533409E-02
  0.82604386E-03 -0.29668127E-02 -0.82340745E-03
 -0.25010228E-03 -0.11884089E-02  0.24884428E-02
 -0.10765033E-02  0.16888439E-02 -0.15998043E-02
  0.34710305E-02  0.18359592E-02 -0.68944817E-03
 -0.98284017E-03  0.84295648E-03 -0.15053205E-02
 -0.31071886E-02 -0.16166812E-02  0.16073565E-02
 -0.15732802E-02 -0.32806438E-02 -0.35453864E-03
  0.16074365E-02 -0.11522594E-02 -0.28026765E-02
 -0.13883788E-02  0.11904852E-02  0.25210117E-03
  0.50268961E-02 -0.29578172E-02  0.86625949E-03
 -0.30521968E-02 -0.19389872E-02  0.16353842E-02
 -0.90816457E-03  0.82676701E-05  0.23789748E-02
 -0.16348880E-02 -0.10106124E-02 -0.20850412E-02
 -0.22067585E-02 -0.72216740E-03 -0.34639380E-02
  0.26647214E-02 -0.16980507E-02 -0.15308846E-02
 -0.26329479E-03 -0.32117292E-02  0.92524307E-03
 -0.11016691E-02 -0.19540746E-02 -0.78900487E-03
  0.10795886E-02 -0.74736842E-03  0.28222536E-02
 -0.11695730E-02 -0.26954195E-02 -0.31311360E-02
  0.15335759E-02  0.38665818E-03 -0.26876873E-03
  0.92753276E-03 -0.85655489E-03 -0.12684783E-02
  0.51939801E-02 -0.12703047E-02  0.11767389E-02
  0.68946060E-02  0.29736792E-02  0.33030629E-02
 -0.48204483E-02 -0.14222723E-02  0.75631208E-03
  0.30822616E-02  0.13959002E-03 -0.29132236E-02
  0.84654187E-03 -0.15237337E-02 -0.23841879E-03
  0.86212717E-03  0.63536449E-03 -0.17252825E-02
 -0.38952420E-02 -0.97689059E-03  0.10283902E-02
  0.35011612E-02 -0.66332976E-03  0.18060374E-02
  0.53055363E-02 -0.19973765E-02  0.40221979E-03
  0.66014147E-03  0.53875119E-03 -0.25626500E-02
  0.41193006E-02 -0.25139563E-02  0.10628105E-02
 -0.15746888E-02  0.96380804E-04 -0.76361380E-03
  0.52328700E-02  0.53016230E-03 -0.20876583E-02
 -0.36271238E-02 -0.17010210E-02 -0.64688610E-02
 -0.48725017E-02  0.26370298E-02 -0.56987657E-03
  0.11237864E-02  0.25079525E-02 -0.23531314E-02
 -0.18884896E-02 -0.91031064E-03 -0.41198067E-02
  0.48071640E-02  0.47376495E-02  0.11541474E-02
  0.12448895E-02 -0.16721949E-02  0.19025024E-02
 -0.17451926E-02  0.61649564E-03 -0.35672068E-02
 -0.27162905E-02  0.30961289E-02 -0.13606574E-02
  0.18421322E-02  0.20332401E-02 -0.33399580E-02
 -0.32891613E-03 -0.10203436E-02 -0.21927045E-02
  0.10337631E-02  0.88064834E-03 -0.25973087E-03
  0.15508022E-02  0.56511231E-03 -0.19288854E-02
  0.24205478E-02 -0.70978937E-03  0.19630069E-02
 -0.29558024E-02 -0.51491353E-02  0.38372688E-05
 -0.20010786E-02  0.14936437E-02 -0.14677970E-03
 -0.43141511E-02  0.23982529E-02  0.17221244E-02
  0.47831612E-02 -0.38014435E-03  0.61820473E-03
 -0.51317148E-02 -0.27307410E-02  0.25896990E-02
 -0.21132338E-02 -0.11894187E-02  0.25206772E-02
  0.12227667E-02  0.42465638E-02 -0.41827474E-02
  0.57937424E-02 -0.98934983E-03 -0.39916028E-03
 -0.24076678E-02  0.36869296E-02  0.12553488E-02
  0.17542270E-02  0.16283285E-02 -0.69632012E-02
  0.17344228E-02  0.22622718E-02  0.55852796E-02
  0.11161911E-02  0.19407891E-03 -0.14077040E-03
  0.67379280E-03 -0.36447137E-03 -0.16983718E-02
 -0.83184466E-03 -0.66143136E-03  0.15397355E-02
 -0.30119158E-03  0.26607987E-03 -0.17758626E-02
 -0.43231777E-04  0.50644903E-03 -0.17121049E-02
  0.31644370E-02 -0.50747863E-04 -0.14496586E-02
 -0.12233939E-02  0.12175412E-02 -0.12873910E-02
 -0.13486717E-02  0.19146700E-02  0.69452300E-03
  0.23108037E-02 -0.14521347E-02 -0.24283805E-03
 -0.23459108E-02  0.21822218E-02  0.13471037E-02
  0.89794990E-03 -0.23062363E-02  0.49071826E-02
 -0.11389842E-02  0.21407380E-02  0.39358645E-02
  0.30268089E-02 -0.91380351E-05  0.66785359E-02
  0.28073553E-02  0.32672893E-02  0.73823532E-03
 -0.20469239E-02  0.67108693E-03 -0.13194120E-02
  0.10070258E-02  0.50492258E-02  0.20828834E-03
  0.14889293E-03  0.16888570E-02 -0.21560246E-03
  0.46595400E-03 -0.22840503E-02 -0.55325988E-03
  0.14916557E-02  0.33653986E-02 -0.16192254E-02
 -0.90681126E-03  0.32111022E-04 -0.42620107E-02
  0.14125647E-03 -0.20991735E-03  0.74277625E-03
 -0.54221419E-02  0.23369395E-03  0.22759581E-02
 -0.19405499E-02  0.37012598E-03 -0.26215671E-04
 -0.21063339E-02 -0.15847931E-03 -0.77466218E-03
  0.30112027E-03  0.46746530E-03  0.23412946E-02
 -0.22503515E-02 -0.68945047E-02 -0.18429658E-02
  0.24367743E-02 -0.49488506E-03  0.17621235E-02
  0.10799026E-02 -0.18851714E-03 -0.52310013E-03
  0.12030320E-03  0.86446368E-03  0.25298330E-03
 -0.13977624E-02 -0.79917886E-03  0.21632621E-02
  0.57952052E-03  0.56853201E-04  0.24492042E-02
 -0.29297020E-03  0.25002675E-02 -0.10329719E-02
 
           1
   2.00000000000000     
  0.47324586E+00 -0.14812551E-02  0.00000000E+00  0.00000000E+00
  0.81428099E+00  0.96184845E+00  0.11391154E+00
  0.52389510E+00  0.54038334E+00  0.75449472E+00
  0.52560627E+00  0.46860909E+00  0.16488327E-01
  0.21508145E+00  0.32095927E-01  0.37221993E+00
  0.51002105E+00  0.17736233E-01  0.87201140E+00
  0.61260569E-01  0.49874827E+00  0.36810677E+00
  0.24073074E+00  0.21580878E+00  0.11693614E+00
  0.27278971E+00  0.21102739E+00  0.23862326E+00
  0.73255689E+00  0.75861124E+00  0.60880735E+00
  0.74427759E+00  0.45687092E-01  0.87601476E+00
  0.64506855E+00  0.74229007E+00  0.47323928E+00
  0.72477741E+00  0.27955790E+00  0.75274084E+00
  0.75723229E+00  0.20383801E+00  0.12882446E+00
  0.24529038E+00  0.51711210E+00  0.62374072E+00
  0.53972222E-02  0.73191858E-02  0.88592612E+00
  0.75122379E+00  0.49352440E+00  0.36069146E+00
  0.79398829E+00  0.98559116E+00  0.62261151E+00
  0.98602867E+00  0.47879147E+00  0.48629480E+00
  0.51651075E+00  0.98184607E+00  0.17696396E-02
  0.54845763E-01  0.54339575E+00  0.85818623E+00
  0.45922385E+00  0.73300280E-02  0.38526830E+00
  0.84236809E-02  0.25953338E+00  0.24734591E+00
  0.77864722E+00  0.74648373E+00  0.86709749E+00
  0.73911383E+00  0.47485538E+00  0.62199380E+00
  0.23667591E+00  0.72825645E+00  0.23468617E+00
  0.23004127E+00  0.26236835E+00  0.75370223E+00
  0.75561626E+00  0.73037532E+00  0.11573877E+00
  0.73016574E+00  0.24701894E+00  0.50299777E+00
  0.31796371E+00  0.50770193E+00  0.36555571E+00
  0.28293959E+00  0.25320653E+00  0.86853474E+00
  0.97379031E+00  0.96419662E+00  0.51984064E+00
  0.25498751E+00  0.74657866E+00  0.61008504E+00
  0.75833859E+00  0.75981478E+00  0.31513947E+00
  0.79891379E+00  0.23335291E+00  0.97730999E+00
  0.39076394E-01  0.68926034E+00  0.33180772E-02
  0.50186343E+00  0.54405454E+00  0.47048264E+00
  0.25686705E+00  0.22354386E+00  0.97786683E+00
  0.54001210E+00  0.23429761E+00  0.23447849E+00
  0.71928417E+00  0.78681007E+00  0.74310207E+00
  0.56247821E+00  0.74201320E+00  0.25163370E+00
  0.35821111E-01  0.79408389E-02  0.25925667E+00
  0.51811079E+00  0.49799007E+00  0.87203921E+00
  0.48519748E+00  0.12194934E-01  0.75559988E+00
  0.26934120E-03  0.71075958E+00  0.24432636E+00
  0.84232363E-02  0.24738924E+00  0.97892897E-02
  0.94238677E+00  0.73198720E+00  0.49226910E+00
  0.48078836E+00  0.99883391E+00  0.50018368E+00
  0.53819354E+00  0.25766214E+00  0.99398018E+00
  0.81013665E-02  0.76288851E+00  0.75070306E+00
  0.51949692E+00  0.49932240E+00  0.27437044E+00
  0.46155878E-01  0.53506517E+00  0.74646403E+00
  0.54493377E+00  0.29268780E-02  0.22818719E+00
  0.26724098E+00  0.24902463E+00  0.51437187E+00
  0.79900176E+00  0.76010134E+00  0.99392251E+00
  0.72451080E+00  0.20767800E+00  0.62557155E+00
  0.28325465E+00  0.73505444E+00  0.98116608E+00
  0.25514399E+00  0.51039680E+00  0.13005580E+00
  0.48881867E+00  0.51363350E+00  0.60569003E+00
  0.49692593E+00  0.51026214E+00  0.13743271E+00
  0.95231894E+00  0.99484763E+00  0.75878676E+00
  0.52821208E+00  0.72714496E+00  0.10509758E-01
  0.98645225E+00  0.23139540E+00  0.51214041E+00
  0.37231299E-01  0.49337521E+00  0.79040524E-01
  0.47224406E+00  0.27364832E+00  0.49031899E+00
  0.15243746E-01  0.50220982E+00  0.23768850E+00
  0.34970909E+00  0.75460077E+00  0.75164023E+00
  0.24084406E+00  0.75879334E+00  0.49310170E+00
  0.96286523E-02  0.26934695E+00  0.74848188E+00
  0.74212770E+00  0.97557021E+00  0.37531446E+00
  0.51596382E+00  0.30698185E+00  0.75141487E+00
  0.78919867E+00  0.25187807E+00  0.24063929E+00
  0.23071600E+00  0.76057285E+00  0.86997371E+00
  0.26044126E+00  0.85158383E+00  0.14431607E+00
  0.45295270E+00  0.98667193E+00  0.62658497E+00
  0.20227324E-02  0.98904141E+00  0.14011226E-02
  0.21124064E+00  0.74945104E+00  0.36046035E+00
  0.29387349E+00  0.51619854E+00  0.87091876E+00
  0.95010032E+00  0.99140626E+00  0.40172782E+00
  0.39223330E+00  0.20211911E-01  0.12718552E+00
  0.21302469E+00  0.24649626E+00  0.64425244E+00
  0.79740260E+00  0.48042238E+00  0.86809311E+00
  0.25174317E+00  0.28119099E+00  0.36792393E+00
  0.98410607E+00  0.47771149E+00  0.62365736E+00
  0.18604107E-01  0.76876605E-03  0.12305260E+00
  0.18596506E+00  0.94724523E+00  0.62520234E+00
  0.74662732E+00  0.46441230E+00  0.10943303E+00
  0.24617575E+00  0.99455700E+00  0.87397168E+00
  0.69554793E+00  0.23912137E+00  0.36995681E+00
  0.30949024E+00  0.96554736E+00  0.25068612E+00
  0.77668653E+00  0.53396891E+00  0.74311492E+00
  0.20166501E+00  0.15122567E-01  0.75200698E+00
  0.76712600E+00  0.50035545E+00  0.22886275E+00
  0.24045350E+00  0.96688742E+00  0.89791674E-03
  0.74591627E+00  0.48692258E+00  0.48904309E+00
  0.23627009E+00  0.21982729E-01  0.50139069E+00
  0.78425604E+00  0.49396539E+00  0.99382522E+00
  0.70064499E+00  0.28309089E-01  0.75669205E+00
  0.25264921E+00  0.47529398E+00  0.24819561E+00
  0.29029014E+00  0.50973970E+00  0.74899666E+00
  0.79022357E+00  0.99999330E+00  0.24964453E+00
  0.24975280E+00  0.51605910E+00  0.49537289E+00
  0.74882632E+00  0.99813876E+00  0.99880364E+00
  0.70990182E+00  0.98818546E+00  0.50243354E+00
  0.28988858E+00  0.48380600E+00  0.99734250E+00
  0.98382547E+00  0.24325106E+00  0.38358755E+00
  0.51962901E+00  0.77198676E+00  0.86621944E+00
  0.47171983E+00  0.26121011E+00  0.62325971E+00
  0.17775981E-01  0.73490315E+00  0.12655341E+00
  0.94111816E-02  0.25507389E+00  0.87574727E+00
  0.48793401E+00  0.74248871E+00  0.35789315E+00
  0.97296872E+00  0.75123102E+00  0.62276908E+00
  0.48520023E+00  0.24163940E+00  0.11831695E+00
  0.18385972E+00  0.36415588E+00  0.44871024E-01
  0.61424291E+00  0.89041748E+00  0.55965452E+00
  0.64501138E+00  0.11329715E+00  0.94916874E+00
  0.14814456E+00  0.61855562E+00  0.43684572E+00
  0.40554449E+00  0.38942990E+00  0.94509610E+00
  0.81591422E+00  0.86863442E+00  0.45942446E+00
  0.85626645E+00  0.10802306E+00  0.48375510E-01
  0.35303484E+00  0.62653367E+00  0.54029979E+00
  0.88819788E+00  0.10428385E+00  0.18582776E+00
  0.38299187E+00  0.61400211E+00  0.69063715E+00
  0.87886575E+00  0.91109640E+00  0.31608424E+00
  0.37915983E+00  0.40366160E+00  0.80302643E+00
  0.15140447E+00  0.59685106E+00  0.29514461E+00
  0.60374179E+00  0.14387628E+00  0.80186438E+00
  0.14270937E+00  0.36830164E+00  0.20233059E+00
  0.62059623E+00  0.93472888E+00  0.69067550E+00
  0.86498753E+00  0.61048095E+00  0.94131661E+00
  0.34685551E+00  0.10973807E+00  0.44785112E+00
  0.85147365E+00  0.37367910E+00  0.53756082E+00
  0.35296997E+00  0.86187674E+00  0.53187860E-01
  0.13613270E+00  0.11621794E+00  0.55428461E+00
  0.67715820E+00  0.60178987E+00  0.44343098E-01
  0.13806692E+00  0.87232687E+00  0.94106588E+00
  0.64115731E+00  0.38788609E+00  0.43302573E+00