Na88 Ge16 P8 S96                        
   1.00000000000000     
    13.3422163233000006    0.0000000000000000    0.0000000000000000
     0.0000000000000000   13.3422163233000006    0.0000000000000000
     0.0000000000000000    0.0000000000000000   26.6844326466999995
   Na   Ge   P    S 
    88    16     8    96
Direct
  0.9827810644775206  0.0091345004314255  0.1177043234107274
  0.5049607598631565  0.4891974307383513  0.7188749979316363
  0.2261040822419084  0.3338631611277096  0.8731017870872617
  0.0203336517493138  0.9587278962726649  0.3785884594257656
  0.4278008791534804  0.0340529995049102  0.8817148191368087
  0.9800821272648863  0.4733145698164899  0.3778865193504462
  0.9665227615057163  0.5033150100088031  0.1243263443807924
  0.2738854927219068  0.2027363391804798  0.1452638957185694
  0.7253401360403846  0.9598607237686301  0.6116311021974234
  0.7188803762858165  0.2451002725425249  0.7628150692869210
  0.7015725147174608  0.5172120217721402  0.3673462569934811
  0.2195814608128611  0.2347155608645110  0.7373157604995308
  0.7552290846867962  0.2812299790657621  0.1177517818770810
  0.2289695267283912  0.6927967510421308  0.6259940059553432
  0.9569632956753219  0.9941705388718595  0.8660395468751526
  0.4901418241897152  0.4400222145524338  0.3716359087448090
  0.9758296252466933  0.9784771135115000  0.6287840419461876
  0.0158658654289111  0.4820652594518651  0.6345095537504813
  0.5017105334324564  0.0325900397140413  0.0016942369688214
  0.0041636367672048  0.5375259982315956  0.8670553956853275
  0.5150127974804688  0.9627952811116443  0.3763444682142827
  0.2454165257008913  0.9828725930020390  0.3844983720050041
  0.6990625222054234  0.3092143075524840  0.8742978385767345
  0.7640323940282090  0.4965718972286830  0.6209417280066649
  0.2261008096168197  0.9515458768341239  0.1313790475565028
  0.2198741665828670  0.2456745019608146  0.5052145514527703
  0.7360694483374041  0.7670915952390589  0.1324830549484425
  0.9631122404570914  0.2287538858771552  0.4953743890110748
  0.4963583378571093  0.0290889553275895  0.5063877046996446
  0.4803759842122060  0.2780574584039630  0.9892255608551378
  0.9802358040800524  0.4622817328731634  0.5134639472297573
  0.7878364810630206  0.7423782955687420  0.7561652680943359
  0.9885437841154416  0.7002996949283814  0.2723619882584449
  0.4864809053362107  0.2361053318911223  0.7444111321052421
  0.9738070470498009  0.6468065684679656  0.0236066914895333
  0.6841072520245832  0.2272685472714563  0.5065060733639675
  0.7693190630897669  0.8064414511681994  0.0048666401866347
  0.4644345067692656  0.1929914653223020  0.2427800195786052
  0.2222153790261744  0.7349991303998186  0.7594754912309885
  0.4761636627350356  0.7305985621404361  0.2418834565007555
  0.0371683412787696  0.9967245224610906  0.2567921665022414
  0.3925167993502332  0.5486161961788408  0.8703407847608363
  0.4550470807475757  0.9832189916673938  0.7541357242401725
  0.9781118626448423  0.4572569480240681  0.2460790609984533
  0.2328413361827407  0.2488963947615050  0.0025287476691647
  0.7252649608975916  0.7173602078590477  0.4790542813959089
  0.2294201937495012  0.7477827109240212  0.4819674372124588
  0.7552766612444335  0.2911262334420199  0.9950049154966921
  0.9604530134564960  0.9283785832836018  0.7409071610166530
  0.4599520583154391  0.4710234065962574  0.2427960398810281
  0.0211581045085534  0.5067173006261992  0.7484098823967539
  0.5551241165852661  0.9541212620244259  0.2664341189112930
  0.2720842081361212  0.2342476343034048  0.3771517558466203
  0.7042670832690230  0.7737147370187115  0.8827851812586979
  0.7361154564144469  0.2405166879869882  0.6385291179374895
  0.2151756409115356  0.7490830134635097  0.0203090903458118
  0.0043421212134947  0.0390699961074298  0.9849859514698678
  0.4615244812886851  0.7464315400663902  0.5072849887532552
  0.4770856103634876  0.5318059209335678  0.1146670000051649
  0.9717220910274946  0.6912389210625447  0.4849173942186916
  0.4974714681650312  0.7970328018426380  0.0050449328209317
  0.9725285320727592  0.9835822438591107  0.5041081627734504
  0.9957757932052641  0.3964556464591354  0.9781052890725414
  0.4770746571346577  0.4770524936736413  0.4983390081440380
  0.1211972300003622  0.2139451173080465  0.2631945005889753
  0.7281257317507867  0.5433365082859163  0.8625859082208633
  0.2218253578256628  0.7446260821030923  0.1910625023412103
  0.9514109616827864  0.2227368287877546  0.7445963089460517
  0.7340415518685721  0.7508866429978837  0.2605554232955153
  0.1565768835307956  0.2279766267901830  0.6242108328403214
  0.8103347056424867  0.2727485923689689  0.2404132060655412
  0.4807741854054033  0.6982498827220963  0.7405238950509118
  0.2478035425107440  0.4703586133873514  0.1235682538904667
  0.4619847605126097  0.9527321588590564  0.6330948766820812
  0.7076798126017869  0.0443254215540905  0.8761591721366829
  0.2409735809885504  0.4800256636814944  0.3795771924100609
  0.2006337413472883  0.7438554872351153  0.8764428079114237
  0.7720303019769120  0.9475045181531109  0.3689535432566740
  0.7477901893355270  0.0391272382940734  0.1284609570942485
  0.2965894938154435  0.4482182368131710  0.6192089966706081
  0.4747092237728788  0.5548252077048353  0.9848650293520085
  0.2204433224913955  0.6980422200744856  0.3564997429206070
  0.7294906308125960  0.7126316384777327  0.6037394906096155
  0.4938396103686685  0.0056560816004563  0.1306579596664333
  0.2236595820377204  0.9750316571473437  0.6293391077018006
  0.7183720733202230  0.5327955606917034  0.1184581317865743
  0.1949896142726755  0.0528768765355489  0.8869915450087502
  0.7124556837734745  0.2335966137633800  0.3733270624675236
  0.2923938925404626  0.9581796208732071  0.2598969353572703
  0.7495433732244910  0.5038804240938534  0.7464309496635242
  0.2001370472783461  0.9836105352175415  0.7538912618177387
  0.7348772317482439  0.5076229956900019  0.2417709774146405
  0.2477077328427494  0.0015495184718671  0.0067481058608571
  0.7385639263570080  0.4557648712741911  0.4972560586327046
  0.2166133784826571  0.0023757785204847  0.5080537480775930
  0.7336260070774456  0.5464083047462637  0.9895625690295942
  0.7105585377122072  0.9897205601737505  0.7478013335078458
  0.2360266296737554  0.4727427646127275  0.2398368513981614
  0.2514204299475752  0.4848618039726407  0.7538160883845542
  0.7803892145273655  0.9973576133983363  0.2485014102905125
  0.2317136884287258  0.4784825285456096  0.5048223303200972
  0.7317586915650274  0.0522033636727606  0.9995214921514368
  0.7400466061336417  0.9622280024790344  0.4988054030246821
  0.2160817130144124  0.4974246066797878  0.0020517406691894
  0.0030837307431241  0.2112163269733721  0.3748360609064899
  0.4606941652575215  0.7868684528550611  0.8811952025771069
  0.4654668294021098  0.2293181401014341  0.6252389487921242
  0.9915790446439013  0.7673380168513169  0.1306435047314526
  0.9667401488375086  0.2598692362212301  0.8755183418307591
  0.4718903564668869  0.7199342889874856  0.3800302291401045
  0.9800399613515786  0.7228802618104532  0.6251836992447986
  0.5111909412776529  0.2614080582049179  0.1191950338300515
  0.1362976315896362  0.3891879605188014  0.0514679682010755
  0.6281061267571398  0.8614127012521289  0.5348793036761551
  0.6310450930669405  0.1574663053415581  0.9507525190363161
  0.1231986004982646  0.5693015680945769  0.4545445934228455
  0.3307135364334090  0.4012719224658258  0.9597746344180564
  0.8381470884113520  0.8665113367930036  0.4524957113102153
  0.8331331175851723  0.1368044456583437  0.0474227109481172
  0.3170127379378902  0.6082573116236507  0.5399768557623282
  0.8715765255200933  0.1036251270766408  0.2033666603092114
  0.3247015371380167  0.5828687085232795  0.6969749743281005
  0.8799378167181444  0.8826437188533113  0.2986766240406071
  0.3698402633465602  0.3908617040863349  0.8011843440616060
  0.1346221125408106  0.5727608395858632  0.2873043815204753
  0.5976720151550181  0.0827477695508003  0.7937882994550703
  0.1396645964813764  0.3726682964954228  0.1913799023094156
  0.6230268945358021  0.8804035623685144  0.7019471760013308
  0.8235504479793061  0.6436209620305877  0.9426353422062229
  0.3124978137134707  0.0858603774574098  0.4578008825269490
  0.8250308645125600  0.3573512117438028  0.5482475182356883
  0.3556569808081308  0.9146730919012145  0.0560683534970968
  0.1136512157686953  0.0971227197752429  0.5514507947851469
  0.6484657109357380  0.6492887423393890  0.0412445165884793
  0.1563904570891405  0.9148562405082726  0.9558577265225554
  0.6400153667001356  0.3713519491637532  0.4423351338656396
  0.6399656075311565  0.4041876294043039  0.2897337823381610
  0.1073332501705895  0.8817937491865218  0.7963544872176710
  0.1078110874142857  0.0774141725231125  0.6993441337251084
  0.6135792633345072  0.6034053312426615  0.2044900298032149
  0.8553521986005694  0.3908638976876634  0.7029016112934559
  0.3859658115786421  0.8809178734593673  0.1983009812492922
  0.3911951801325592  0.0516249379833098  0.3087639627900648
  0.8667227433877267  0.5784730845684182  0.7969494891637593
  0.1574612413537068  0.0920917977910050  0.0606821297384663
  0.6464062119095534  0.5491290395587902  0.5524865913835914
  0.6288874725991971  0.4514617337826764  0.9509550824636395
  0.1209319320572163  0.8974657322264009  0.4599245854329707
  0.3345977544088924  0.1137612762947661  0.9591265090283663
  0.8449743889129909  0.5516925310361566  0.4494990202454044
  0.8325634101303716  0.4537541767176972  0.0446065013116629
  0.3349092181787896  0.9015771646088727  0.5554061867306201
  0.2079172216429120  0.0679409271426391  0.2149810913432185
  0.6738936894886938  0.6190460391329434  0.6971645888072926
  0.1773122378075329  0.8689146772941795  0.3064674356372566
  0.6369579762415317  0.4166045579179319  0.7885605201070239
  0.8473962203373664  0.5779715520226572  0.2954206620835773
  0.2959354158178613  0.0881852616451497  0.8005910773015655
  0.8173971645324708  0.4252757319945378  0.1882122005545636
  0.3011798023890792  0.8897383744823628  0.7061284592573739
  0.8316716761209572  0.9591706890903289  0.9491031804035831
  0.3268781158878653  0.3864654018696043  0.4506268214013178
  0.8324805217754809  0.0608742787360946  0.5491436174576954
  0.3281733171080612  0.5848183381752795  0.0465810501567558
  0.1442581917695719  0.3954325359661612  0.5620395713327906
  0.6447503968949501  0.9541780694230546  0.0525638458640337
  0.0947971149632338  0.5696208443860024  0.9566367003586094
  0.6497677858633725  0.0452867957686528  0.4367647177357253
  0.3108644526466103  0.3731668672414449  0.2964915353449344
  0.7968416219885494  0.9113250736904871  0.8059604031594714
  0.8265187813144232  0.0733881561419759  0.7030928352299857
  0.3264189150030935  0.5796221542724066  0.1970705968200102
  0.1524802401290589  0.4009125333156168  0.6966427760732848
  0.6798031009091251  0.9074436276799441  0.1975384756958072
  0.6938027324399128  0.0731086352329310  0.3054510215539207
  0.1606318683832509  0.5814659159207741  0.8139344560695249
  0.1051316418198638  0.1182489137912986  0.3436702661740010
  0.5453619442484751  0.6776719608769101  0.8409883981571408
  0.5489343464816090  0.3316734649410247  0.6629338542651113
  0.0564555067590704  0.8706340763044990  0.1788568781939835
  0.3747080148497990  0.1515550848774553  0.6705546683028946
  0.9081827076299382  0.6725022637561007  0.1770780270647381
  0.9459346589797729  0.2895039259429779  0.3166491891818283
  0.3685530777728061  0.8530022369501871  0.8298507078506284
  0.0613695304976995  0.2062938583574147  0.9272907098327717
  0.5455854750493515  0.6233837853955060  0.4310449277020096
  0.0729156242513875  0.8168234003257701  0.5813191884216844
  0.5903900518778453  0.3569130170836585  0.0782924906096019
  0.8987591318825174  0.6185493033348158  0.5851961416430125
  0.4256543446686292  0.1691581499418632  0.0750868831112604
  0.8861811723928322  0.3789724256234485  0.9039474816409028
  0.3867199020227697  0.8253838441403458  0.4145338474975692
  0.8659123379756006  0.8109918271737159  0.6599131601613175
  0.4112785735924640  0.3334126203745407  0.1666844662503276
  0.8588824079392896  0.1663853461269266  0.8399605279385568
  0.3936920243985241  0.6313909020855353  0.3343644990732462
  0.0592982027794850  0.3242272199514306  0.8187057353210004
  0.5749051164804234  0.7912236316174275  0.3360754455829404
  0.0504215539469474  0.6646368604059633  0.6851718035849927
  0.5960125020535835  0.1689932494562713  0.1682096542646940
  0.4039845763382937  0.3062575274310511  0.5691087123410500
  0.9128726077503290  0.8314256992499804  0.0744683057753723
  0.8899470706239411  0.1232079072182950  0.4092022395831779
  0.3778766194044966  0.7168922943248197  0.9382650153537192
  0.0593076600646427  0.3072537263338206  0.4233819779483216
  0.5585132160099320  0.8893108625720964  0.9137631897794852
  0.5654887382603776  0.1234279357192622  0.5979143520206374
  0.0992248789706861  0.6798959405080345  0.1004429095942541
 
 -0.63429131E-02 -0.45947583E-02 -0.48614041E-02
 -0.17531306E-02  0.61333678E-02 -0.59559719E-04
  0.53112835E-03  0.14193071E-02  0.29668904E-02
 -0.91058960E-03 -0.39477930E-02 -0.42183532E-02
 -0.25877765E-02 -0.21653531E-02  0.34061374E-02
 -0.49635042E-02  0.58391244E-02 -0.39442233E-02
 -0.26456185E-02  0.30948861E-02 -0.41098838E-02
 -0.31111535E-02 -0.43134311E-02 -0.24276670E-02
  0.25255695E-03  0.88735974E-02 -0.52756124E-02
  0.48219600E-02  0.13179072E-01  0.31563235E-02
  0.36729999E-02 -0.13475667E-02 -0.50974106E-02
 -0.20660503E-02  0.59088476E-02 -0.80256735E-02
  0.21287164E-03  0.52905339E-02  0.42702132E-02
 -0.45828258E-02  0.54778450E-02 -0.11431629E-02
 -0.57243440E-02  0.20083610E-02  0.13783600E-02
 -0.32140374E-02  0.12862260E-02  0.30676972E-02
 -0.57358567E-02  0.26774280E-02  0.36555127E-02
  0.22205395E-02 -0.29482110E-03  0.11428442E-01
 -0.23245997E-02 -0.48220788E-02  0.50190701E-04
  0.62060221E-02  0.84913101E-02 -0.13884424E-01
  0.10366511E-02  0.10306413E-01  0.34314173E-02
  0.34854446E-03 -0.66342318E-03 -0.13168093E-03
 -0.51680200E-03 -0.82386607E-03  0.22853249E-02
  0.20433658E-02 -0.15060839E-02 -0.35712863E-02
 -0.55136717E-02 -0.12559967E-01 -0.52505565E-02
 -0.53124558E-02  0.28883760E-02 -0.23981093E-02
  0.25681246E-02 -0.32574958E-02 -0.73830300E-02
 -0.81870643E-03 -0.41391999E-02 -0.48213011E-02
  0.95934265E-02  0.11682337E-02  0.10342445E-02
 -0.28626328E-02 -0.22335569E-02  0.27481152E-02
 -0.27582806E-02  0.14806403E-03  0.12540584E-02
  0.20697679E-03  0.18303445E-02 -0.54653129E-02
 -0.32002628E-02 -0.28447717E-02 -0.70296647E-02
  0.21698027E-02 -0.60568840E-02 -0.44327672E-02
 -0.39851567E-02 -0.32984387E-02 -0.24095400E-02
  0.17565856E-02 -0.31167281E-02  0.77973435E-02
 -0.58872943E-03  0.62371982E-02  0.23006763E-02
 -0.10476991E-03  0.27122776E-02  0.49870837E-02
 -0.34365033E-02 -0.25141181E-02  0.52682412E-03
  0.61303033E-02  0.55969961E-02  0.42364053E-03
  0.30713255E-02 -0.18188274E-02 -0.97674486E-03
  0.18293298E-02 -0.49357413E-02  0.83490191E-02
  0.47046710E-03  0.30856715E-03 -0.52052754E-02
  0.25229510E-02  0.51579069E-03  0.50062880E-02
 -0.94714983E-03 -0.50516718E-03 -0.50891725E-02
  0.26780438E-03 -0.26726654E-02 -0.16432545E-02
 -0.58410153E-02  0.54075688E-02 -0.53894381E-02
 -0.18002214E-02  0.33698998E-02  0.17593072E-02
 -0.69314551E-02 -0.39373638E-02  0.17210929E-03
  0.85787293E-02 -0.17891930E-02 -0.14903216E-02
 -0.21830599E-02 -0.38775309E-02 -0.48135667E-02
  0.48827197E-02 -0.98179610E-03  0.23810460E-02
 -0.13084152E-02  0.13599441E-02  0.28771496E-02
 -0.16885505E-02  0.19529520E-02 -0.19800338E-02
  0.22920546E-02  0.43316909E-02 -0.28716111E-02
 -0.23314988E-02 -0.21061929E-03  0.81665768E-02
  0.32032215E-03  0.31269553E-02 -0.74151491E-02
  0.58084138E-03  0.77032562E-03 -0.21834129E-03
 -0.17427177E-03 -0.74388749E-03  0.38193009E-02
 -0.44387576E-02  0.24352678E-02  0.16416031E-02
  0.23929443E-02 -0.63132750E-02  0.62626716E-04
 -0.28134999E-02 -0.11587517E-02  0.33957380E-02
  0.50313436E-02 -0.28405001E-02  0.39038868E-02
 -0.71514814E-03 -0.57132760E-02 -0.36702921E-02
 -0.84278284E-02 -0.24904152E-03 -0.22327492E-02
  0.45020653E-02 -0.63032429E-02 -0.49213037E-02
 -0.44311050E-02 -0.45023400E-02  0.13400262E-02
  0.46307698E-02 -0.31425437E-02 -0.67621917E-03
  0.27700777E-02 -0.38077613E-02  0.15916259E-02
  0.12142772E-03 -0.43106709E-02 -0.46709429E-02
  0.40942990E-03  0.37469745E-02  0.87438753E-03
 -0.12756875E-02 -0.43125819E-02  0.39488089E-02
 -0.86048083E-02 -0.64886680E-02  0.75261579E-02
 -0.25074763E-02  0.34163526E-02 -0.39737830E-02
 -0.61402068E-02 -0.47833083E-03  0.68678650E-02
  0.60848678E-02  0.95093883E-03  0.59621950E-02
  0.15063320E-01  0.35502130E-02 -0.26708753E-02
  0.73715896E-02 -0.17321067E-02  0.51518160E-02
  0.52886760E-02  0.47434859E-02 -0.44429513E-02
 -0.15707679E-02  0.66055879E-02 -0.44270136E-02
 -0.29601381E-02  0.57858209E-02  0.38681242E-02
  0.15156059E-02 -0.53121841E-03 -0.63079205E-02
 -0.24526872E-03  0.80971076E-03 -0.33432615E-02
  0.58331199E-02 -0.12560399E-03 -0.98471896E-03
 -0.24104304E-02 -0.59030222E-02 -0.94577619E-03
 -0.43895747E-03 -0.11525287E-02 -0.34924670E-02
  0.80195255E-02  0.56183836E-02  0.76324211E-03
 -0.67151016E-02 -0.17157324E-02 -0.66557708E-02
  0.25673026E-03  0.46026733E-02 -0.38447054E-02
 -0.13178910E-02 -0.21390251E-02 -0.64990906E-03
  0.16092682E-03 -0.82778482E-03 -0.37964655E-03
  0.48388140E-02 -0.51090776E-03  0.18009092E-02
 -0.96470443E-03  0.16687499E-03  0.15472557E-02
 -0.64513762E-03 -0.40852006E-02  0.39771514E-02
  0.70853102E-02  0.11618533E-02  0.11656629E-02
  0.39914480E-02  0.37522152E-02  0.22921603E-02
 -0.11628778E-02 -0.27167003E-02 -0.52650675E-03
  0.12685315E-03  0.43887948E-02 -0.19307858E-02
 -0.17626882E-02 -0.25062316E-02 -0.12227124E-03
 -0.56686884E-03 -0.12765613E-02  0.12397760E-02
  0.66257010E-03 -0.29722925E-02  0.17823546E-02
 -0.21788536E-02  0.19137104E-02 -0.10159184E-02
  0.24096082E-02  0.41843375E-02  0.13756465E-02
 -0.19010568E-02 -0.82202779E-03 -0.20177656E-03
 -0.49387990E-04 -0.34650027E-02 -0.35946211E-02
  0.43958383E-02  0.19055504E-02  0.23759446E-02
  0.20483432E-02 -0.16721987E-02  0.91345788E-03
  0.97117639E-03  0.17705605E-03 -0.11715684E-02
 -0.13784404E-02 -0.10959731E-02 -0.79562917E-03
 -0.30705613E-02 -0.99236798E-03  0.36692100E-02
 -0.22703593E-03  0.39469762E-02  0.30305367E-02
 -0.57419039E-03  0.29171836E-03 -0.40446316E-02
 -0.61878265E-03 -0.20099101E-02  0.19626422E-02
  0.33044188E-02  0.17046925E-03 -0.46674301E-02
 -0.13291269E-02  0.40126980E-03 -0.18721422E-02
 -0.46357694E-02 -0.25600174E-03  0.25558492E-02
  0.19199441E-02 -0.25999475E-02 -0.17053923E-02
 -0.32455769E-02 -0.71335275E-02 -0.21211057E-02
 -0.93356379E-03  0.30100057E-02  0.69816890E-03
  0.22684349E-03  0.60521493E-02 -0.37255513E-02
  0.22143104E-03  0.14297089E-02 -0.32776990E-02
  0.98711156E-03 -0.57370888E-02  0.43784927E-02
 -0.23448543E-02  0.78148158E-03 -0.53251448E-02
 -0.17404061E-02  0.39779312E-02  0.20268894E-02
  0.48723080E-03 -0.73263448E-02 -0.94546646E-03
 -0.36093990E-02 -0.39996643E-02  0.38502328E-02
 -0.37143153E-02  0.57937849E-02  0.16830888E-02
  0.49029211E-02  0.64782775E-02  0.25973798E-02
 -0.76182452E-02  0.47233680E-02 -0.27454012E-04
 -0.52654783E-02 -0.64571923E-02  0.67160322E-03
 -0.41476394E-02  0.26797402E-02  0.95977722E-03
 -0.15031221E-02  0.82659905E-02  0.45568829E-02
  0.17298662E-02  0.42462984E-02  0.13766146E-02
  0.39293990E-03 -0.52434548E-02  0.45989658E-02
 -0.71883791E-03 -0.12467208E-02 -0.87829955E-03
 -0.36855622E-03 -0.36422651E-02  0.59962840E-02
 -0.44051881E-02 -0.36350944E-02 -0.13008453E-02
  0.11772466E-02  0.22789580E-02  0.34506509E-02
 -0.76553629E-02 -0.35434386E-02 -0.40119272E-02
 -0.16516335E-02 -0.83320776E-02 -0.58725893E-03
  0.67088534E-02  0.35238575E-02 -0.58315611E-02
 -0.16120340E-02  0.31391329E-02  0.26270351E-02
 -0.10402257E-02  0.26732528E-02  0.11764565E-02
  0.65287873E-03  0.11408305E-02  0.15923924E-02
  0.25685263E-02  0.68082792E-02  0.20281876E-02
  0.21553781E-02  0.24443735E-02  0.41856637E-02
 -0.36073269E-02  0.64090103E-02  0.14752954E-02
 -0.25509465E-02  0.11369784E-02  0.43516329E-02
 -0.45509180E-03 -0.22263925E-03 -0.21230233E-04
 -0.14473061E-02  0.20004161E-03  0.46355143E-02
 -0.48820119E-03 -0.25312945E-02  0.35654793E-02
  0.37628972E-03 -0.87055064E-02 -0.39412427E-02
 -0.43189291E-02 -0.22282661E-03 -0.30565493E-03
  0.99210413E-02 -0.33259507E-02  0.40456863E-02
 -0.11635307E-02 -0.31650317E-03 -0.46197626E-02
  0.54147006E-02 -0.55584865E-02 -0.46580528E-02
 -0.39670579E-02  0.86076513E-03  0.17644348E-02
  0.84068140E-03 -0.53911940E-02  0.25026316E-03
  0.38496625E-02  0.40183381E-02  0.14165735E-02
 -0.41577186E-02 -0.95127834E-03  0.49585861E-03
 -0.68645484E-02 -0.13937823E-02  0.17650752E-02
  0.51252628E-02  0.17481505E-02  0.20207661E-02
  0.28355182E-02 -0.35328381E-02  0.25725269E-02
 -0.12393628E-02 -0.55719498E-03 -0.51134174E-02
 -0.20566926E-03 -0.24216814E-02  0.33948356E-03
  0.55156921E-02 -0.43392908E-03 -0.60584602E-03
 -0.34351471E-02  0.12713485E-02  0.55515341E-02
  0.44463810E-02  0.27806839E-02  0.28206102E-02
 -0.34893408E-02 -0.51587444E-02  0.34700760E-02
 -0.65751382E-02 -0.45201082E-03 -0.22289309E-02
 -0.24808473E-02 -0.27076717E-02  0.17994613E-02
  0.55904601E-02  0.64964400E-02 -0.29232101E-02
  0.25002371E-02 -0.51906697E-02  0.37251388E-02
 -0.29459091E-02  0.32305039E-02 -0.32281878E-02
 -0.20644032E-02  0.56998939E-03  0.62872884E-03
  0.77734113E-03 -0.70868121E-02 -0.21147591E-02
 -0.10206044E-02  0.80282181E-03 -0.21581342E-02
  0.55769763E-03 -0.74324138E-03 -0.12675659E-02
  0.41811743E-02  0.10075298E-02  0.43712311E-02
 -0.25859451E-03  0.13549622E-02 -0.38204229E-02
  0.11352550E-02 -0.98244419E-02 -0.53819480E-02
  0.64480164E-02  0.17939320E-02 -0.86015100E-03
 -0.15392459E-02 -0.31693384E-02 -0.28217398E-02
  0.28076074E-02  0.29418913E-02 -0.43403024E-02
 -0.14132189E-02  0.70502268E-02  0.36696753E-02
  0.27636641E-02  0.69925660E-03  0.61176453E-02
 -0.57628277E-02 -0.54046498E-02  0.24526789E-02
  0.28122390E-02  0.82608247E-02  0.62794674E-03
  0.41400066E-02  0.11926924E-02  0.13614477E-02
  0.19515903E-02 -0.14888022E-02  0.50778904E-02
 -0.23548964E-02 -0.11402600E-02  0.11700296E-02
  0.36083516E-02 -0.56736397E-02 -0.31677294E-02
  0.74435991E-03  0.27438175E-04  0.61743802E-02
  0.26597869E-02 -0.89709997E-03 -0.28856646E-02
 -0.16003261E-02 -0.90108280E-03 -0.67186187E-02
 -0.12510491E-02 -0.49790452E-02 -0.28256499E-02
  0.28926118E-02 -0.33957469E-02  0.42659293E-02
  0.12956357E-02  0.54564457E-02 -0.45567773E-02
  0.32430813E-02  0.13578563E-02  0.43992434E-02
  0.13526518E-02  0.35097746E-02 -0.99050614E-03
  0.53603132E-02 -0.80948922E-04 -0.38264834E-02
 -0.23764932E-02  0.27879010E-02  0.21194113E-02
  0.18995367E-02  0.19693386E-02  0.35342832E-02
  0.11103022E-02 -0.29943484E-02 -0.23396898E-02
 -0.64907608E-06  0.31465575E-02 -0.36198616E-02
 -0.35202833E-02 -0.15324708E-02  0.13346483E-02
 -0.84638074E-03  0.28441804E-02 -0.13096721E-02
 -0.62499015E-02  0.11901218E-02 -0.89337594E-02
 
           1
   2.00000000000000     
  0.12204935E+01 -0.21608973E-02  0.00000000E+00  0.00000000E+00
  0.98183026E+00  0.84457455E-02  0.11733996E+00
  0.50469797E+00  0.49011682E+00  0.71887053E+00
  0.22618370E+00  0.33407592E+00  0.87332416E+00
  0.20197154E-01  0.95813612E+00  0.37827229E+00
  0.42741297E+00  0.33728413E-01  0.88197011E+00
  0.97933810E+00  0.47418986E+00  0.37759090E+00
  0.96612618E+00  0.50377893E+00  0.12401831E+00
  0.27341913E+00  0.20208976E+00  0.14508194E+00
  0.72537799E+00  0.96119088E+00  0.61123569E+00
  0.71960319E+00  0.24707582E+00  0.76305164E+00
  0.70212310E+00  0.51701002E+00  0.36696421E+00
  0.21927176E+00  0.23560130E+00  0.73671424E+00
  0.75526099E+00  0.28202303E+00  0.11807183E+00
  0.22828256E+00  0.69361788E+00  0.62590833E+00
  0.95610522E+00  0.99447159E+00  0.86614286E+00
  0.48966004E+00  0.44021502E+00  0.37186583E+00
  0.97496982E+00  0.97887846E+00  0.62905802E+00
  0.16198725E-01  0.48202107E+00  0.63536612E+00
  0.50136208E+00  0.31867209E-01  0.16979988E-02
  0.50939203E-02  0.53879885E+00  0.86601476E+00
  0.51516819E+00  0.96434021E+00  0.37660165E+00
  0.24546877E+00  0.98277315E+00  0.38448850E+00
  0.69898505E+00  0.30909081E+00  0.87446912E+00
  0.76433869E+00  0.49634614E+00  0.62067406E+00
  0.22527431E+00  0.94966314E+00  0.13098552E+00
  0.21907783E+00  0.24610747E+00  0.50503481E+00
  0.73645441E+00  0.76660330E+00  0.13192970E+00
  0.96298952E+00  0.22813342E+00  0.49501303E+00
  0.49779639E+00  0.29264074E-01  0.50646522E+00
  0.47994688E+00  0.27772265E+00  0.98943153E+00
  0.97982234E+00  0.46230393E+00  0.51355794E+00
  0.78786751E+00  0.74265266E+00  0.75575564E+00
  0.98806406E+00  0.69987326E+00  0.27183511E+00
  0.48680616E+00  0.23519740E+00  0.74407890E+00
  0.97320967E+00  0.64631213E+00  0.23426096E-01
  0.68437056E+00  0.22680135E+00  0.50709048E+00
  0.76923081E+00  0.80737641E+00  0.50390760E-02
  0.46441880E+00  0.19339804E+00  0.24315380E+00
  0.22170025E+00  0.73462226E+00  0.75951498E+00
  0.47708260E+00  0.73143755E+00  0.24191521E+00
  0.37628733E-01  0.99645188E+00  0.25671896E+00
  0.39279102E+00  0.54787633E+00  0.87096654E+00
  0.45511760E+00  0.98326525E+00  0.75374559E+00
  0.97849005E+00  0.45733427E+00  0.24645428E+00
  0.23269936E+00  0.24882067E+00  0.21473138E-02
  0.72530510E+00  0.71695957E+00  0.47893112E+00
  0.22854462E+00  0.74859331E+00  0.48156350E+00
  0.75500681E+00  0.29163138E+00  0.99513678E+00
  0.95941399E+00  0.92778837E+00  0.74092006E+00
  0.46123801E+00  0.47075521E+00  0.24268434E+00
  0.20830864E-01  0.50613606E+00  0.74804911E+00
  0.55585604E+00  0.95397409E+00  0.26661258E+00
  0.27188808E+00  0.23445149E+00  0.37736740E+00
  0.70401397E+00  0.77400748E+00  0.88263678E+00
  0.73645904E+00  0.24116601E+00  0.63831389E+00
  0.21482615E+00  0.74905144E+00  0.20921176E-01
  0.43901375E-02  0.39538727E-01  0.98443019E+00
  0.46161155E+00  0.74654701E+00  0.50726862E+00
  0.47705949E+00  0.53169441E+00  0.11495326E+00
  0.97105672E+00  0.69160397E+00  0.48504043E+00
  0.49783017E+00  0.79608644E+00  0.50496267E-02
  0.97210679E+00  0.98340855E+00  0.50436267E+00
  0.99652999E+00  0.39602986E+00  0.97839789E+00
  0.47696746E+00  0.47619607E+00  0.49806392E+00
  0.11993390E+00  0.21390779E+00  0.26302716E+00
  0.72880059E+00  0.54239165E+00  0.86221706E+00
  0.22116113E+00  0.74395118E+00  0.19116294E+00
  0.95210511E+00  0.22226576E+00  0.74454563E+00
  0.73445679E+00  0.75031586E+00  0.26067472E+00
  0.15659509E+00  0.22733046E+00  0.62386075E+00
  0.81039608E+00  0.27331026E+00  0.24047874E+00
  0.48058296E+00  0.69760343E+00  0.74081986E+00
  0.24651368E+00  0.46938596E+00  0.12413234E+00
  0.46160889E+00  0.95324427E+00  0.63279704E+00
  0.70675939E+00  0.44253720E-01  0.87667392E+00
  0.24188570E+00  0.48016821E+00  0.38002406E+00
  0.20289174E+00  0.74438766E+00  0.87624263E+00
  0.77313530E+00  0.94724488E+00  0.36933967E+00
  0.74858296E+00  0.39838287E-01  0.12812796E+00
  0.29635404E+00  0.44920842E+00  0.61887719E+00
  0.47426550E+00  0.55569250E+00  0.98515495E+00
  0.22067051E+00  0.69796259E+00  0.35602696E+00
  0.72945386E+00  0.71275301E+00  0.60348891E+00
  0.49471400E+00  0.56372535E-02  0.13058415E+00
  0.22329826E+00  0.97414679E+00  0.62926822E+00
  0.71830627E+00  0.53262280E+00  0.11819637E+00
  0.19619174E+00  0.53719073E-01  0.88704875E+00
  0.71144909E+00  0.23333943E+00  0.37282821E+00
  0.29243238E+00  0.95886956E+00  0.25960877E+00
  0.74934582E+00  0.50355978E+00  0.74638224E+00
  0.20016117E+00  0.98348645E+00  0.75386281E+00
  0.73560257E+00  0.50754641E+00  0.24190596E+00
  0.24756312E+00  0.15745331E-02  0.68640728E-02
  0.73846722E+00  0.45515250E+00  0.49755415E+00
  0.21767547E+00  0.25499405E-02  0.50814111E+00
  0.73422433E+00  0.54697076E+00  0.98973437E+00
  0.71038422E+00  0.98931333E+00  0.74776187E+00
  0.23604564E+00  0.47340065E+00  0.23969214E+00
  0.25115620E+00  0.48448612E+00  0.75380692E+00
  0.78030424E+00  0.99716626E+00  0.24859433E+00
  0.23181301E+00  0.47803698E+00  0.50495592E+00
  0.73143208E+00  0.52490229E-01  0.99944535E+00
  0.74040781E+00  0.96285524E+00  0.49890851E+00
  0.21579674E+00  0.49730138E+00  0.20366175E-02
  0.30763275E-02  0.21069692E+00  0.37456664E+00
  0.46135310E+00  0.78715410E+00  0.88137328E+00
  0.46577388E+00  0.22906748E+00  0.62530741E+00
  0.99172462E+00  0.76736456E+00  0.13055570E+00
  0.96653352E+00  0.25970495E+00  0.87545871E+00
  0.47143008E+00  0.71978553E+00  0.38030524E+00
  0.98000593E+00  0.72347191E+00  0.62541084E+00
  0.51110487E+00  0.26145179E+00  0.11889189E+00
  0.13620488E+00  0.38888667E+00  0.51615068E-01
  0.62860146E+00  0.86143825E+00  0.53452948E+00
  0.63084586E+00  0.15752646E+00  0.95061220E+00
  0.12250370E+00  0.56926319E+00  0.45473615E+00
  0.33100134E+00  0.40088219E+00  0.95964682E+00
  0.83766058E+00  0.86544202E+00  0.45233673E+00
  0.83299318E+00  0.13725565E+00  0.47475039E-01
  0.31704674E+00  0.60916453E+00  0.53969763E+00
  0.87160972E+00  0.10383944E+00  0.20312100E+00
  0.32484951E+00  0.58200872E+00  0.69730314E+00
  0.87958632E+00  0.88276086E+00  0.29827750E+00
  0.36957938E+00  0.39145800E+00  0.80133626E+00
  0.13469515E+00  0.57166262E+00  0.28723352E+00
  0.59713097E+00  0.82148219E-01  0.79407687E+00
  0.13910782E+00  0.37353679E+00  0.19150605E+00
  0.62376184E+00  0.88137466E+00  0.70214185E+00
  0.82240847E+00  0.64432900E+00  0.94263328E+00
  0.31170852E+00  0.84892443E-01  0.45785122E+00
  0.82440913E+00  0.35775291E+00  0.54831945E+00
  0.35543166E+00  0.91591216E+00  0.56409892E-01
  0.11391052E+00  0.97759240E-01  0.55155397E+00
  0.64852461E+00  0.64850275E+00  0.41589209E-01
  0.15628270E+00  0.91466936E+00  0.95579190E+00
  0.63996012E+00  0.37080597E+00  0.44278456E+00