Na88 Sn16 P8 Se96                       
   1.00000000000000     
    14.0793397336999995    0.0000000000000000    0.0000000000000000
     0.0000000000000000   14.0793397336999995    0.0000000000000000
     0.0000000000000000    0.0000000000000000   28.1586794673000007
   Na   Sn   P    Se
    88    16     8    96
Direct
  0.8073579628040967  0.9629471104698473  0.1226743275680411
  0.7288179252951413  0.5190724696762798  0.6262258219632225
  0.4805882615825265  0.9056240959677200  0.6269622003799369
  0.1008550726868081  0.9371429847646926  0.1995483145613104
  0.5271059204704496  0.2848572073202565  0.0071149978554846
  0.4967835147152880  0.5133946595687828  0.3753340489331984
  0.9862628472527241  0.5047117599794108  0.1389062115104351
  0.0255344850327983  0.0467408144343985  0.0123809567219883
  0.2155305488990399  0.7746090967552351  0.7356836102465287
  0.4759015608874886  0.4801421803631486  0.8709744785749545
  0.9890469942672464  0.7625133348149981  0.2511882621786733
  0.4675572946277550  0.0226069476229183  0.7383447776604696
  0.3077398151689281  0.7915945084154410  0.2528140396367362
  0.1987953745181508  0.4979801149766213  0.6246036677257074
  0.4538288458705643  0.7623520820852661  0.7411238678348820
  0.2423582913259774  0.2701301277269862  0.3569879546640342
  0.5241372988600932  0.7729993341794529  0.2227821864003155
  0.9466030732000583  0.5107953848698416  0.6293353210602637
  0.1860644587072148  0.7447745574147333  0.0193287458287538
  0.9736423542911349  0.0342523258248937  0.6421640783797916
  0.9504981410679771  0.0316756839971556  0.4422806757564857
  0.2209637512511253  0.5256010761913358  0.3798894560507866
  0.7150543481930006  0.7391974517620858  0.7855081627637935
  0.0018752310497139  0.4588569486205825  0.4520568726670005
  0.2397094584163991  0.5060970740220166  0.8798826190416869
  0.1671955679104889  0.2684440378453515  0.6307157273199702
  0.9946567197884846  0.7461060092450923  0.0080338128683653
  0.4675985423068863  0.6547314926584822  0.4924252199038877
  0.4617180052823350  0.5049851285092699  0.5903251333370231
  0.9598337922341015  0.0218674772565020  0.7596513105593362
  0.7662835712358825  0.4751557441411782  0.3847785302916680
  0.4987619372788521  0.9591272845172616  0.9905637103271817
  0.2419064039209661  0.7687734916883671  0.3770695671679161
  0.9955850893387534  0.2471773474551740  0.5414807832866343
  0.9688956677091646  0.9841594608033718  0.8866043562047032
  0.3883608042814323  0.0930472901813435  0.5643112700956016
  0.7660780085513809  0.7549537636888137  0.9809475872448590
  0.5357681189047935  0.9536575226893507  0.3784169667531092
  0.1988048196259456  0.2691435417625199  0.7673844784478819
  0.7553787662724832  0.5530014731514700  0.1324733591900807
  0.3279304840979752  0.0751107853400031  0.1240247854742215
  0.7376683747341090  0.7522776261515394  0.5123974241789554
  0.9676054454484347  0.7074524872872171  0.4977175258477377
  0.9953023969156448  0.5227665185307976  0.2445689976227280
  0.8428496758237463  0.3627116356286005  0.8217298373629106
  0.7522564430822083  0.6845836888619929  0.3804457315579685
  0.2184725625848458  0.8204528136854814  0.6216499967536572
  0.7269995204442122  0.2399306992136752  0.3827640205880039
  0.2079276023851469  0.2862722558338589  0.5101797452361284
  0.7039683010741932  0.2649338584118690  0.2468159159704575
  0.4823842918409656  0.2722365715518745  0.7666643663829653
  0.5506241259129223  0.0189614140790655  0.2520471204413035
  0.9817299327482311  0.5332182984535910  0.7449428517392537
  0.4982935370052638  0.0134934480870033  0.8835516457430657
  0.4736980703215812  0.5015827724448672  0.7450212546376872
  0.5789533236984671  0.9829303264902549  0.1165327092614104
  0.7911136791280438  0.2877131453389304  0.9913184710289575
  0.2009084738238138  0.7796154895162453  0.5097567922190075
  0.2904474746568588  0.2922175748514229  0.2274661248459733
  0.0331535530595134  0.0505801481092836  0.3006903571121056
  0.7392476279630432  0.5387971970325639  0.8802717022578026
  0.4990080071811523  0.9950971292292746  0.4934130065648645
  0.7571154956325075  0.7594790195087273  0.2455647537386783
  0.7611592776502498  0.9913610080094777  0.6235176637264110
  0.2917328302732159  0.2311333715165246  0.0033133121350978
  0.2242535555457798  0.7767159727928603  0.9015159750621743
  0.2067748384807049  0.5390506078475492  0.1242101855310545
  0.7284919144646627  0.9669134959060532  0.8964962895226657
  0.3215046869654699  0.7558627093652738  0.1252830528251490
  0.5480025432726787  0.7606017702528457  0.0300908031076300
  0.7816555782667994  0.9836987926679773  0.3647162545554392
  0.2381228551752149  0.2467379737782641  0.8778847733969340
  0.4722393687589680  0.4741130170960621  0.2550184039075813
  0.9580121339325753  0.7961873165529815  0.7809970908598016
  0.9974925246066207  0.1120422582419112  0.1245109007750454
  0.4696055482504535  0.3266203159197200  0.4952968627210408
  0.7390139070814901  0.1945699928057747  0.8778256587246189
  0.9898074626446829  0.2898172963282685  0.2537079297558411
  0.7559292778928179  0.2488995756774888  0.1116503343920657
  0.7087265302198056  0.2346152701935608  0.5071941219766182
  0.9955726767985908  0.5255132672405819  0.8837885738851841
  0.2766479592363778  0.0209869990375877  0.3827477450775733
  0.7408187676781208  0.2689319037123095  0.6494933344157341
  0.4903356591136206  0.5278324560132219  0.0061153411540418
  0.6834537135292945  0.7633862288700450  0.6418900412002767
  0.0239494588641190  0.4258273312209859  0.9954743690917213
  0.2128212671742869  0.0229925281459510  0.8744964114431185
  0.5175019394448165  0.5754645071242815  0.1344771208657627
  0.2816994700791174  0.0212325550322463  0.2658464706383251
  0.7358601218675470  0.4955319323534615  0.7470732203718390
  0.2212590361052531  0.0229874900238585  0.7415600188718395
  0.7628013422031608  0.5253577243070673  0.2614854234506402
  0.2715272494252693  0.9957866302968450  0.9967624577899974
  0.7472559483823535  0.4755364738309052  0.5065861167342431
  0.2482940675138797  0.0034052211425687  0.5021314081860371
  0.7431958166261604  0.5092264521254057  0.0095313177202355
  0.7213809407950353  0.0165253788492000  0.7506932086807759
  0.2330126809317492  0.5209537658989747  0.2513053142268481
  0.2386478124512251  0.5037386439081354  0.7577886601419715
  0.7831518257212421  0.0145994454535249  0.2470802633513441
  0.2105457966252525  0.5238387974128478  0.4977389461876334
  0.7485565366161623  0.0427335510953380  0.0096590781508249
  0.7401246363347418  0.9851752999816932  0.4900188793840940
  0.2718023421965107  0.5029126409462052  0.9969174114950368
  0.9800143246333096  0.2549395668823488  0.3932354855325259
  0.4909839837748387  0.7676017499936088  0.8862892416489886
  0.4693518553199740  0.2827686917274163  0.6276816218734123
  0.0302412530526469  0.7494451738191446  0.1332275810247281
  0.9879354361226796  0.2428005904418017  0.8839173409691272
  0.5014607009541149  0.7451187210703691  0.3652554280547216
  0.9725122417376624  0.7675084301628878  0.6218977215812169
  0.4948853975746444  0.2960579738088007  0.1294076830955831
  0.1689342011519480  0.3937463026746460  0.0473645882244804
  0.6264312018710122  0.9099943999141061  0.5515797215631624
  0.6217921859131051  0.1363375472840820  0.9630860508075902
  0.1238886365157877  0.6387216707345261  0.4435150874134726
  0.3731508709426470  0.4024264690358420  0.9468236158757134
  0.8369079434937486  0.8709435602642054  0.4362274797960638
  0.8876551594747346  0.1529915736719038  0.0390696909802411
  0.3065097855336797  0.6101712286561743  0.5565680620620346
  0.8526756446484725  0.1422137579757507  0.1859666145519903
  0.3233043271444729  0.6049911397299683  0.6915970444592158
  0.9053897327442108  0.9121246010492864  0.2857301070632881
  0.3270970816079461  0.3901633022115764  0.8126782562461519
  0.1316593210672217  0.6140826084272369  0.3070938220365710
  0.6238043843627098  0.1279796986765769  0.8075319046217094
  0.1346922433140444  0.4015262142257758  0.1945603365679768
  0.6345030094024514  0.8778489907283451  0.7051039062285063
  0.8789891197047952  0.5889730492474070  0.9601570313927688
  0.3617228897399080  0.1165461323158627  0.4633048422381863
  0.8383258264169484  0.3783712484434677  0.5744955999171664
  0.3728236212907886  0.8863461723838602  0.0467990127490253
  0.1687226320122157  0.1108788237797255  0.5705024000113235
  0.6637485139744183  0.6351317135014684  0.0533720126086090
  0.1333440423081564  0.9128407263501331  0.9515642976096759
  0.6272165491957870  0.3822622257480038  0.4413099443098421
  0.6484631884642634  0.4155551487060430  0.3137014931659857
  0.1108691371195501  0.9163738192907154  0.7950326194655333
  0.0918386862615871  0.1334491243165611  0.7056951787713915
  0.6235396021052286  0.6071824758173870  0.2119695036733381
  0.8503169957627701  0.4221051002504651  0.6935187362196852
  0.3937476957164258  0.9351252476157322  0.2038218925649478
  0.3797303778705942  0.1072858764533179  0.3196423054745667
  0.8252172554438147  0.5977695348613692  0.8096114079854856
  0.1897089264303190  0.0958031752180730  0.0553776981684062
  0.6193041984745661  0.5778410625025584  0.5478371978745071
  0.6398691335054637  0.4154714230511001  0.9497828782262207
  0.1255041153370156  0.9085616980158119  0.4479089616386048
  0.3709808916302826  0.1078254778327458  0.9383750476763413
  0.8475081245902512  0.5889075355679071  0.4544596442915366
  0.8540039263616396  0.4058735790162886  0.0607676978073331
  0.3425358453257286  0.8695492358340756  0.5443933750422077
  0.1458934075592933  0.1211598402094857  0.2224054099934959
  0.6187609092947663  0.5969236845711706  0.7085838312051712
  0.1927294179476148  0.8933101204212360  0.2995164939950926
  0.6448707658020260  0.3916296453759331  0.8050531957356120
  0.8611964233950542  0.6272819603824316  0.3095432638644907
  0.3277524119657728  0.1154811087020313  0.8069445202146007
  0.8423195871498561  0.4119525050094953  0.1971922488346748
  0.3249037371730618  0.9065907629612149  0.6919428387297464
  0.8829225728241171  0.9316066885641754  0.9696192032608769
  0.2875960608105506  0.4059502567998451  0.4470311242495010
  0.8489248120138031  0.0874556171302392  0.5379027269846833
  0.3533543097165712  0.6342890182274201  0.0514808251884227
  0.0645642954223392  0.4392266293135773  0.5493008539949275
  0.6981044687561614  0.8856801613752040  0.0575197888133109
  0.1432278691263464  0.5994216647434237  0.9522561533598080
  0.6560504162700286  0.1062010667582472  0.4367969109718041
  0.3286929061656431  0.4022308801080410  0.3013981220982209
  0.8209056492035208  0.9395711166626021  0.8156525560745055
  0.8204840269640623  0.1246051244186835  0.7066517182390178
  0.3579384208975629  0.6388114042905184  0.2015992559987040
  0.1208367925193599  0.4060539934931889  0.7042119886512468
  0.6719156653664975  0.9180200017097933  0.1965464453375584
  0.6735796532762210  0.1025302411237607  0.3089588466724654
  0.1353905360150922  0.6027674993436639  0.8068565496124785
  0.0150025869296030  0.3961058375822039  0.3591800410589738
  0.3901963963552742  0.7043038962353505  0.9395690214601407
  0.3400896378700917  0.3629415994462219  0.5746866145250814
  0.1578111681009984  0.7620431449622759  0.1826351768846325
  0.5622563600334073  0.1846862758783644  0.5775307537399600
  0.9001302847674136  0.6850957176409240  0.1704338113177242
  0.1152835725525122  0.1797253241265782  0.4118715605621432
  0.4052827323464243  0.8619786941781387  0.8389747826078640
  0.0805117919790659  0.1670509825045809  0.9326832847621405
  0.4059302545731050  0.8259305584924748  0.4132965926439859
  0.8543974881402653  0.6736891076801357  0.6019820676052223
  0.5936239393228704  0.4030212621640407  0.0857038222839241
  0.0964848605760318  0.6915729990259548  0.6553730197410920
  0.5494183427567825  0.1734918530927465  0.0872855615572626
  0.8757694999656965  0.3293109114194508  0.9170429985800566
  0.4057536786798793  0.6623378743470728  0.3168962672856477
  0.8930174491300473  0.8546734070190115  0.6720455565177345
  0.3374038849705162  0.2982361682712339  0.1124855731255053
  0.9085874851382820  0.1437777408632382  0.8495826280602535
  0.5892968315137851  0.6753887125030410  0.4194069278238595
  0.0653551485344622  0.3465757124438087  0.8421119996395348
  0.5955650406225049  0.8480559130147387  0.3191152159910966
  0.0482596963513714  0.8477500178257058  0.5718296686810930
  0.5055872204543358  0.2854044783427523  0.2053203478543489
  0.5349490289227274  0.3938686929942265  0.6644430285252114
  0.0005004266044510  0.8953351726133600  0.1139699217854075
  0.9211373317362264  0.2985002179565124  0.4621203898526376
  0.5931697116229807  0.8357476582317925  0.9389776987793491
  0.8840722619911382  0.1870605826642684  0.3406681578984920
  0.5429738079167072  0.6556088344805160  0.8393377469849638
  0.4043953321409444  0.1822931994920036  0.6839192707188171
  0.0842926434847345  0.6501555694388278  0.0791063413367579
 
 -0.59419516E-02 -0.28030105E-02 -0.86334074E-02
  0.68939217E-02 -0.43722876E-02 -0.56246585E-02
 -0.43930409E-02  0.45027216E-02 -0.15326490E-02
  0.33039930E-02 -0.14904965E-02 -0.28649588E-02
  0.62425739E-02 -0.36763071E-02 -0.82045503E-04
 -0.18650653E-02 -0.11781306E-01  0.89817926E-02
 -0.76973791E-02  0.15555610E-02  0.22236668E-02
 -0.51070602E-02 -0.24334342E-02  0.12883127E-01
 -0.40644925E-02  0.44351731E-02  0.23307857E-02
  0.74850737E-02  0.19802852E-02  0.72057139E-03
  0.80742529E-02 -0.45912668E-02 -0.10126010E-01
  0.13759220E-02 -0.74118802E-02 -0.94085230E-02
  0.68143007E-03  0.61072648E-02 -0.17901909E-02
  0.59200088E-02 -0.27923370E-02 -0.29250565E-02
  0.66857315E-02 -0.57717749E-02  0.42830428E-02
 -0.75074531E-02  0.10951352E-01  0.22010524E-02
  0.29277414E-02  0.21169082E-02 -0.35195140E-02
  0.56097257E-02 -0.56914911E-03  0.51916790E-02
  0.11185262E-02  0.46462171E-02 -0.98625362E-02
  0.38650588E-02  0.89928604E-02 -0.32763076E-02
  0.48091039E-02  0.14193410E-02 -0.52832275E-03
 -0.80638468E-02  0.46365399E-02 -0.26280194E-02
 -0.48666689E-02  0.53288414E-02  0.38961787E-02
  0.48679358E-03 -0.12664710E-02 -0.24028040E-03
  0.46051233E-02 -0.41420892E-02  0.57971893E-02
 -0.70621633E-03  0.73429473E-02 -0.24457034E-02
 -0.45684202E-03 -0.39328271E-02  0.44340246E-02
  0.22459444E-02 -0.10796690E-01 -0.17213531E-01
 -0.67156014E-03 -0.70958891E-02 -0.20002663E-02
 -0.11173036E-02  0.44686678E-02 -0.27206062E-02
  0.70722180E-03  0.10136885E-02 -0.85427133E-02
 -0.67639880E-03 -0.11589600E-01  0.24857277E-02
  0.24933712E-02 -0.80748634E-02 -0.63789171E-02
  0.36225274E-03 -0.10746999E-02 -0.11761159E-02
  0.13484079E-02 -0.48989912E-02  0.21859708E-02
  0.37268528E-02  0.37460212E-02  0.11198245E-01
 -0.19471753E-02  0.16573939E-02 -0.23008013E-02
  0.74104927E-02 -0.24886809E-02  0.11118596E-02
 -0.56622051E-02  0.26863988E-02 -0.37309313E-02
 -0.43745063E-02  0.28684514E-02  0.20347425E-02
  0.41743428E-02  0.78961911E-02  0.23668698E-02
 -0.15137884E-02 -0.39274228E-02 -0.10993809E-01
 -0.33481395E-02 -0.29787501E-03  0.24182065E-02
  0.42678469E-02  0.73423615E-02  0.14174330E-02
  0.32470279E-02 -0.29184681E-02 -0.26025666E-02
 -0.22393376E-02  0.41953145E-02  0.39955558E-02
 -0.10144291E-01  0.52089039E-02  0.10059645E-01
 -0.32439902E-02 -0.92898663E-02 -0.67697560E-02
  0.50191342E-02  0.39201979E-02  0.18772464E-02
  0.95474860E-02  0.50607966E-02 -0.56370953E-03
 -0.67843604E-04 -0.40979860E-02 -0.11335305E-02
 -0.74924961E-02  0.30134034E-02  0.79800473E-02
 -0.42892435E-03 -0.12176580E-01  0.49092444E-02
  0.68063633E-03  0.26428460E-02 -0.59688614E-02
 -0.12140547E-01  0.28730859E-02  0.23884618E-02
  0.17039096E-02  0.83542428E-02  0.45653171E-02
  0.85960725E-02  0.47451458E-02  0.86447819E-02
 -0.82679363E-02  0.68679650E-02  0.10341319E-01
 -0.94028870E-02 -0.36036033E-02 -0.55130674E-02
 -0.90824869E-04 -0.84342830E-02  0.38849252E-02
 -0.33373406E-02  0.43183932E-02 -0.96499831E-02
 -0.34760052E-02  0.15892191E-02  0.11986614E-01
 -0.28187387E-02 -0.69080031E-02  0.67658644E-02
  0.14290227E-01  0.32767889E-02  0.72284156E-02
  0.29670777E-03 -0.27345570E-02 -0.25646681E-02
 -0.12193278E-02  0.58086929E-02 -0.35043542E-02
  0.44627695E-02  0.25585506E-02  0.53634972E-02
 -0.35291729E-02 -0.32098638E-02 -0.14351299E-02
  0.17808220E-02 -0.67368573E-02  0.67772359E-02
 -0.12831227E-01 -0.61753120E-02  0.43856783E-02
  0.63536059E-02  0.15766048E-02 -0.82135056E-02
 -0.49233583E-02  0.49486450E-02 -0.10537747E-02
 -0.18361264E-02 -0.10944752E-02 -0.20821834E-02
  0.21864414E-02  0.94787792E-02 -0.15823954E-02
  0.59416569E-02 -0.41764346E-02 -0.38394527E-02
  0.38205770E-02 -0.24890771E-02  0.17107944E-03
  0.26270385E-02 -0.23164083E-03  0.14414226E-02
 -0.11905975E-01 -0.20927062E-02 -0.21860322E-02
 -0.56089039E-02  0.33874036E-02  0.27924515E-02
  0.30740570E-02  0.14758673E-02  0.28377765E-02
 -0.34107871E-02 -0.14595963E-01  0.11445998E-02
 -0.82325483E-03  0.29816886E-02  0.78136492E-03
  0.66061461E-02  0.15078675E-01 -0.38808061E-02
 -0.20041762E-02 -0.30173558E-02 -0.59933820E-03
 -0.16761585E-02 -0.15070047E-02 -0.46787526E-02
 -0.25840871E-02  0.86405065E-02  0.41180147E-02
 -0.47324064E-03 -0.57765645E-02 -0.28123195E-02
  0.16687370E-01  0.27451278E-02  0.21666990E-02
 -0.44865317E-02 -0.34397171E-02  0.20675490E-02
 -0.12663976E-02  0.39224629E-02 -0.13354429E-03
  0.31599258E-02  0.70684447E-03 -0.11743355E-02
 -0.34845229E-02 -0.12016080E-02 -0.14893251E-02
 -0.39126055E-03  0.33434601E-02 -0.22538306E-02
  0.15890013E-03 -0.26109408E-02 -0.14261265E-02
  0.58439425E-02 -0.11329008E-02 -0.14262185E-02
 -0.23129240E-02 -0.17629630E-02  0.97051918E-03
  0.11463309E-02  0.46383751E-02 -0.11300056E-02
 -0.39752499E-02 -0.71319993E-02  0.19152450E-02
 -0.68954189E-03  0.33258854E-03  0.62543863E-04
 -0.11252385E-02  0.14784158E-02 -0.39676832E-03
 -0.21531203E-02  0.56074811E-04  0.45106696E-02
 -0.18689456E-02  0.42634770E-03 -0.11873835E-02
 -0.11819310E-02 -0.13967716E-02  0.31751171E-02
 -0.55343508E-02  0.13220624E-02  0.27833933E-02
 -0.22078661E-03  0.61008016E-02  0.19161173E-02
  0.34276018E-03  0.48597012E-02  0.65260445E-02
  0.38271659E-02 -0.92827380E-03  0.24400587E-02
 -0.21370678E-03  0.56772328E-02 -0.35880785E-02
  0.66615449E-02  0.43330420E-02 -0.45405173E-02
  0.57527262E-03  0.19270171E-02  0.74759809E-03
  0.51313171E-02 -0.38466549E-02 -0.21740172E-03
 -0.74990723E-02 -0.20619740E-02 -0.16851893E-03
 -0.16793734E-02 -0.16350709E-03 -0.59720417E-03
  0.24718750E-02  0.37295445E-03  0.64031775E-03
  0.70331879E-03 -0.10699809E-02  0.40069266E-02
 -0.43676354E-02  0.41364296E-02  0.38194297E-03
 -0.41160326E-02  0.53699362E-03 -0.62715380E-02
  0.39513208E-02  0.16739683E-02 -0.15152164E-03
  0.11497967E-02  0.46247529E-02 -0.58863187E-02
 -0.12324522E-02 -0.62613309E-02 -0.21256163E-02
  0.29535174E-02 -0.66620094E-02 -0.17877520E-02
  0.18276158E-02  0.72960363E-03 -0.96177914E-03
  0.67832861E-03  0.93120139E-03 -0.17912189E-02
  0.15560101E-02 -0.51951644E-02 -0.24584148E-02
 -0.32216816E-02  0.10188622E-02  0.97997103E-03
  0.24011254E-03 -0.33646052E-02 -0.43580135E-02
 -0.28275048E-03  0.74373264E-03  0.44562331E-02
  0.22214350E-04  0.34255594E-02 -0.39671343E-03
  0.29697766E-02  0.24592995E-02 -0.30859383E-03
  0.69228049E-04 -0.31981060E-02 -0.14863090E-02
  0.38056214E-02 -0.10222495E-02  0.94362870E-03
  0.48872886E-02  0.12411410E-02 -0.67116335E-02
 -0.85299219E-03  0.64007984E-02  0.31249754E-03
 -0.16433252E-02 -0.24305820E-02 -0.39944782E-03
 -0.11107680E-02  0.17646898E-03 -0.41007905E-03
 -0.17114601E-02  0.11348589E-02  0.32890700E-02
  0.26708649E-03  0.40453482E-02 -0.11112065E-02
  0.21475559E-02  0.20431785E-02 -0.11865880E-02
  0.41310363E-02 -0.22892400E-02 -0.52556826E-03
  0.15214737E-02  0.22849202E-02 -0.17108516E-02
  0.49029011E-02 -0.94215740E-04 -0.57948090E-02
 -0.49062368E-02 -0.91873116E-03 -0.12207532E-02
  0.32219030E-02  0.47182987E-02 -0.22663799E-02
 -0.19950944E-02  0.69896226E-02  0.33420241E-03
 -0.68874216E-02 -0.58941367E-02  0.30322210E-03
  0.39831666E-02  0.11212381E-02  0.99649364E-03
 -0.21355963E-02 -0.24104774E-02  0.50639703E-02
  0.29653980E-02 -0.27570893E-02  0.13393485E-02
  0.78483799E-03  0.13942191E-02 -0.11725626E-02
  0.31308634E-02  0.11434741E-02 -0.13752780E-02
  0.90946103E-03 -0.74797869E-03 -0.60069008E-02
  0.38066134E-02 -0.23149459E-02 -0.43986604E-02
 -0.34583858E-02  0.40642538E-02 -0.18423532E-02
  0.12082661E-02 -0.10079657E-02  0.73151310E-03
 -0.42004029E-02  0.23995875E-02  0.18914473E-02
 -0.92518730E-03 -0.24618687E-03 -0.34680073E-02
 -0.81177924E-03 -0.27249273E-02  0.24270278E-02
 -0.19277189E-02 -0.30086689E-02  0.34320168E-02
 -0.24881153E-02  0.11032065E-02  0.26820766E-02
  0.78111877E-03 -0.61770208E-03 -0.24265213E-02
  0.72598970E-02 -0.31396629E-02 -0.40476999E-02
 -0.52848137E-03 -0.56075061E-02  0.10167602E-02
 -0.52605988E-03 -0.78143863E-03 -0.16274832E-02
 -0.19664718E-02 -0.26586175E-02  0.54643151E-02
  0.17098579E-02  0.21812601E-02  0.51101542E-02
 -0.36904707E-03  0.83619704E-03  0.50519952E-02
  0.55692004E-02 -0.36281765E-02 -0.15369603E-02
  0.29674464E-02  0.25337303E-02 -0.65239926E-02
 -0.29056172E-02 -0.20131175E-02  0.10577886E-02
 -0.41767598E-02  0.84263519E-03  0.74552538E-03
  0.80970488E-02 -0.32873883E-03  0.67931135E-02
 -0.44497938E-04 -0.37133413E-02  0.13296908E-03
  0.62226853E-02  0.90022523E-03  0.81942245E-03
 -0.60393955E-02  0.33272663E-02  0.98721952E-05
 -0.51933543E-02 -0.17459821E-02 -0.10938887E-02
 -0.10314186E-03 -0.25295217E-02  0.75024075E-02
  0.15623628E-02 -0.98689207E-03  0.20350030E-02
  0.10029088E-02 -0.13904084E-02 -0.21945266E-02
  0.36671565E-02  0.16779836E-02  0.22710639E-02
  0.27791209E-02  0.43271685E-02 -0.29543677E-03
 -0.43992571E-02 -0.82234527E-03  0.43861374E-02
 -0.29155882E-02 -0.32234448E-02  0.13008903E-02
  0.15757020E-02  0.28806436E-02 -0.15241405E-02
  0.16239300E-02  0.48141447E-02  0.24141050E-02
  0.59628782E-03  0.19243437E-02 -0.52616573E-02
 -0.87868256E-03  0.21372864E-02  0.72479375E-03
  0.87800874E-03  0.12151905E-02  0.57119734E-02
  0.14792854E-02 -0.11943773E-02 -0.28796363E-03
  0.16976146E-02 -0.46785973E-02  0.25731168E-02
  0.49645266E-02 -0.58089673E-02 -0.52392547E-02
 -0.31824864E-02  0.13311487E-02  0.59815432E-02
 -0.24459635E-02  0.53361393E-02  0.41435104E-02
 -0.11960175E-02 -0.42177750E-03  0.18492488E-02
  0.23909116E-02 -0.19717673E-02 -0.13337179E-02
 -0.40517153E-02  0.26060122E-02 -0.27614884E-02
  0.40037277E-03  0.25220597E-02  0.25719203E-02
 -0.35939746E-02  0.13747810E-02 -0.26104555E-02
  0.78605128E-03 -0.58821127E-04 -0.59839623E-02
  0.59868747E-02 -0.61052852E-02  0.23818806E-02
  0.21613141E-02 -0.33425979E-02  0.10858040E-02
 -0.29183928E-02  0.28205208E-02 -0.45682571E-03
  0.66758834E-03  0.19830209E-02 -0.13270437E-03
 -0.26673635E-02  0.35384817E-02 -0.40752298E-02
 -0.92028229E-04 -0.38997912E-02 -0.22099304E-02
  0.19377620E-02 -0.38414878E-02 -0.32183846E-02
 -0.47725786E-02  0.26387974E-02 -0.68021167E-04
 -0.36596100E-02 -0.15708612E-02  0.78402534E-03
  0.12106394E-02  0.20317546E-02  0.53760459E-02
 
           1
   2.00000000000000     
  0.53117632E+00 -0.67048482E-03  0.00000000E+00  0.00000000E+00
  0.80651390E+00  0.96254894E+00  0.12206113E+00
  0.72979722E+00  0.51845138E+00  0.62582632E+00
  0.47996422E+00  0.90626372E+00  0.62685334E+00
  0.10132441E+00  0.93693126E+00  0.19934483E+00
  0.52799269E+00  0.28433498E+00  0.71091705E-02
  0.49651858E+00  0.51172110E+00  0.37597199E+00
  0.98516942E+00  0.50493273E+00  0.13906415E+00
  0.24809016E-01  0.46395140E-01  0.13295994E-01
  0.21495318E+00  0.77523912E+00  0.73584916E+00
  0.47696483E+00  0.48042348E+00  0.87102566E+00
  0.99019396E+00  0.76186114E+00  0.25046905E+00
  0.46775275E+00  0.21554074E-01  0.73767653E+00
  0.30783661E+00  0.79246206E+00  0.25268689E+00
  0.19963632E+00  0.49758346E+00  0.62439591E+00
  0.45477857E+00  0.76153219E+00  0.74142808E+00
  0.24129184E+00  0.27168579E+00  0.35714429E+00
  0.52455319E+00  0.77330005E+00  0.22253221E+00
  0.94739995E+00  0.51071454E+00  0.62970407E+00
  0.18622335E+00  0.74543456E+00  0.18628249E-01
  0.97419139E+00  0.35529781E-01  0.64193138E+00
  0.95118128E+00  0.31877304E-01  0.44224315E+00
  0.21981826E+00  0.52625971E+00  0.37970280E+00
  0.71436303E+00  0.73995442E+00  0.78578489E+00
  0.19443811E-02  0.45867704E+00  0.45203981E+00
  0.24036363E+00  0.50550868E+00  0.88029437E+00
  0.16709525E+00  0.26948712E+00  0.63054202E+00
  0.99459182E+00  0.74554734E+00  0.83487442E-02
  0.46791758E+00  0.65319780E+00  0.49120261E+00
  0.46162261E+00  0.50397714E+00  0.59018306E+00
  0.95967508E+00  0.22502261E-01  0.75945808E+00
  0.76638403E+00  0.47529974E+00  0.38417178E+00
  0.49866585E+00  0.95748096E+00  0.99074026E+00
  0.24226059E+00  0.76762644E+00  0.37661650E+00
  0.99563655E+00  0.24702468E+00  0.54139725E+00
  0.96908721E+00  0.98346355E+00  0.88675962E+00
  0.38889021E+00  0.93579420E-01  0.56510664E+00
  0.76580141E+00  0.75518920E+00  0.98078417E+00
  0.53682080E+00  0.95330400E+00  0.37849594E+00
  0.19800049E+00  0.26952515E+00  0.76711949E+00
  0.75475736E+00  0.55340894E+00  0.13261788E+00
  0.32852346E+00  0.76232456E-01  0.12419289E+00
  0.73745334E+00  0.75171973E+00  0.51161658E+00
  0.96712984E+00  0.70741017E+00  0.49788928E+00
  0.99590865E+00  0.52380952E+00  0.24466967E+00
  0.84331092E+00  0.36229706E+00  0.82154499E+00
  0.75193834E+00  0.68517964E+00  0.38072952E+00
  0.21703154E+00  0.82119275E+00  0.62236449E+00
  0.72653870E+00  0.23861105E+00  0.38228319E+00
  0.20864058E+00  0.28682913E+00  0.51031308E+00
  0.70532454E+00  0.26565276E+00  0.24677588E+00
  0.48237465E+00  0.27165444E+00  0.76658386E+00
  0.54955980E+00  0.19389474E-01  0.25261391E+00
  0.98166900E+00  0.53148859E+00  0.74529154E+00
  0.49839022E+00  0.13868870E-01  0.88312770E+00
  0.47197348E+00  0.50199090E+00  0.74519090E+00
  0.57919537E+00  0.98411706E+00  0.11685697E+00
  0.79233477E+00  0.28838720E+00  0.99193248E+00
  0.19973400E+00  0.78059110E+00  0.51049130E+00
  0.28911177E+00  0.29170568E+00  0.22707455E+00
  0.33140651E-01  0.49382040E-01  0.30096629E+00
  0.73877355E+00  0.53941063E+00  0.87958630E+00
  0.49851423E+00  0.99532288E+00  0.49426437E+00
  0.75671509E+00  0.75849772E+00  0.24604531E+00
  0.76318923E+00  0.99182648E+00  0.62403107E+00
  0.29177498E+00  0.23074492E+00  0.31311539E-02
  0.22408035E+00  0.77754111E+00  0.90126707E+00
  0.20740878E+00  0.53941406E+00  0.12459113E+00
  0.72799059E+00  0.96645753E+00  0.89639436E+00
  0.32175766E+00  0.75490572E+00  0.12576441E+00
  0.54617984E+00  0.75972455E+00  0.30402301E-01
  0.78255812E+00  0.98392275E+00  0.36413288E+00
  0.23742348E+00  0.24744094E+00  0.87780993E+00
  0.47197854E+00  0.47395754E+00  0.25487051E+00
  0.95832272E+00  0.79753380E+00  0.78088470E+00
  0.99833655E+00  0.11144899E+00  0.12423820E+00
  0.47014827E+00  0.32626674E+00  0.49530901E+00
  0.73938708E+00  0.19453709E+00  0.87792804E+00
  0.98811619E+00  0.28952002E+00  0.25355266E+00
  0.75513252E+00  0.24938076E+00  0.11184867E+00
  0.70916321E+00  0.23482492E+00  0.50739568E+00
  0.99508817E+00  0.52343988E+00  0.88386987E+00
  0.27653101E+00  0.21410554E-01  0.38280324E+00
  0.74175718E+00  0.27107386E+00  0.64921770E+00
  0.49005096E+00  0.52740383E+00  0.60727725E-02
  0.68321561E+00  0.76317216E+00  0.64155773E+00
  0.23582384E-01  0.42705473E+00  0.99576686E+00
  0.21275404E+00  0.22171955E-01  0.87429666E+00
  0.51987242E+00  0.57585446E+00  0.13463101E+00
  0.28106215E+00  0.20743936E-01  0.26599332E+00
  0.73568023E+00  0.49608913E+00  0.74706374E+00
  0.22170791E+00  0.23087899E-01  0.74147661E+00
  0.76230636E+00  0.52518703E+00  0.26137964E+00
  0.27147167E+00  0.99626158E+00  0.99660238E+00
  0.74727852E+00  0.47516558E+00  0.50648482E+00
  0.24912421E+00  0.32442902E-02  0.50203011E+00
  0.74286726E+00  0.50897602E+00  0.96002499E-02
  0.72154378E+00  0.17184270E-01  0.75061295E+00
  0.23244799E+00  0.51994065E+00  0.25144135E+00
  0.23854986E+00  0.50378589E+00  0.75779310E+00
  0.78299198E+00  0.14809458E-01  0.24705208E+00
  0.21023994E+00  0.52384676E+00  0.49805932E+00
  0.74829105E+00  0.42794115E-01  0.95747430E-02
  0.73995674E+00  0.98497689E+00  0.49024440E+00
  0.27101618E+00  0.50310044E+00  0.99711510E+00
  0.97998296E+00  0.25580620E+00  0.39337158E+00
  0.49103267E+00  0.76829208E+00  0.88675276E+00
  0.46989551E+00  0.28263683E+00  0.62785493E+00
  0.30210896E-01  0.75025164E+00  0.13297273E+00
  0.98888172E+00  0.24341611E+00  0.88359485E+00
  0.50154242E+00  0.74539246E+00  0.36530853E+00
  0.97324116E+00  0.76696200E+00  0.62188228E+00
  0.49382014E+00  0.29576507E+00  0.12939571E+00
  0.16869564E+00  0.39372308E+00  0.47322171E-01
  0.62678234E+00  0.91004738E+00  0.55162520E+00
  0.62189209E+00  0.13618555E+00  0.96337065E+00
  0.12326820E+00  0.63930926E+00  0.44354222E+00
  0.37256618E+00  0.40250275E+00  0.94637817E+00
  0.83746924E+00  0.87118135E+00  0.43621672E+00
  0.88781849E+00  0.15364853E+00  0.38651609E-01
  0.30633471E+00  0.60928179E+00  0.55641709E+00
  0.85309520E+00  0.14126741E+00  0.18583964E+00
  0.32356394E+00  0.60509478E+00  0.69152873E+00
  0.90548609E+00  0.91225688E+00  0.28560288E+00
  0.32731812E+00  0.38942532E+00  0.81250364E+00
  0.13120167E+00  0.61422734E+00  0.30716343E+00
  0.62383849E+00  0.12750175E+00  0.80722237E+00
  0.13465208E+00  0.40163186E+00  0.19487685E+00
  0.63450616E+00  0.87833560E+00  0.70507573E+00
  0.87941098E+00  0.58932240E+00  0.96013511E+00
  0.36173272E+00  0.11609183E+00  0.46319928E+00
  0.83886642E+00  0.37822604E+00  0.57456262E+00
  0.37351787E+00  0.88652248E+00  0.46322312E-01
  0.16860146E+00  0.11178807E+00  0.57052460E+00
  0.66351508E+00  0.63478644E+00  0.53343641E-01
  0.13318626E+00  0.91286579E+00  0.95153517E+00
  0.62697343E+00  0.38242343E+00  0.44154355E+00