Na88 Ge16 P8 Se96                       
   1.00000000000000     
    13.9614333504000001    0.0000000000000000    0.0000000000000000
     0.0000000000000000   13.9614333504000001    0.0000000000000000
     0.0000000000000000    0.0000000000000000   27.9228667008000002
   Na   Ge   P    Se
    88    16     8    96
Direct
  0.7838178542491092  0.9721433853827827  0.1423000554583818
  0.2135849313614948  0.2601571421733582  0.6208258765629502
  0.4403812977232007  0.2405446980294850  0.0023286928338214
  0.9968968391115929  0.0059533288285003  0.3827692627387048
  0.4371173403523316  0.9737330080560109  0.8607944883861636
  0.1891813203859378  0.4896689154969566  0.3829174351445417
  0.2512721289673185  0.4533478973136820  0.1183653972804324
  0.2240706012568406  0.2294753087702725  0.0051212884113617
  0.5174245577428316  0.3043845999671482  0.7416724557334399
  0.8139045574714980  0.2044603566261203  0.6229665904965341
  0.7486209819416855  0.7251063079740598  0.4361167982736749
  0.2331019683921635  0.2365202571846753  0.8723874140173054
  0.4678054885695279  0.7352472928209725  0.9969311795684168
  0.2705788982857230  0.7746835951600403  0.3571703411338992
  0.2378660342885326  0.7806943939388351  0.7661208178138793
  0.4385708066871443  0.5055717880169841  0.3470004651057806
  0.4984647658522917  0.2350829177947311  0.4919271551139562
  0.7063667185395983  0.7331464791017204  0.6317131863522852
  0.7839606874096842  0.2119927966625380  0.1291174084359228
  0.9674976368688887  0.5616651828751589  0.8854156114264460
  0.3800486502288956  0.9966879620712920  0.3780079883357619
  0.5208915488998744  0.2509248576153923  0.2834860200939748
  0.7232340656915640  0.2645223483444328  0.8720137033829666
  0.7671874433918785  0.4705547180248126  0.6417279053825372
  0.2748496961639921  0.9732839927949422  0.1317925939607834
  0.0729597068081265  0.0529313088367323  0.8776677289111795
  0.4816990824259189  0.4787622437979915  0.0354159413374684
  0.9714131279231129  0.6164415364811144  0.3668393817939846
  0.5210851204580725  0.7034561027378343  0.5168671593137517
  0.2267391343832369  0.7619728297914207  0.0092885457298041
  0.2829609707405497  0.7465240957614133  0.6169079357704428
  0.5469286923027792  0.4760811116047036  0.6499967572640791
  0.2382899267181073  0.7735586649547738  0.2588421929307905
  0.2924550070038275  0.2817779713292080  0.7311946759600679
  0.0169921510438878  0.0346366433810484  0.1270123829236629
  0.7129153298664467  0.9859296425256161  0.3895069555840454
  0.6429389606051651  0.4904225132335138  0.1374677754223683
  0.7390545991172420  0.7195724689775571  0.1366079440356402
  0.9881131003896151  0.7710899429060208  0.7932574846328020
  0.7148279703708400  0.7804781894460847  0.3011872581967751
  0.9471892263027305  0.7765637145490478  0.2452949076419768
  0.4540513843433924  0.4931529936803696  0.8698488878896390
  0.5039213405627202  0.0081729104119415  0.0053646755099736
  0.9758191344121948  0.4528246805330378  0.5028314780799821
  0.9871490422578125  0.9330323775013212  0.0093322592139067
  0.4985432683770923  0.9919055781648304  0.4870038829829181
  0.9918113537464204  0.9120726228576261  0.5570241687574676
  0.7065750080230377  0.2759443018264984  0.9994885633924593
  0.4410364572325355  0.9917864768940546  0.6169298641419410
  0.8920620736741530  0.2887315187310029  0.2692932398902391
  0.0210940856753276  0.4974429962616955  0.7552527681304732
  0.5501017139243375  0.0267004645078687  0.2235002121604243
  0.2546955534680657  0.2685238454649289  0.5159066394328499
  0.7172947460688197  0.7573967956790817  0.0045040653288310
  0.7812940636936820  0.2230604131851785  0.5013507902443718
  0.2113711129856898  0.6794371095311168  0.1348533589024601
  0.2154313037459002  0.7853291771811470  0.8736214634462395
  0.4752596339825642  0.4818798579661780  0.5031880707370852
  0.9735873944563107  0.2660743947650255  0.0155429038079287
  0.1283101706394271  0.9194664251874959  0.6448678266375062
  0.7369890042243901  0.0174106908826541  0.8797159567287761
  0.9534173484948814  0.7406757968291855  0.5017892030546646
  0.9621724722412919  0.5552635207405010  0.9950670827519423
  0.5040157361708932  0.0310598562152647  0.7396812293568172
  0.2572754441265698  0.2623220796888794  0.2406183840149027
  0.7810078621022641  0.7461168065188551  0.7604621334163362
  0.4887810041636259  0.7972796547527653  0.2556694793136570
  0.7882741002609371  0.2653876785313967  0.7600927824095489
  0.7345674639539671  0.5023088236874379  0.3792510461624879
  0.0191271678491572  0.2512066606753242  0.7498435486160285
  0.7286128012615352  0.2461551972596674  0.3717078426841813
  0.2569031127638160  0.7561890101577301  0.4924164230066431
  0.2380592710311663  0.2204060917007631  0.1322191823079533
  0.6907100098807960  0.0207057095772053  0.6199604668042813
  0.9773759598624224  0.0082893963845284  0.7435884714539917
  0.2550249892836998  0.2120756220669700  0.3680433356514415
  0.2105039547215372  0.4930407100483204  0.8765870599549679
  0.9939523366838235  0.5059201294884343  0.2513586318994716
  0.7373556518597024  0.7821697045267806  0.8735202851928527
  0.3121555689357878  0.4883995336911917  0.6278932288266916
  0.7394784554961570  0.4999244159924808  0.8663779199731686
  0.0174481193761879  0.0447368940628826  0.2639367840710877
  0.0374896393595648  0.5112363924215815  0.6391025674607119
  0.5092767623859572  0.9560999655420199  0.1170687254455328
  0.0203226317184750  0.1699680665901610  0.5199229411152991
  0.9039720546418450  0.4894859198902156  0.1212041978028543
  0.5181902506972440  0.7221131099529183  0.7520319273682274
  0.4495673727056592  0.5047817391949203  0.2455130146717608
  0.2864402700952103  0.0102648115516462  0.2532118221518197
  0.7898970718167992  0.5102692167997123  0.7500974921997383
  0.2330304653303422  0.0046683423019997  0.7503356167059833
  0.7029315312413207  0.5102729378685458  0.2478942077499744
  0.2400306061655981  0.0013434246223191  0.9847352580972960
  0.7348233989058476  0.4765239679925748  0.5039735194177513
  0.2474279391331485  0.0069328677743295  0.5121197334195067
  0.7096083691793801  0.5332455448074397  0.9983649884537663
  0.7364352613390354  0.9906438359731954  0.7517323019806917
  0.2229667362505384  0.5105561453518017  0.2473226983671402
  0.2777668808484186  0.5026715303073661  0.7467481598692691
  0.7974198560066204  0.0075273981693076  0.2495133257427764
  0.2300889806497863  0.5248728522768734  0.5026144669493265
  0.7598101641080098  0.0219416959846358  0.0050975536091025
  0.7629495033278535  0.9690272853248341  0.5087864365285266
  0.2386253845202960  0.5086852182998042  0.9974917325945224
  0.9912313417859268  0.2671542535595124  0.3812400960855421
  0.4717282376536253  0.7327906485378554  0.8701405062461620
  0.5087583388253709  0.2346910791401501  0.6284310896844385
  0.0040835681848613  0.7324529174717049  0.1288836834440946
  0.9688733775290757  0.2850653028606405  0.8761268148803070
  0.4885870028095839  0.7190233395116321  0.3786069856560766
  0.0091672051571478  0.7560794569616689  0.6417843453125773
  0.4924548940379483  0.2439238584665549  0.1226116382234472
  0.1258405263685945  0.3987844099637139  0.0417715131925939
  0.6495168159183661  0.8632135212633453  0.5427601766517006
  0.6526273890609744  0.1331734539419977  0.9571339054003239
  0.1119430772039558  0.6018916716666447  0.4588692172680396
  0.3421646772394098  0.3980997781646242  0.9473114730026840
  0.8593090408035463  0.8852426192677869  0.4501592709731223
  0.8639444538428721  0.0907720966799666  0.0647991309699310
  0.3452710922630826  0.6178997518883286  0.5506069865121461
  0.8859943704482959  0.1119441933174421  0.2031962588254769
  0.3756368163423097  0.5943602654660803  0.7027028134158062
  0.8775196492243678  0.9171379911491206  0.3025512477574826
  0.3842535530046322  0.3991739094980601  0.7918266122108548
  0.1361893222169952  0.6207716248513167  0.2901422267747041
  0.6480017025427022  0.0976455448677854  0.8022887511902003
  0.1120782692943970  0.4117011905880865  0.1982655283127387
  0.6475708153108963  0.8995839040597173  0.7031597185918798
  0.8036844812297470  0.6387363021085046  0.9461282520812130
  0.3342246240953010  0.1183588927854094  0.4551810573710868
  0.8627911546072956  0.3708044661642350  0.5574715771244283
  0.3379113314117069  0.8995498156068826  0.0381983830659297
  0.1698655056572576  0.0944084419152086  0.5692053279552598
  0.6253021005833170  0.6367633735646501  0.0479182718987358
  0.1315078734008328  0.9060785419782014  0.9368715347237906
  0.6542748936182412  0.3551462606240916  0.4603422043273230
  0.6118266595105852  0.4316255207116846  0.2993486332723145
  0.1237249318698705  0.9182456094603777  0.8055519693527914
  0.1395926247595316  0.1202375871993822  0.7071609351114541
  0.6149241373062705  0.6282456463162894  0.2033356575954932
  0.9085755902291140  0.4153872318796549  0.7011378786150622
  0.3820803466776559  0.9079366644311280  0.2072314450484325
  0.3936631721897215  0.0969558004055380  0.3043407161109473
  0.8529849749014189  0.6095354887237885  0.8120238169949257
  0.1421998685339606  0.0675718363310532  0.0444360317742993
  0.6656488589373489  0.5753989335182376  0.5573242791067059
  0.6018348859458690  0.4236306137100421  0.9524256511842352
  0.1473790979740132  0.9204293593143088  0.4574587113599304
  0.3315981967308431  0.1100985213727557  0.9411144780112957
  0.8339342918480176  0.5423537697904964  0.4487555229854600
  0.8204269714018227  0.4268856342870608  0.0426815568095038
  0.3612762116280802  0.8959571253884882  0.5403812510753147
  0.1776154478518577  0.0840432429508737  0.1961762941486290
  0.7071623595524971  0.6002346878040102  0.6974481195780550
  0.1914890814474316  0.9306539366802639  0.3114088669621501
  0.6410100540162010  0.4256338176683525  0.7858784036898621
  0.8156091194410163  0.6040699726210814  0.2993389245585056
  0.3404279805619720  0.0849608646764908  0.8018968906521914
  0.7789841775624214  0.4119958861497450  0.2015044329888633
  0.3085987274397719  0.9095824913011707  0.6875596995957017
  0.8253045172129327  0.9181583168162940  0.9515371598826037
  0.3159499000793933  0.4251684627729561  0.4497120479112046
  0.8588092451345140  0.0644370604137240  0.5581487668870324
  0.3298135899137141  0.5960973879090271  0.0478527994368122
  0.1542956915132301  0.4293667570623620  0.5618024593393662
  0.6623453452049339  0.9258995587383438  0.0559390244610849
  0.1273565973852049  0.6031583538825044  0.9507227138740317
  0.6716711906494598  0.0864628870618601  0.4662442153423744
  0.2920964376651261  0.4022745940019966  0.3065055947870549
  0.8461739375536618  0.9105359623233812  0.8042782291151810
  0.8200115587917369  0.1026357366084879  0.7101925961501797
  0.3197749130215736  0.5956927194803456  0.2018472094683974
  0.1912465564381616  0.4243819536752386  0.6944588508882300
  0.6902288976875444  0.8800535683561489  0.2088181605346355
  0.6746472190659593  0.1064532268067039  0.2947765139041741
  0.1901325724488306  0.6087000647960165  0.7947311484502260
  0.9123644921582460  0.3902061176351503  0.3471380469473482
  0.5772864970988869  0.6322472431028949  0.8411196990927590
  0.4055111394033251  0.3261106324437757  0.5895762606303206
  0.9155690034852193  0.8312512202402295  0.0815585111750735
  0.6347592433412609  0.2945231721310843  0.6659556363506112
  0.9057757369674084  0.6477699325353676  0.1781733347793189
  0.8953707743437804  0.1539892878004290  0.4106997602782607
  0.4007605396415669  0.8164253830249313  0.8077509973395107
  0.0478870518472415  0.2121329262799713  0.9284457599815288
  0.5851971762491982  0.6088027021466665  0.4191454794623989
  0.9418718111588419  0.8920176827980304  0.6567739464142954
  0.6062955089545792  0.1894072399002814  0.1675964847578029
  0.0638999961838895  0.6787634279862059  0.7117950401743549
  0.4046473181372044  0.1171298189899976  0.0943990162504563
  0.8645434780996428  0.3797663320603173  0.9044749719249191
  0.4108075316514189  0.8125964729267848  0.4320523307082855
  0.1099561043105322  0.7940101495811104  0.5773513214631025
  0.5626612428640189  0.3361319232810956  0.0705438839654575
  0.8987389504323894  0.1845179163608823  0.8293050988357596
  0.4093692312696445  0.6686064065974171  0.3112802961501351
  0.0891955915403387  0.3579272933940232  0.8355698349278161
  0.5859394725599060  0.8319480413383991  0.3510927805579880
  0.9104640300967993  0.6624153555188247  0.5959531298683869
  0.4114519501376874  0.3354614580846063  0.1709453781906268
  0.4191040416741511  0.1553596831294626  0.6734903425647822
  0.0619684210930508  0.6115473723871064  0.0845905788502332
  0.0642263303968043  0.2011689204869462  0.3127667955454611
  0.3573317064840196  0.6543842949878492  0.9141066975345559
  0.0875341875225938  0.3149995914435466  0.4382115470839498
  0.5660306296970692  0.8503971063989778  0.9130622431043547
  0.5775690308601562  0.1465220596968749  0.5689932605728943
  0.1012774495780401  0.8220890166220606  0.1737316572101594
 
  0.21111921E-02  0.38388734E-02  0.10964193E-01
  0.44069290E-03 -0.93463950E-02  0.14153325E-02
 -0.77217352E-02 -0.13659437E-01  0.45256884E-02
  0.62491932E-02  0.13473300E-01 -0.47719293E-02
  0.73651357E-02  0.22965434E-02 -0.97807135E-02
 -0.11301536E-01 -0.76712637E-03 -0.94033305E-02
 -0.24745882E-02 -0.79187518E-02  0.20538197E-02
  0.23224431E-02 -0.46523140E-02 -0.64927470E-02
  0.24001286E-02 -0.29629965E-02  0.56046988E-02
  0.41180553E-02  0.50666200E-02 -0.53034393E-02
 -0.16424212E-02  0.61118903E-02 -0.62379314E-02
 -0.21505828E-02 -0.10649723E-01  0.55238629E-02
  0.18475527E-02 -0.28319163E-02  0.11151563E-01
 -0.38916283E-02  0.33174348E-02  0.20382268E-02
 -0.34954122E-02 -0.12452346E-02 -0.29690009E-04
  0.14045688E-01  0.24542337E-02 -0.99893249E-02
  0.23188256E-02  0.48825073E-02  0.22990644E-02
 -0.35899759E-02 -0.11899290E-03  0.12964793E-01
  0.29674602E-02 -0.58630158E-03  0.53680937E-02
 -0.44886583E-02 -0.68606952E-02 -0.45067172E-02
 -0.70124654E-02 -0.26446251E-02  0.27215149E-02
  0.13393057E-03  0.15396192E-02  0.19621469E-02
 -0.32330656E-02  0.87981074E-03 -0.37601469E-02
 -0.17733491E-02 -0.62572749E-02  0.31376832E-02
  0.97739662E-02  0.13692819E-02  0.13976549E-03
  0.77856857E-02  0.16446567E-02  0.59117962E-02
 -0.58226100E-02 -0.96891060E-03  0.27902225E-02
 -0.28561977E-02 -0.12486443E-01 -0.78680455E-02
  0.29831458E-02 -0.24175875E-02 -0.88855687E-02
 -0.30453311E-02 -0.24684740E-02  0.22037332E-02
  0.73725673E-02 -0.30909831E-02  0.25608745E-02
 -0.25042341E-02  0.75393910E-02  0.29561097E-02
  0.10597996E-01 -0.12653652E-03 -0.36675390E-02
  0.57740789E-02  0.15013388E-02 -0.28658057E-02
 -0.24880348E-02 -0.36047881E-03  0.46754499E-02
  0.11176886E-02  0.13106383E-02  0.79538933E-03
  0.11406884E-02  0.36006066E-02 -0.32984549E-02
  0.58449388E-02 -0.37316211E-02 -0.43709861E-02
 -0.24763953E-02 -0.82889830E-03  0.63756439E-02
 -0.14220701E-02  0.82178485E-02 -0.76893060E-03
 -0.33946641E-02 -0.39380344E-02  0.10815476E-01
 -0.28942539E-02 -0.45075394E-03 -0.40434705E-02
  0.23787554E-02 -0.16323097E-02  0.12785710E-02
  0.22681120E-02 -0.47465290E-02  0.10743290E-02
 -0.76462608E-02  0.28537013E-02 -0.52695129E-02
  0.60527240E-02  0.10378190E-01 -0.11847793E-02
  0.90374974E-02  0.52772699E-02  0.61878071E-02
 -0.64354252E-02  0.48108132E-02 -0.70768104E-02
 -0.75043447E-03  0.62971821E-02  0.33067363E-03
 -0.35217024E-02 -0.13581296E-02 -0.85508789E-02
  0.20355809E-02  0.91320034E-02 -0.69022691E-02
 -0.56093773E-02  0.97830924E-03  0.35564899E-02
  0.10488436E-01 -0.80608153E-03  0.12374814E-02
  0.35218184E-02  0.34434610E-02  0.16750010E-02
 -0.28965898E-02  0.19407319E-02  0.19400627E-04
  0.44087501E-02 -0.86321876E-03 -0.55245709E-02
 -0.86451209E-02  0.62082911E-02  0.32544217E-02
  0.43155877E-03 -0.25276149E-02 -0.25388580E-02
 -0.44112553E-02  0.28649859E-02 -0.10445485E-02
  0.35437306E-02  0.37447107E-02 -0.41686891E-02
  0.54670096E-02 -0.12612595E-01 -0.99758061E-02
  0.13347508E-02  0.14308844E-02 -0.36118864E-02
  0.48117489E-03 -0.11447810E-02 -0.30306168E-02
  0.44966248E-02 -0.97545498E-03 -0.27235704E-02
  0.90140842E-02  0.77921097E-02  0.55725273E-02
  0.39832426E-02 -0.90252227E-03 -0.10409844E-02
 -0.35599172E-02  0.48529194E-02 -0.24867623E-02
 -0.30251875E-02 -0.67052574E-02 -0.21275189E-02
  0.11515247E-01 -0.36816664E-02  0.24877750E-02
 -0.34780418E-02 -0.67282296E-02 -0.24717530E-02
  0.23998110E-02  0.10814962E-02  0.91026151E-02
  0.30661862E-02 -0.37080292E-02 -0.74299857E-02
 -0.44549586E-02 -0.10583219E-01  0.36133916E-02
  0.33984368E-02  0.72568733E-02 -0.58840956E-02
 -0.93655419E-02  0.46120237E-02 -0.14131957E-01
  0.29949184E-02 -0.24334621E-02 -0.92382569E-03
  0.11472647E-02  0.28019681E-02 -0.21816038E-02
 -0.56806157E-02  0.42446215E-02  0.24223284E-02
  0.34476045E-02  0.96871653E-02 -0.50814283E-02
  0.36187725E-02 -0.59822083E-03  0.58635044E-02
 -0.31170016E-02 -0.30284665E-02  0.18428968E-03
 -0.10835397E-02  0.23273321E-02  0.13191782E-01
 -0.74051946E-02  0.26146816E-02 -0.59520710E-03
  0.33650162E-02  0.50310820E-02  0.41057274E-02
 -0.48195536E-02  0.42019178E-04  0.27170499E-02
  0.15458850E-02  0.80706048E-02 -0.14044871E-01
  0.71475498E-02 -0.61236446E-02 -0.27384315E-02
  0.15680783E-02  0.27432903E-02  0.22347105E-02
 -0.52415605E-02 -0.78501942E-02  0.18519097E-02
 -0.12101074E-02  0.19747897E-02  0.49555968E-02
  0.10936361E-02 -0.54962355E-03  0.13668841E-02
 -0.50062034E-02  0.50481911E-03 -0.40575600E-02
  0.23495543E-02 -0.10674779E-02 -0.10696650E-02
  0.46582475E-02  0.19673683E-02 -0.28202093E-02
 -0.51804887E-02 -0.33325353E-03 -0.87131007E-03
 -0.57632687E-03  0.32075830E-02  0.78054110E-03
 -0.25795968E-02  0.46272708E-03 -0.34724892E-02
  0.11214327E-02 -0.22702754E-02  0.19032907E-02
  0.22670070E-02 -0.28308763E-02  0.19563784E-02
 -0.28808337E-02  0.22866826E-02 -0.50058400E-03
 -0.36678065E-02 -0.17581958E-02  0.39037484E-03
 -0.44203700E-03 -0.39290653E-02 -0.42849782E-02
  0.16471785E-02  0.18407128E-02  0.15879096E-02
  0.39975238E-02  0.71697822E-03 -0.19401293E-02
  0.33064787E-02  0.16074270E-02  0.39734047E-03
 -0.19328005E-02 -0.50502690E-02  0.29643131E-02
  0.43061685E-02  0.52007851E-02 -0.34148689E-02
 -0.26990790E-02 -0.14869966E-03  0.66784989E-02
 -0.76350119E-03  0.34099133E-02 -0.34282542E-02
  0.39790773E-02  0.21564448E-02 -0.76412242E-03
  0.86437811E-02 -0.57440516E-02 -0.20779871E-02
  0.65442765E-02 -0.52076165E-02  0.85084681E-02
  0.22568495E-02  0.15501606E-03 -0.28072064E-03
  0.16957389E-02  0.29987406E-02  0.22659347E-02
 -0.42252021E-03 -0.26018027E-02  0.24901825E-03
 -0.12711648E-02  0.46771872E-02  0.34641192E-02
 -0.89957292E-04 -0.32843656E-02 -0.92169106E-04
 -0.20439918E-03 -0.10700505E-03 -0.27686889E-03
  0.18109777E-03 -0.24115297E-02  0.89994916E-03
  0.96918677E-03 -0.11000260E-02  0.27832306E-02
 -0.23212124E-02  0.29053334E-03 -0.29472311E-02
  0.56452690E-02  0.98404541E-03 -0.10002820E-02
 -0.38277881E-03  0.28364775E-04  0.11397792E-02
 -0.29487553E-02 -0.28739644E-02  0.10901263E-02
  0.20917060E-02  0.77705811E-03 -0.52830041E-03
  0.15923475E-02 -0.21014393E-02  0.45855859E-02
 -0.14284492E-02 -0.47710554E-03  0.18613666E-02
 -0.22880412E-02  0.10731996E-02 -0.72102047E-03
 -0.81090673E-03 -0.60602014E-02 -0.44001272E-02
  0.31288809E-02 -0.21025450E-02 -0.47667846E-02
  0.77128367E-03  0.20847496E-02  0.62297988E-02
 -0.46850666E-02  0.68326766E-03  0.46136147E-02
  0.99986143E-04 -0.41310181E-02  0.13072595E-02
  0.22476894E-02 -0.25132442E-02  0.26252430E-03
 -0.43382469E-02  0.37829369E-02  0.20962549E-02
 -0.19562733E-02  0.23457046E-02  0.94195635E-03
 -0.52605915E-03 -0.24913351E-02 -0.17993043E-02
 -0.40866449E-02 -0.21005901E-02  0.11038055E-02
 -0.53898433E-03 -0.16956187E-03 -0.10435169E-02
  0.21431377E-02 -0.21740135E-02  0.94511505E-03
  0.34363372E-03  0.30024440E-02 -0.30019515E-02
  0.47339950E-02  0.49989754E-03 -0.17522215E-02
  0.40402256E-02  0.15662386E-02 -0.30810984E-02
  0.15283450E-02 -0.12669363E-02  0.19960794E-02
 -0.30780837E-02  0.17477710E-02 -0.11176621E-02
 -0.21026131E-02 -0.28102456E-02  0.22487643E-02
  0.24598162E-02  0.15580745E-02  0.19049965E-02
  0.13051248E-02  0.20616256E-02  0.15623301E-02
  0.19559524E-02 -0.34390260E-02  0.71087119E-02
  0.93711882E-03 -0.60129256E-03 -0.80449092E-03
 -0.16485902E-02  0.29522957E-02  0.22071727E-02
 -0.24747408E-03  0.36062289E-02  0.26157739E-02
 -0.31484268E-04  0.35204170E-02 -0.34046604E-02
 -0.24869964E-02  0.19454290E-02  0.48426035E-02
  0.37437262E-02  0.92997271E-03  0.40015450E-02
  0.17667154E-03 -0.70075980E-04  0.16091036E-02
 -0.29721432E-02  0.14629118E-02 -0.12122437E-02
 -0.68916236E-03 -0.12556345E-02 -0.15487021E-02
  0.10276037E-02  0.33717906E-03 -0.10195077E-02
 -0.45148004E-02  0.20503312E-02 -0.21520199E-02
 -0.54320915E-02 -0.39509051E-02 -0.35713036E-02
 -0.15317976E-02 -0.17394366E-02 -0.26891604E-02
 -0.63726842E-02  0.44899746E-03 -0.67420181E-03
 -0.31945048E-02  0.19495749E-02  0.32054852E-02
 -0.59827490E-03  0.10386317E-02 -0.11951280E-02
 -0.23569876E-02 -0.37324474E-02  0.10797246E-02
  0.78711440E-03  0.39713392E-02 -0.55290661E-02
 -0.15566523E-02 -0.43625017E-02  0.24232571E-02
 -0.11118971E-02  0.23727621E-02 -0.18370592E-02
 -0.39807182E-02 -0.12494005E-02 -0.90656268E-03
 -0.39726710E-02 -0.12291232E-02 -0.45769445E-02
  0.14948668E-02 -0.27505402E-02  0.25321123E-02
 -0.21113071E-02 -0.35091622E-02 -0.28082971E-02
 -0.11953173E-02  0.15192079E-02  0.37064226E-02
  0.18090436E-02  0.50350960E-02  0.96171404E-03
 -0.13239334E-02 -0.52779242E-03 -0.11929791E-02
  0.39696241E-02 -0.53229353E-03  0.41788984E-02
 -0.35330563E-02  0.39274874E-02 -0.22422709E-03
  0.14575357E-03 -0.23343702E-03  0.92149338E-04
  0.27223017E-02  0.38236725E-02  0.15249195E-02
 -0.39785930E-02  0.14279582E-02  0.71976101E-03
 -0.50101739E-02 -0.12801028E-02  0.29832205E-02
  0.22162137E-02  0.74387365E-03  0.29728820E-02
  0.11554218E-02 -0.30039255E-02 -0.28224199E-02
  0.94474492E-02 -0.22150852E-02 -0.57927583E-03
 -0.82925510E-03 -0.20813529E-02 -0.26471587E-02
  0.50708386E-02  0.51534324E-02  0.10568623E-02
 -0.30756462E-02  0.34122963E-02 -0.91214712E-03
 -0.66522810E-02 -0.12318809E-02  0.10958788E-02
  0.15099103E-02 -0.32787812E-02  0.12745360E-02
 -0.40882670E-02 -0.37438667E-02  0.15250836E-02
  0.68706125E-02  0.70135783E-03 -0.35925511E-03
  0.39563963E-03  0.28846749E-02  0.18946650E-03
  0.10326556E-02  0.59513571E-03  0.11469178E-02
  0.62185128E-03 -0.14783477E-02 -0.88928952E-02
 -0.79375408E-03  0.42508442E-02 -0.22906692E-03
  0.12749093E-02  0.38156889E-02  0.28873855E-03
  0.48473320E-02  0.35520015E-02  0.53554432E-03
  0.27118047E-02 -0.13338978E-03 -0.45301521E-02
 -0.10226507E-02  0.31037387E-02 -0.28498829E-02
  0.12863445E-02  0.12643600E-02  0.22191550E-02
 -0.18334940E-02 -0.22323297E-02 -0.83755419E-03
  0.12212615E-02 -0.66070689E-02 -0.65464484E-02
 -0.18144066E-02  0.14807106E-02  0.12832794E-02
  0.27432406E-02  0.20714524E-02 -0.49076169E-03
  0.32130097E-02 -0.30291606E-02  0.24773586E-02
  0.19031469E-02 -0.12723469E-02 -0.69215526E-03
 -0.33662024E-02 -0.11648726E-02  0.52539961E-03
 
           1
   2.00000000000000     
  0.54836422E+00  0.32580653E-03  0.00000000E+00  0.00000000E+00
  0.78412029E+00  0.97269331E+00  0.14308538E+00
  0.21364806E+00  0.25881825E+00  0.62092725E+00
  0.43927515E+00  0.23858796E+00  0.26528493E-02
  0.99779205E+00  0.78834029E-02  0.38242747E+00
  0.43817241E+00  0.97406199E+00  0.86009394E+00
  0.18756236E+00  0.48955902E+00  0.38224391E+00
  0.25091764E+00  0.45221352E+00  0.11851250E+00
  0.22440330E+00  0.22880886E+00  0.46562397E-02
  0.51776838E+00  0.30396015E+00  0.74207390E+00
  0.81449448E+00  0.20518616E+00  0.62258673E+00
  0.74838570E+00  0.72598185E+00  0.43567000E+00
  0.23279389E+00  0.23499467E+00  0.87278307E+00
  0.46807015E+00  0.73484162E+00  0.99772992E+00
  0.27002142E+00  0.77515882E+00  0.35731633E+00
  0.23736531E+00  0.78051601E+00  0.76611869E+00
  0.44058288E+00  0.50592336E+00  0.34628497E+00
  0.49879694E+00  0.23578235E+00  0.49209183E+00
  0.70585245E+00  0.73312943E+00  0.63264180E+00
  0.78438578E+00  0.21190881E+00  0.12950190E+00
  0.96685463E+00  0.56068238E+00  0.88509281E+00
  0.37904410E+00  0.99630911E+00  0.37820292E+00
  0.52091073E+00  0.25114541E+00  0.28362656E+00
  0.72277092E+00  0.26464838E+00  0.87174438E+00
  0.76693341E+00  0.46965835E+00  0.64195264E+00
  0.27624983E+00  0.97348014E+00  0.13180260E+00
  0.74075020E-01  0.53166909E-01  0.87809117E+00
  0.48086498E+00  0.47862345E+00  0.35615793E-01
  0.97100397E+00  0.61465283E+00  0.36627583E+00
  0.52151246E+00  0.70310978E+00  0.51623072E+00
  0.22630289E+00  0.76161922E+00  0.94463901E-02
  0.28401710E+00  0.74608131E+00  0.61709136E+00
  0.54656996E+00  0.47716114E+00  0.65020849E+00
  0.23980811E+00  0.77354054E+00  0.25857950E+00
  0.29328215E+00  0.28199304E+00  0.73098941E+00
  0.16635736E-01  0.34585004E-01  0.12734727E+00
  0.71307544E+00  0.98611739E+00  0.38956393E+00
  0.64310237E+00  0.49093831E+00  0.13723152E+00
  0.73989190E+00  0.71903791E+00  0.13629487E+00
  0.98775835E+00  0.77097120E+00  0.79371415E+00
  0.71462426E+00  0.78165541E+00  0.30113218E+00
  0.94670293E+00  0.77599958E+00  0.24606958E+00
  0.45363678E+00  0.49308842E+00  0.86955927E+00
  0.50426210E+00  0.79390792E-02  0.54562543E-02
  0.97614405E+00  0.45214473E+00  0.50290843E+00
  0.98605370E+00  0.93344118E+00  0.89548257E-02
  0.49941033E+00  0.99339227E+00  0.48691902E+00
  0.99310599E+00  0.91282860E+00  0.55746738E+00
  0.70565312E+00  0.27663346E+00  0.99898168E+00
  0.44092896E+00  0.99268856E+00  0.61695355E+00
  0.89155758E+00  0.28853696E+00  0.26868078E+00
  0.21385686E-01  0.49875117E+00  0.75475839E+00
  0.54929816E+00  0.26840609E-01  0.22375495E+00
  0.25619804E+00  0.26840837E+00  0.51599528E+00
  0.71779925E+00  0.75789008E+00  0.46240388E-02
  0.78087912E+00  0.22333843E+00  0.50135218E+00
  0.21200267E+00  0.67931345E+00  0.13445766E+00
  0.21419287E+00  0.78621853E+00  0.87385456E+00
  0.47532146E+00  0.48151777E+00  0.50300622E+00
  0.97295547E+00  0.26648481E+00  0.15468087E-01
  0.12881782E+00  0.92000286E+00  0.64456924E+00
  0.73777216E+00  0.15603914E-01  0.87900143E+00
  0.95360855E+00  0.74088077E+00  0.50153050E+00
  0.96224140E+00  0.55509953E+00  0.99485001E+00
  0.50465989E+00  0.30920121E-01  0.73948615E+00
  0.25856673E+00  0.26343831E+00  0.24101752E+00
  0.78157847E+00  0.74598752E+00  0.76038757E+00
  0.48827104E+00  0.79797484E+00  0.25549136E+00
  0.78784074E+00  0.26442714E+00  0.75994040E+00
  0.73621704E+00  0.50178142E+00  0.37942924E+00
  0.18628932E-01  0.25024283E+00  0.74966651E+00
  0.72895658E+00  0.24631012E+00  0.37235983E+00
  0.25734235E+00  0.75565783E+00  0.49188424E+00
  0.23742109E+00  0.21889003E+00  0.13247799E+00
  0.69119684E+00  0.21745269E-01  0.61953901E+00
  0.97603433E+00  0.89500769E-02  0.74257626E+00
  0.25545402E+00  0.21172702E+00  0.36797717E+00
  0.21066830E+00  0.49344210E+00  0.87643080E+00
  0.99313858E+00  0.50652818E+00  0.25153213E+00
  0.73784953E+00  0.78355741E+00  0.87315632E+00
  0.31267396E+00  0.48831384E+00  0.62831321E+00
  0.73903194E+00  0.49949058E+00  0.86639112E+00
  0.17292900E-01  0.45070289E-01  0.26488166E+00
  0.36428832E-01  0.51161095E+00  0.63905994E+00
  0.50975881E+00  0.95682068E+00  0.11736280E+00
  0.19632222E-01  0.16997409E+00  0.52011755E+00
  0.90419351E+00  0.49064205E+00  0.12019822E+00
  0.51921415E+00  0.72123589E+00  0.75183578E+00
  0.44979200E+00  0.50517472E+00  0.24567308E+00
  0.28568941E+00  0.91402574E-02  0.25334447E+00
  0.78972372E+00  0.51055211E+00  0.75045244E+00
  0.23318713E+00  0.45896078E-02  0.75043352E+00
  0.70221438E+00  0.51034525E+00  0.24760358E+00
  0.24036718E+00  0.11905065E-02  0.98465864E+00
  0.73549070E+00  0.47680580E+00  0.50377152E+00
  0.24668582E+00  0.68851286E-02  0.51205733E+00
  0.70952581E+00  0.53370504E+00  0.99842090E+00
  0.73606573E+00  0.99071012E+00  0.75148358E+00
  0.22312738E+00  0.51023092E+00  0.24745902E+00
  0.27809163E+00  0.50226600E+00  0.74688829E+00
  0.79700717E+00  0.78549695E-02  0.24947747E+00
  0.22956356E+00  0.52462099E+00  0.50264243E+00
  0.75974684E+00  0.21378850E-01  0.47906383E-02
  0.76318546E+00  0.96929097E+00  0.50890017E+00
  0.23919804E+00  0.50878793E+00  0.99735277E+00
  0.99170500E+00  0.26738452E+00  0.38126856E+00
  0.47145136E+00  0.73206719E+00  0.87035283E+00
  0.50937521E+00  0.23543610E+00  0.62818650E+00
  0.36969203E-02  0.73243162E+00  0.12936204E+00
  0.96876400E+00  0.28555378E+00  0.87588126E+00
  0.48915701E+00  0.71933225E+00  0.37855225E+00
  0.10405442E-01  0.75525661E+00  0.64163551E+00
  0.49339237E+00  0.24317786E+00  0.12322106E+00
  0.12616382E+00  0.39880662E+00  0.41751406E-01
  0.64975973E+00  0.86364310E+00  0.54292248E+00
  0.65256686E+00  0.13280074E+00  0.95715174E+00
  0.11176098E+00  0.60256169E+00  0.45911734E+00
  0.34215179E+00  0.39762929E+00  0.94730487E+00
  0.85927976E+00  0.88522729E+00  0.45013944E+00
  0.86397040E+00  0.90426641E-01  0.64863591E-01
  0.34540993E+00  0.61774217E+00  0.55080634E+00
  0.88566185E+00  0.11198581E+00  0.20298516E+00
  0.37644551E+00  0.59450123E+00  0.70263117E+00
  0.87746482E+00  0.91714205E+00  0.30263289E+00
  0.38383114E+00  0.39876221E+00  0.79190469E+00
  0.13648896E+00  0.62088294E+00  0.29010439E+00
  0.64822981E+00  0.97344510E-01  0.80261720E+00
  0.11187364E+00  0.41163284E+00  0.19839885E+00
  0.64724305E+00  0.89973764E+00  0.70310807E+00
  0.80356832E+00  0.63786817E+00  0.94581309E+00
  0.33467284E+00  0.11805770E+00  0.45483963E+00
  0.86290164E+00  0.37110311E+00  0.55791779E+00
  0.33724019E+00  0.89964769E+00  0.38528837E-01
  0.16987983E+00  0.93816666E-01  0.56929896E+00
  0.62562409E+00  0.63640335E+00  0.47937075E-01
  0.13088641E+00  0.90662045E+00  0.93702168E+00
  0.65399465E+00  0.35548229E+00  0.46040967E+00