Na88 Ge16 P8 S96                        
   1.00000000000000     
    13.3422163233000006    0.0000000000000000    0.0000000000000000
     0.0000000000000000   13.3422163233000006    0.0000000000000000
     0.0000000000000000    0.0000000000000000   26.6844326466999995
   Na   Ge   P    S 
    88    16     8    96
Direct
  0.5786896763295721  0.7829104468190174  0.2669310975051701
  0.8104303088683780  0.9990735059415901  0.8719354269218532
  0.1614711820047842  0.4389107685928725  0.8761486754568274
  0.2233802569781522  0.2538599224190527  0.2509339075028835
  0.7678892337372861  0.4914344238907085  0.8868156250967061
  0.9828299351111310  0.7397844143063572  0.4718620102506377
  0.9731450112947326  0.8968015968932788  0.0227133409600519
  0.9475493714032202  0.4449289476574073  0.1240830931320938
  0.9980955082106828  0.0126173229305813  0.7798738248155883
  0.7352318600704585  0.2520863810031566  0.1644496520831900
  0.0058771346722593  0.5562102743572086  0.2233998150061346
  0.2137350805814416  0.2293957302039055  0.8778312606278066
  0.4982504859560566  0.8905190350196005  0.1180361514337415
  0.2843980870510129  0.7556770491498084  0.4859029591671685
  0.4914815739970291  0.0500032635355149  0.7346772400847634
  0.7028118602842031  0.7832792733527205  0.5005320838692202
  0.7316929404115720  0.2523210372989252  0.4917662224560778
  0.5640826812770879  0.5807334845770016  0.8127387090991585
  0.5038966004811951  0.0183847241088219  0.0145194013402071
  0.6798066936595794  0.2355788266123424  0.7271564361293414
  0.7810429570121187  0.2774571821278323  0.2996197667372004
  0.7654529963497616  0.0483746450501225  0.3620305008985981
  0.0054345887944252  0.5683441923405971  0.7258385178350940
  0.4475813635587746  0.5288552841423375  0.6236035055277667
  0.4790251781621624  0.0585128339558428  0.2284815373027806
  0.2534949119968672  0.7300212274709468  0.7761446789256148
  0.4143045254624451  0.4758461945959425  0.8770402604723485
  0.7954080272513829  0.9251400175649821  0.6280159153431172
  0.9314925262328677  0.4680411657580197  0.4882416916132518
  0.1052823199663403  0.7096900577382595  0.8618187692720911
  0.1915325769461778  0.9558874097670839  0.6370947518579577
  0.8354253835247510  0.7283565900194877  0.8608596204593675
  0.9965961749535122  0.9840667431332291  0.3773697363971290
  0.9765401208664900  0.0730943491830652  0.6391370571845002
  0.2481557121835570  0.7182618144000377  0.1295532189435741
  0.4845559936767699  0.0053008366418906  0.3464511613116885
  0.5304019119350389  0.2538297360015142  0.0177019659254351
  0.2832218961756024  0.2414746780843941  0.5195871862256163
  0.1951804221683864  0.2779529526942258  0.6290943828872496
  0.6757346526019682  0.8141218892591093  0.9298143959015244
  0.9951973216433685  0.2621711952641453  0.2280434788971858
  0.2117650299586765  0.2329845402354231  0.0177401421220923
  0.9201011896264749  0.2477247891727394  0.7478635050749712
  0.9596782381957669  0.4636078262917085  0.9779824685055132
  0.2628336764577451  0.9298118877997080  0.3946807979338987
  0.7349440762893474  0.7493149220257111  0.3706238436198660
  0.4653693706350998  0.5692935580184348  0.4807899323626001
  0.4807155341157580  0.7753605518717677  0.7588891279266985
  0.5457419613657322  0.0086587268680207  0.8707529748901728
  0.5021092278044353  0.5609939971598431  0.2506421324508601
  0.7581521180142745  0.5724285790005322  0.6301143016295405
  0.9679954614029126  0.9959636577037915  0.5122791085859927
  0.9914888321143771  0.2582101666523513  0.5060505730617118
  0.1714241594932686  0.2365289706718022  0.1275571747287716
  0.9722123151785563  0.4994325789854909  0.3494628002886224
  0.9674215548830807  0.9796643543478167  0.2626915390456030
  0.1913677902026871  0.2464084652324277  0.7568239942753313
  0.2421946513000776  0.2370662138077292  0.3941881180976036
  0.5197835735960459  0.6985852044352330  0.0109543436646503
  0.2328502683027842  0.4984973978728958  0.3654372300702043
  0.0060855374540081  0.0684914408524691  0.9531718502731844
  0.6886028095219539  0.4723981120546724  0.1359881195947333
  0.7525662934558499  0.6965327258659569  0.0713254875452899
  0.4997771414428221  0.0198127123712563  0.5040202792495283
  0.7092170702568252  0.0104043566422668  0.1107309372624634
  0.7158871758031321  0.7496876433715622  0.7460227831206218
  0.1740539858803887  0.5004406428602544  0.6195869796748166
  0.2747249018852739  0.9589574475641055  0.8931697355217952
  0.4853069573776742  0.2546560567859116  0.2619178505165755
  0.6738913171665577  0.2708366285394466  0.8729336331973288
  0.2613056217048583  0.0326374740660611  0.1366973182838271
  0.4306962369004521  0.4081098585555732  0.7248154818357496
  0.3178028353591015  0.4669965936237713  0.1231117545946432
  0.6760438104345866  0.1606366834760417  0.6199497145047094
  0.4699192922148655  0.4660175556532014  0.0056439673374579
  0.4914493638854303  0.4593974320223374  0.3513056391184263
  0.9814788959673372  0.6639720284974552  0.0100734463017657
  0.6960569880109503  0.4524255134293419  0.3795453672414473
  0.9631225178569981  0.9898041468724073  0.1238932712824388
  0.9573989055543903  0.4051712121125225  0.6045755038383833
  0.8127962005692665  0.7898085316326288  0.2138157714061983
  0.2487354317621882  0.7516707185592566  0.2826231328630319
  0.1150042462091409  0.7160161354802081  0.3798496261116978
  0.9125806896626431  0.2667250039267553  0.0078180281358090
  0.2265140572350002  0.7408289440411420  0.6068503073692272
  0.5000695021997916  0.3467050149991135  0.5298884525092924
  0.2212169649131037  0.7472324891664704  0.9836673205941036
  0.4194912497198370  0.9623346058717160  0.6289026887466971
  0.2366796434413874  0.0053097132857716  0.2651925270069230
  0.7060993389992900  0.4774949393557603  0.7479676517804161
  0.2510644936539767  0.9862061261603318  0.7670689073842383
  0.7420134034443402  0.4978849983268234  0.2575873413178339
  0.2257808773905940  0.9838205200940321  0.0199197891937936
  0.6920833902576292  0.4974737568197873  0.5132162387470905
  0.2093884230761650  0.9955544879376982  0.5085892357036438
  0.7050661426751500  0.4611607827224540  0.0177837767078686
  0.7450543840594133  0.9967181026787213  0.7430080627856781
  0.2356853354394545  0.5123797032255449  0.2413979693667402
  0.2110057374838429  0.4993407185746234  0.7459175534386857
  0.7150673692666973  0.0131209094450840  0.2483588026020635
  0.2090895130976969  0.4825272193354477  0.5016473382738091
  0.7509265553339994  0.9539537253901003  0.9961098945474812
  0.7420596475967078  0.0175439206891788  0.4947235186818127
  0.2157198507515118  0.4904834550442957  0.0035508684260669
  0.9854422982324930  0.2177801083072285  0.3726938539374344
  0.4789102565516543  0.7364063254604502  0.8865813846043408
  0.4551287478559745  0.2634432385015990  0.6396992619228470
  0.9769987995753046  0.7507420943866395  0.1366884927033137
  0.9572941272940511  0.2426687958479768  0.8835890060232559
  0.4290322438632634  0.7437856817973099  0.3790698606013242
  0.9781972568175092  0.7372854163850520  0.6360035169086655
  0.4671405750193470  0.2471769076679772  0.1311552963082380
  0.1137166548679775  0.4058571333823713  0.0516376372498473
  0.6459720055068968  0.9492987957864404  0.5566751526621092
  0.6613713192441046  0.0426252206675211  0.9467783984459861
  0.0994389865478426  0.5646814286420129  0.4519877606684131
  0.3137082670659749  0.4154084529019256  0.9500547563008928
  0.8234282788912985  0.9016193948523381  0.4502248808742129
  0.8320262595928024  0.0568187039520501  0.0497040796995160
  0.3092652386358189  0.5759627953760359  0.5448087488110697
  0.8403098252651018  0.0824416950622620  0.2016404273300159
  0.3058743432949825  0.5925537285462946  0.7006100109552140
  0.7708946861626509  0.8771103003528562  0.3000830463639049
  0.2951180202765202  0.3911216064200433  0.7899487833538340
  0.1376980682509131  0.6026256808002246  0.2939112723852401
  0.6708761034978034  0.1005676029384981  0.7961614103845226
  0.1413233510992886  0.4253419074936307  0.1920034840368720
  0.6282136994703500  0.9212580087343109  0.6995833706753288
  0.8132779371658635  0.5773025876409573  0.9769402324579163
  0.3265262458059868  0.0783071339520971  0.4684435684818353
  0.7897137684487582  0.3927580612524883  0.5563424130643985
  0.3124021768986355  0.8880438488879880  0.0659601431515641
  0.1360162443774935  0.0909887865392517  0.5619209674557750
  0.5847328369330081  0.5426437067795168  0.0651762537008134
  0.1304385188363039  0.9181282231463563  0.9665541532338554
  0.5989892572198591  0.3977141281695359  0.4611610994292416
  0.6307455337101550  0.3870622878890037  0.2912431292106968
  0.1459516847914281  0.8814668135627002  0.8068859190824424
  0.1402496078109690  0.0546642488795521  0.7172609941829987
  0.6798971686434870  0.6170713046775380  0.2092860440563057
  0.8329591554744170  0.4283644200705969  0.6909095974884074
  0.3126665365828512  0.9045497238206615  0.2091040210275903
  0.3338960540858783  0.1257566780424708  0.3046596903210788
  0.8139979960092487  0.5683001330670203  0.7993206482615428
  0.1150496526156355  0.1017948358647010  0.0599567387030012
  0.5977969597936507  0.5980620068118212  0.5598401371488965
  0.6287774640876654  0.3802223671163232  0.9486448895541819
  0.1138591450197964  0.8843942220753939  0.4620460435690522
  0.3450980915113513  0.0803032376901406  0.9696137116123389
  0.7695775779930233  0.5994254848958854  0.4564269073622593
  0.7887766191159622  0.3622734504777728  0.0704574214015736
  0.2960495986290820  0.8873429485514651  0.5573554256789690
  0.1027900432727008  0.1161002051872191  0.2128938531696621
  0.6091715086610121  0.5998284236906054  0.7141189567427939
  0.1447834692288411  0.9167980729042682  0.3137761080058905
  0.5861777712560492  0.3865716908662195  0.7866428905836003
  0.8233747741744143  0.5718187475094113  0.3118627403744030
  0.3261658586113256  0.0991291879940683  0.8166889967792353
  0.8299208762949598  0.3810545464382560  0.2213952726189665
  0.3606902545366191  0.9048770384420693  0.7130959371996222
  0.8757116992147227  0.8733935157055203  0.9449444084303142
  0.3160404863157479  0.3916564500722658  0.4508176784141800
  0.8406098318062943  0.1197688837878630  0.5438987264008112
  0.3423484113336818  0.5913800041181282  0.0496127596061467
  0.1240918058844171  0.3719361466300533  0.5460221697972694
  0.6288450102938232  0.8677980114772628  0.0356793364769643
  0.1298491392997010  0.6023516036018972  0.9558851180394156
  0.6463352114508916  0.1131834410806382  0.4472442342427190
  0.3284521499585127  0.4024840194036781  0.2903738421908387
  0.8465730459762336  0.8785028412428492  0.7878434146962849
  0.8202121401668279  0.1013943604163651  0.6913837852637725
  0.3445885093407327  0.5914702859455263  0.1977066351058228
  0.1017656868922122  0.3952850800302616  0.6968748322934276
  0.6074956365665286  0.9358768548159702  0.1995699131277309
  0.6455188097948064  0.1303520164594940  0.2939902578854290
  0.1244694213322551  0.5873564708534877  0.8011267995888474
  0.0922702202254335  0.3211251123650719  0.3394377076537654
  0.5862527288844693  0.8088091263391887  0.8420780597852653
  0.3837988545673869  0.1983303465157388  0.7056945755036594
  0.8653452585298557  0.8360425166041840  0.1026090277242242
  0.6033571844722637  0.3251353399184960  0.6478530361781467
  0.0218279947799126  0.8177820782942061  0.2012136051927042
  0.8784386968565528  0.3142864371561480  0.3920441720683946
  0.5528556520971859  0.6069920893277204  0.9057561527239081
  0.9011273352609361  0.3535877191778538  0.8396972698758871
  0.4366191402664767  0.8518064461720986  0.4401244646026243
  0.0846225337223225  0.7600353949889229  0.6854802751451389
  0.5691795589525801  0.1601729632607850  0.0972021180460459
  0.8407138033478356  0.7395503144469864  0.6641737528990022
  0.3647047567067542  0.1681703909968922  0.1780336008056470
  0.0360597932435289  0.1344865919817797  0.8473197332212810
  0.3976907619842425  0.8442845672281329  0.3113193628902682
  0.0060368166843271  0.5979047497398645  0.6203641204617919
  0.3789515815287928  0.2984870304999249  0.0695810172442927
  0.8261419510953961  0.1708801083001677  0.9221943589396643
  0.2959141732212314  0.6784094628732572  0.4022676788715485
  0.0589075484948398  0.2938834568622948  0.9383991721272678
  0.5517563621507225  0.6520821926247318  0.3704073324846557
  0.9986917753104116  0.8319619318776706  0.5763980967286790
  0.5379460042582516  0.3308008064060671  0.1802481876278998
  0.4512731000113032  0.1548126729397164  0.5832431713191762
  0.9003640712667847  0.6157851236095262  0.1396856108761483
  0.9281071487668957  0.1271335679815537  0.3168917761518744
  0.4321400196179708  0.8476823725141329  0.9344905382971144
  0.0504589350443175  0.1476697558077592  0.4308032656243299
  0.3729261346480380  0.6964853722356212  0.8388001810774486
  0.3654382740994740  0.3554571595238679  0.5998082816301519
  0.0856771506259645  0.7541542680594623  0.0827207183543516
 
  0.36393612E-02  0.85978577E-02  0.67755559E-02
  0.93377253E-03  0.34144565E-02  0.27704051E-02
 -0.57931654E-02 -0.35741403E-02 -0.20457857E-02
  0.34690779E-02 -0.19163416E-02  0.96497226E-02
  0.73224466E-03  0.25688095E-02  0.67683941E-02
  0.14404086E-01  0.47115539E-03  0.86530436E-02
 -0.12574509E-01  0.33475301E-03  0.70423707E-02
 -0.48279630E-02 -0.43846131E-02 -0.52679245E-02
  0.36810169E-02  0.45767902E-02  0.56640225E-02
  0.68915810E-02 -0.13559294E-02  0.41905353E-02
  0.33264892E-02  0.46085739E-02  0.47616053E-02
  0.48328725E-02  0.79646291E-02  0.16851571E-02
  0.43674780E-02 -0.15581126E-02  0.24364938E-04
 -0.75759682E-03 -0.30290627E-02  0.21858131E-03
 -0.10228057E-01 -0.10842663E-01 -0.11729525E-02
  0.91282483E-02 -0.10524007E-02  0.12731775E-01
 -0.53003426E-03  0.37898183E-03 -0.32754051E-02
  0.28401083E-02 -0.14765003E-01  0.10260642E-01
 -0.30147083E-02 -0.17750904E-02 -0.30057487E-02
 -0.58386693E-02  0.27220445E-02  0.42575245E-02
  0.19469348E-02  0.45201316E-02 -0.27265697E-03
  0.38064447E-02 -0.65296446E-02  0.92714033E-03
 -0.20245301E-02  0.93797461E-03  0.52404722E-02
 -0.19036399E-02  0.79209796E-02 -0.20689913E-02
  0.83395871E-03 -0.10604548E-01  0.13716343E-02
 -0.38843022E-02 -0.11209783E-01  0.94853303E-02
  0.45912998E-02  0.16777932E-02 -0.66427379E-02
  0.19455685E-02  0.14085750E-02 -0.15634592E-02
  0.36577145E-02 -0.10942587E-01  0.33386461E-02
  0.70230065E-02 -0.50933263E-02  0.28528405E-02
  0.76424880E-02  0.77042967E-02  0.11000799E-02
  0.55536986E-02  0.59142170E-02  0.10857279E-02
 -0.61085419E-02 -0.70545525E-02 -0.27899889E-02
  0.43292899E-02 -0.33100908E-03  0.36415740E-03
  0.16708625E-01  0.70731314E-02 -0.18170374E-02
  0.54957961E-02  0.39008184E-02  0.17501830E-02
 -0.44649357E-02 -0.23631884E-02  0.10982313E-01
  0.20324042E-02  0.19174304E-02 -0.79839380E-02
 -0.31062193E-03  0.32215839E-02  0.33054183E-02
  0.75991632E-02  0.11597136E-03  0.30978514E-02
  0.49048845E-02  0.19267424E-02 -0.46862206E-03
  0.41116482E-02 -0.13619050E-02  0.52195205E-02
 -0.72872694E-02 -0.78407354E-03 -0.65693354E-02
  0.41376173E-02 -0.70439426E-02 -0.55721415E-02
 -0.10684478E-01  0.78900115E-02  0.25297608E-02
 -0.78433380E-02  0.44506443E-02 -0.10378579E-01
 -0.40310239E-02 -0.47527317E-03 -0.15411822E-02
  0.15832406E-02 -0.57923985E-02 -0.35305769E-02
  0.49445708E-03  0.37471596E-02  0.14934148E-01
  0.54323161E-02  0.25249707E-02  0.18277883E-01
  0.28739602E-02 -0.47378384E-02 -0.11616917E-02
  0.15383219E-02 -0.26094831E-02 -0.88084143E-02
 -0.12229636E-02  0.25012313E-02 -0.10286671E-01
  0.61775179E-02  0.19429074E-03 -0.54084575E-02
 -0.13276423E-02 -0.22886666E-02 -0.81326334E-02
 -0.55768102E-02  0.25121840E-02  0.71388363E-02
 -0.80877013E-02  0.52796828E-03  0.23042803E-02
 -0.57542745E-02 -0.32930449E-03  0.16205905E-02
 -0.16555222E-02  0.45513623E-02 -0.35269185E-02
 -0.10255863E-01 -0.25901330E-02 -0.39678619E-02
  0.48597994E-02  0.67656509E-02 -0.26246799E-02
  0.44264660E-02 -0.52888763E-02  0.10859159E-02
  0.77975423E-02 -0.18360903E-03  0.26301661E-02
  0.22611092E-02 -0.52937660E-02  0.12648680E-01
  0.41608115E-02 -0.40479814E-03 -0.32482569E-02
 -0.50486270E-02  0.20420056E-02  0.23052136E-02
  0.97691350E-02 -0.54423026E-02 -0.16203075E-02
 -0.60076529E-02  0.34605178E-02 -0.48809491E-02
 -0.52056978E-02  0.65285800E-03 -0.67444985E-02
  0.19502289E-02  0.69738861E-02  0.99991776E-02
  0.78277152E-02 -0.19592872E-02  0.45516643E-02
  0.74690172E-02  0.14721240E-02 -0.21968663E-02
 -0.63989910E-02  0.13054926E-02  0.32570289E-02
  0.13086546E-02 -0.10166391E-01 -0.12104800E-01
  0.24514774E-02  0.64713791E-02  0.12398896E-02
  0.54157614E-02  0.36423432E-02  0.71053085E-03
 -0.79351515E-03  0.14587974E-01  0.15104722E-01
 -0.22380037E-02 -0.40270153E-02  0.89546559E-02
  0.89787465E-03 -0.50338270E-02 -0.62085588E-02
 -0.22833121E-02 -0.22178651E-02  0.16653312E-03
  0.52934798E-02 -0.66306430E-02 -0.24235231E-02
 -0.10182613E-02  0.25203470E-02  0.16186056E-02
  0.49033972E-02 -0.96348676E-03  0.35449439E-02
  0.24549160E-02  0.47051076E-02 -0.76371483E-02
 -0.63854139E-02 -0.32421187E-02 -0.34605003E-02
 -0.43087009E-02  0.90121515E-03 -0.97109923E-03
  0.96313308E-02 -0.13111059E-01  0.69098348E-02
  0.87091154E-02  0.87204617E-04 -0.32489758E-03
 -0.10177492E-01  0.29237964E-02 -0.20258844E-02
 -0.61957761E-03  0.25350749E-02 -0.71328136E-03
  0.86949464E-04  0.14821318E-02 -0.41479783E-02
 -0.20904706E-02 -0.22006527E-02  0.30624170E-02
  0.61700438E-02  0.20624370E-02  0.21700196E-02
  0.39950906E-02  0.54789743E-02 -0.46071082E-03
 -0.58198807E-02 -0.85303812E-03 -0.29932583E-02
 -0.35786765E-02 -0.60600825E-03 -0.18549989E-02
  0.81123851E-02 -0.26655461E-02 -0.46329490E-02
  0.36342572E-03  0.55389149E-03  0.16005572E-02
  0.82754835E-03 -0.47199792E-02  0.36378456E-02
 -0.23063379E-02 -0.39994233E-02 -0.49949168E-02
  0.13786168E-02  0.22911377E-02  0.13893157E-03
 -0.65299361E-02 -0.11216004E-02 -0.52232294E-02
 -0.45222578E-02 -0.45935627E-02 -0.18786992E-02
  0.21135696E-03  0.48301519E-02  0.48746863E-02
  0.83754002E-02 -0.53222004E-02  0.24771534E-02
 -0.31239027E-02 -0.21525395E-02 -0.28530832E-02
 -0.14480537E-03 -0.12356563E-02  0.74672577E-02
 -0.52157191E-02  0.15066040E-02  0.91155888E-03
 -0.42803464E-02  0.18416469E-03 -0.34993610E-02
 -0.86769763E-03 -0.50073085E-02 -0.13128285E-02
 -0.16618727E-02  0.43305217E-02  0.95027637E-02
  0.40738644E-02  0.34254799E-02 -0.93234261E-02
 -0.16936504E-02  0.83452933E-02 -0.23846382E-02
  0.19756026E-02  0.63857455E-02 -0.94292140E-02
 -0.38504993E-02  0.64050467E-02 -0.70871476E-03
 -0.19855008E-02 -0.16945127E-02 -0.24128156E-02
  0.72277172E-03 -0.30597125E-02 -0.63845455E-02
  0.92932332E-02 -0.36031103E-02  0.10695073E-01
  0.35261771E-02 -0.28932348E-02 -0.81918138E-03
  0.45536922E-02  0.47789104E-02 -0.18025319E-02
 -0.17430187E-02 -0.57606600E-03 -0.41715936E-02
 -0.15187763E-02 -0.47153406E-02  0.22256170E-02
 -0.13160669E-02 -0.22030960E-03  0.47378422E-02
  0.15782603E-02  0.28266224E-02 -0.79816561E-02
 -0.97326984E-02  0.93600224E-03 -0.48159540E-02
 -0.28730327E-02 -0.45072522E-02  0.57026948E-02
  0.12963073E-02  0.28053293E-02  0.52644365E-02
 -0.46386117E-02 -0.62022222E-02 -0.52655970E-03
  0.41696709E-02 -0.29476306E-02 -0.40828367E-02
 -0.36886821E-02  0.32633928E-02 -0.94370177E-02
 -0.19802830E-02  0.16761543E-02 -0.13397436E-02
  0.69403749E-02  0.99590039E-04 -0.21388204E-02
  0.65647921E-02 -0.23284508E-02  0.25174003E-02
  0.69067165E-02  0.22774880E-02  0.53569196E-02
  0.34485962E-02 -0.22353507E-02 -0.11869146E-02
  0.19301454E-02  0.61673670E-02  0.53492791E-02
 -0.49310117E-02  0.79525957E-03 -0.34687979E-02
  0.61970312E-02 -0.64514249E-02 -0.15428962E-02
 -0.38665683E-02  0.16898404E-02  0.90815934E-02
 -0.28843494E-02  0.76838175E-03 -0.58897728E-02
  0.78238256E-03  0.22434368E-02  0.63496405E-02
 -0.11499949E-02 -0.70264216E-02 -0.51712981E-02
  0.44290260E-02 -0.29710551E-02  0.34924285E-02
 -0.65284039E-03 -0.30212673E-02 -0.42082641E-02
  0.41257514E-02 -0.55019115E-02  0.27397147E-02
  0.63495253E-02  0.51779938E-02 -0.91185761E-03
 -0.18957654E-02 -0.57298502E-03  0.64647766E-02
 -0.41969761E-02 -0.77283200E-02  0.37454536E-02
 -0.90453786E-03  0.44365583E-02 -0.17238184E-02
  0.65898335E-03 -0.14043967E-02 -0.48485273E-03
 -0.99281003E-02  0.16655232E-02  0.18288743E-02
 -0.57197146E-02 -0.85387381E-02  0.37875577E-03
 -0.41091553E-02  0.12300464E-01 -0.74619883E-02
  0.39034097E-02  0.71111730E-02 -0.97668310E-03
 -0.30929423E-02 -0.50328701E-02  0.47472148E-02
  0.31413638E-02  0.53622216E-02  0.31987000E-03
 -0.25739891E-02  0.60556860E-03  0.28805480E-02
 -0.19538735E-02 -0.73187987E-02  0.57837565E-02
 -0.47407167E-02  0.86001598E-02 -0.17740243E-03
 -0.93957740E-02 -0.80570059E-02  0.13971821E-02
 -0.49880733E-02  0.19456368E-02 -0.92528283E-02
 -0.58388643E-02  0.55506744E-02 -0.40742777E-02
  0.87328496E-02 -0.79610308E-02  0.44234482E-03
  0.83669235E-02  0.78066278E-03  0.79397142E-03
  0.85101499E-02 -0.40105009E-03  0.32408643E-02
  0.33411943E-02  0.15858371E-02  0.27970942E-02
 -0.79958756E-02  0.20577882E-03 -0.50237001E-03
  0.12962885E-02 -0.26781490E-02 -0.17219160E-02
 -0.18510498E-02  0.16601991E-02  0.69231325E-03
  0.63810218E-03 -0.40132002E-02 -0.37337725E-02
 -0.22342049E-02  0.25769188E-02 -0.44947619E-02
 -0.18970021E-02  0.58564129E-02 -0.60277723E-02
  0.17087969E-02 -0.40183744E-02 -0.79540281E-02
  0.11674437E-02  0.54876525E-02  0.25854546E-02
  0.15274468E-02  0.18203394E-02 -0.18215959E-02
  0.27793445E-02  0.10167647E-01 -0.26447417E-02
  0.76100799E-02 -0.33033720E-02 -0.31621747E-02
  0.20682770E-02 -0.84718806E-03 -0.17165461E-02
 -0.51672070E-02 -0.19144934E-02  0.12137564E-02
 -0.13239837E-03  0.28677833E-02 -0.80825542E-02
 -0.48594802E-02 -0.32496474E-02 -0.12092225E-02
 -0.70847819E-02 -0.98354835E-02  0.54033402E-02
 -0.64528851E-02 -0.33419054E-02 -0.59402938E-03
 -0.47613371E-02  0.75516765E-02 -0.11186213E-02
  0.18195726E-02  0.38986656E-02 -0.29130772E-02
 -0.18221279E-02  0.16601861E-02 -0.37350597E-02
  0.44064287E-02 -0.31826538E-02  0.49706900E-02
  0.10118940E-01 -0.17978503E-02  0.11649917E-02
  0.51563036E-02  0.86457936E-02 -0.17914303E-02
  0.47093321E-02 -0.44789629E-02 -0.30764235E-03
 -0.50262404E-02  0.50484319E-02 -0.37844816E-02
 -0.53689907E-02  0.53158103E-02  0.63074271E-02
 -0.90404813E-02  0.71701756E-02 -0.20455140E-02
 -0.80098338E-02  0.28757281E-02  0.33849557E-02
 -0.45470175E-02 -0.84450901E-03  0.91627950E-02
 -0.73525471E-02 -0.36353350E-02  0.59095402E-02
  0.46033380E-03 -0.90023666E-02  0.13412668E-02
  0.14333454E-02  0.24918236E-02 -0.39478739E-02
  0.15562220E-01 -0.75543140E-02  0.82548534E-03
  0.26454841E-02 -0.44504340E-02 -0.34875861E-02
  0.12839232E-02  0.61220355E-02  0.25364563E-02
  0.65618172E-02  0.54821037E-02 -0.56640599E-03
  0.17958898E-02  0.40240495E-02 -0.25239019E-03
  0.34081874E-02 -0.13583938E-01 -0.60883821E-02
 -0.72913635E-02  0.43921043E-02 -0.26618991E-02
 -0.11254587E-01  0.69520275E-03 -0.77113083E-02
 -0.87877393E-03  0.28596242E-02  0.44439586E-02
 -0.66570524E-02 -0.30373183E-04 -0.44920410E-03
 
           1
   2.00000000000000     
  0.92053932E+00  0.60545016E-03  0.00000000E+00  0.00000000E+00
  0.57923522E+00  0.78419927E+00  0.26743893E+00
  0.81057028E+00  0.99958533E+00  0.87214307E+00
  0.16060279E+00  0.43837500E+00  0.87599534E+00
  0.22390027E+00  0.25357266E+00  0.25165715E+00
  0.76799900E+00  0.49181949E+00  0.88732292E+00
  0.98498911E+00  0.73985504E+00  0.47251056E+00
  0.97126009E+00  0.89685178E+00  0.23241167E-01
  0.94682566E+00  0.44427169E+00  0.12368826E+00
  0.99864729E+00  0.13303384E-01  0.78029834E+00
  0.73626491E+00  0.25188313E+00  0.16476373E+00
  0.63757758E-02  0.55690110E+00  0.22375670E+00
  0.21445953E+00  0.23058963E+00  0.87795756E+00
  0.49890517E+00  0.89028547E+00  0.11803798E+00
  0.28428452E+00  0.75522299E+00  0.48591934E+00
  0.48994839E+00  0.48377947E-01  0.73458933E+00
  0.70418019E+00  0.78312152E+00  0.50148633E+00
  0.73161349E+00  0.25237785E+00  0.49152073E+00
  0.56450841E+00  0.57852021E+00  0.81350774E+00
  0.50344470E+00  0.18118638E-01  0.14294120E-01
  0.67893148E+00  0.23598686E+00  0.72747554E+00
  0.78133480E+00  0.27813475E+00  0.29959933E+00
  0.76602358E+00  0.47395850E-01  0.36209999E+00
  0.51311115E-02  0.56848479E+00  0.72623129E+00
  0.44729601E+00  0.53004264E+00  0.62344843E+00
  0.47915019E+00  0.56923211E-01  0.22858434E+00
  0.25291265E+00  0.72834088E+00  0.77685561E+00
  0.41499276E+00  0.47609770E+00  0.87654239E+00
  0.79569967E+00  0.92535116E+00  0.62789873E+00
  0.93204082E+00  0.46640087E+00  0.48849192E+00
  0.10633507E+00  0.70892657E+00  0.86203259E+00
  0.19267819E+00  0.95704228E+00  0.63717720E+00
  0.83625788E+00  0.72924313E+00  0.86094100E+00
  0.99568050E+00  0.98300926E+00  0.37716063E+00
  0.97718908E+00  0.73044731E-01  0.63916435E+00
  0.25066034E+00  0.71932208E+00  0.12941703E+00
  0.48537981E+00  0.58855698E-02  0.34658234E+00
  0.52973262E+00  0.25347549E+00  0.18525091E-01
  0.28352655E+00  0.24176210E+00  0.51898879E+00
  0.19513386E+00  0.27843587E+00  0.62934212E+00
  0.67687377E+00  0.81413927E+00  0.93004658E+00
  0.99593256E+00  0.26246001E+00  0.22800836E+00
  0.21238137E+00  0.23278039E+00  0.18131346E-01
  0.91900883E+00  0.24760726E+00  0.74737113E+00
  0.96029847E+00  0.46255194E+00  0.97756484E+00
  0.26123207E+00  0.93099460E+00  0.39487040E+00
  0.73376836E+00  0.74998207E+00  0.36984597E+00
  0.46476512E+00  0.56922231E+00  0.48067442E+00
  0.48095286E+00  0.77449227E+00  0.75862451E+00
  0.54581608E+00  0.92204266E-02  0.87187229E+00
  0.50292353E+00  0.56137249E+00  0.25201206E+00
  0.75858293E+00  0.57171838E+00  0.63002723E+00
  0.96822606E+00  0.99557250E+00  0.51161892E+00
  0.99130551E+00  0.25858510E+00  0.50527959E+00
  0.17235017E+00  0.23655809E+00  0.12715181E+00
  0.97201330E+00  0.49908951E+00  0.34885326E+00
  0.96658559E+00  0.98004093E+00  0.26322660E+00
  0.19015544E+00  0.24648761E+00  0.75699670E+00
  0.24133208E+00  0.23701685E+00  0.39430958E+00
  0.51953541E+00  0.69926745E+00  0.10690001E-01
  0.23131291E+00  0.49810914E+00  0.36513984E+00
  0.68140220E-02  0.69505613E-01  0.95297513E+00
  0.68926634E+00  0.47160531E+00  0.13606951E+00
  0.75373515E+00  0.69650520E+00  0.71522619E-01
  0.50011608E+00  0.19019176E-01  0.50496830E+00
  0.70984078E+00  0.10343677E-01  0.11048748E+00
  0.71513039E+00  0.74999374E+00  0.74619556E+00
  0.17551838E+00  0.49962484E+00  0.61946554E+00
  0.27382435E+00  0.95947618E+00  0.89280391E+00
  0.48452662E+00  0.25475392E+00  0.26141235E+00
  0.67418366E+00  0.27188201E+00  0.87368307E+00
  0.26247900E+00  0.32343777E-01  0.13703847E+00
  0.43181584E+00  0.40833053E+00  0.72465083E+00
  0.31684363E+00  0.46719229E+00  0.12335587E+00
  0.67623998E+00  0.15911274E+00  0.61904246E+00
  0.47028677E+00  0.46698762E+00  0.57368971E-02
  0.49226119E+00  0.45994342E+00  0.35135889E+00
  0.98135995E+00  0.66615877E+00  0.11205546E-01
  0.69572151E+00  0.45182186E+00  0.38021652E+00
  0.96325711E+00  0.98904958E+00  0.12342794E+00
  0.95705664E+00  0.40483875E+00  0.60458799E+00
  0.81358969E+00  0.78881460E+00  0.21363413E+00
  0.24858279E+00  0.75204852E+00  0.28274445E+00
  0.11573927E+00  0.71587171E+00  0.38011532E+00
  0.91294868E+00  0.26743030E+00  0.72456234E-02
  0.22555688E+00  0.74034295E+00  0.60659094E+00
  0.49942363E+00  0.34684011E+00  0.52981567E+00
  0.22266070E+00  0.74526714E+00  0.98418521E+00
  0.42079675E+00  0.96234768E+00  0.62887834E+00
  0.23515404E+00  0.57479908E-02  0.26504069E+00
  0.70600646E+00  0.47787495E+00  0.74791419E+00
  0.25107753E+00  0.98642830E+00  0.76675802E+00
  0.74170004E+00  0.49755512E+00  0.25781687E+00
  0.22670577E+00  0.98412968E+00  0.20082432E-01
  0.69268225E+00  0.49829506E+00  0.51318171E+00
  0.20851602E+00  0.99542662E+00  0.50836489E+00
  0.70452970E+00  0.46106994E+00  0.17644744E-01
  0.74627043E+00  0.99631854E+00  0.74266082E+00
  0.23573981E+00  0.51246273E+00  0.24151793E+00
  0.21112979E+00  0.49863319E+00  0.74619021E+00
  0.71472165E+00  0.12521395E-01  0.24798443E+00
  0.20929617E+00  0.48287066E+00  0.50165775E+00
  0.74994772E+00  0.95378560E+00  0.99571841E+00
  0.74138176E+00  0.16855345E-01  0.49458271E+00
  0.21575153E+00  0.49120750E+00  0.39162265E-02
  0.98669777E+00  0.21698231E+00  0.37287952E+00
  0.47844198E+00  0.73608366E+00  0.88636755E+00
  0.45510704E+00  0.26325801E+00  0.64025893E+00
  0.97621696E+00  0.75096793E+00  0.13675681E+00
  0.95665250E+00  0.24269640E+00  0.88332673E+00
  0.42890218E+00  0.74303509E+00  0.37897146E+00
  0.97794814E+00  0.73793456E+00  0.63671575E+00
  0.46775125E+00  0.24769039E+00  0.13045650E+00
  0.11346278E+00  0.40710809E+00  0.51458908E-01
  0.64626815E+00  0.95025602E+00  0.55596843E+00
  0.66079413E+00  0.43585338E-01  0.94672528E+00
  0.99141360E-01  0.56442742E+00  0.45180692E+00
  0.31381661E+00  0.41494980E+00  0.94957623E+00
  0.82482134E+00  0.90107929E+00  0.45102648E+00
  0.83255483E+00  0.56385008E-01  0.49642682E-01
  0.30994784E+00  0.57667915E+00  0.54467365E+00
  0.84004855E+00  0.82355343E-01  0.20132777E+00
  0.30564668E+00  0.59184690E+00  0.70077682E+00
  0.77069741E+00  0.87707728E+00  0.30043815E+00
  0.29535460E+00  0.39154532E+00  0.78935056E+00
  0.13623914E+00  0.60276599E+00  0.29355032E+00
  0.67044544E+00  0.99891965E-01  0.79658883E+00
  0.14151767E+00  0.42576243E+00  0.19239805E+00
  0.62751837E+00  0.92032829E+00  0.69954390E+00
  0.81390297E+00  0.57686074E+00  0.97663422E+00
  0.32597331E+00  0.78796317E-01  0.46773626E+00
  0.78941692E+00  0.39300932E+00  0.55624200E+00
  0.31344254E+00  0.88805878E+00  0.65799838E-01
  0.13700031E+00  0.90639751E-01  0.56210965E+00
  0.58576815E+00  0.54298510E+00  0.65577755E-01
  0.13095546E+00  0.91779314E+00  0.96646519E+00
  0.59927859E+00  0.39863862E+00  0.46156203E+00