Na88 Ge16 P8 Se96                       
   1.00000000000000     
    13.9614333504000001    0.0000000000000000    0.0000000000000000
     0.0000000000000000   13.9614333504000001    0.0000000000000000
     0.0000000000000000    0.0000000000000000   27.9228667008000002
   Na   Ge   P    Se
    88    16     8    96
Direct
  0.0059952548293803  0.9459364026009591  0.0353908606993896
  0.5013363495391636  0.5320407045268677  0.4957666839293912
  0.5278878575791565  0.5160046105623651  0.0093077590950843
  0.0043660579900791  0.9746688290424049  0.2513671903961854
  0.2343503646780214  0.7631204054085705  0.8870775684477014
  0.9986146813614216  0.5432871843796752  0.3768784202301285
  0.0185011124582067  0.4850695238255355  0.1314667082649080
  0.2752624003731212  0.3838427673592281  0.1156991102700794
  0.6890581048801285  0.7530790693235173  0.6291310487673003
  0.7440123188031192  0.2623726733790441  0.8818869960450652
  0.7424276521412051  0.4714052935141044  0.3788541194986825
  0.2613445268862427  0.1895041731138997  0.0066605675128503
  0.7649801439459750  0.2243761408751311  0.1316893599650915
  0.2576700115612500  0.7290040290693321  0.6174069603387902
  0.2750296182980400  0.2466826257432001  0.8759506396326316
  0.2598160512605310  0.5189835173403637  0.3713640389878644
  0.1597384515961749  0.0063955051765633  0.6265422312693708
  0.0163681991208415  0.5074209851095202  0.6307444854365553
  0.5102555523327531  0.0184564039594836  0.0866154157325312
  0.9688913925244300  0.4983643267538191  0.8818347077148616
  0.5003721885985213  0.0082275467095148  0.3559870025605491
  0.2610615722116630  0.2935358892318964  0.3780594395658727
  0.6760187955072640  0.7683569181407447  0.7824830830071752
  0.7491639172404391  0.2409342860324436  0.6364528911618940
  0.2446835781884292  0.7177606562338397  0.0022837316165398
  0.2642731293969474  0.2338277046647504  0.7572295231316846
  0.7761040934312242  0.7201808010104703  0.1257706058833562
  0.7834217713959506  0.2469092659853001  0.2789186225222801
  0.5061393098299172  0.7302317061197994  0.5000939791152369
  0.5104556813782549  0.0250170091221337  0.8805577521128680
  0.0010424405881608  0.5263984164590993  0.4942979909495973
  0.5312482526018780  0.4746621590195800  0.7504882625478949
  0.0286088538267404  0.7439358458395319  0.2420075070233676
  0.4968115958269158  0.2182815122091262  0.7597811827543778
  0.0034494386182109  0.9828592697124027  0.8776363348763400
  0.4971876896853727  0.9863229505903092  0.4972802554127067
  0.4654810354808501  0.8771804283035527  0.9817091649648282
  0.2634146119578593  0.2652367247371553  0.2285611462763057
  0.9706664351824775  0.9935374806902941  0.7313603276096328
  0.5144928592114425  0.7348266743155968  0.2593509045239941
  0.8251131189357498  0.9716661763928013  0.1312267377584291
  0.5242230434029361  0.5362020789665520  0.6181714254177110
  0.4806664714695020  0.9791287191901309  0.7493603188376062
  0.9847568154399674  0.5147533425829098  0.2521232374158672
  0.5015132398988676  0.2282293985815041  0.9806885143970674
  0.8027585709144999  0.7368412810485793  0.5229357743784911
  0.2362230169261361  0.7861837149608684  0.4962986274570502
  0.7792313177926630  0.2729479492005162  0.0046256089320413
  0.9760075956469852  0.9305678930991378  0.5247938268508855
  0.4823195589908092  0.4965316066688728  0.2525280341464072
  0.0433188596083567  0.4738898179874718  0.7520700756743420
  0.5189286146993312  0.0237227377652255  0.2271901675055645
  0.2445331360049872  0.2925303294193228  0.5022326684190376
  0.7454677439733622  0.7672866307379765  0.9868425366515176
  0.7258497541105784  0.2391288265083919  0.5095315501721429
  0.0037448549122421  0.7246722360846990  0.9909070995036002
  0.0204308647129814  0.2527199696061334  0.0158172324131241
  0.4920862188440953  0.2733180544305905  0.5078630549537396
  0.4666353252251322  0.5241356729084209  0.1485440281400415
  0.9911822524807270  0.9908084652469985  0.3851477647541487
  0.2730597060725952  0.9707428724010209  0.8858089197897728
  0.9771309369488566  0.1777057402911275  0.4893334299491743
  0.0139155712070391  0.5043492055220898  0.0151485395551188
  0.5283107786780407  0.9850773656585442  0.6277726519663073
  0.5434580737125387  0.2264556267595604  0.2457975228535477
  0.0024618106497217  0.7366287218043660  0.7519954844975881
  0.2522877989143950  0.7619680629691319  0.2648997263582348
  0.7176267924255096  0.2569840347827689  0.7476264571406126
  0.7622908651854619  0.7627791488547043  0.3834692757224756
  0.9848703395511502  0.2326670237242882  0.7502700609232889
  0.0308663485362495  0.2471889590871763  0.2538594002663468
  0.2791511624852890  0.7494848291041084  0.7527258034163230
  0.2688548613926997  0.7558266396414426  0.1420791063870873
  0.7712569380881112  0.9818154096023858  0.6201545438129791
  0.7546541626801546  0.0067594806275640  0.8736149811004449
  0.2336868334474508  0.7829952938150695  0.3740093019981640
  0.4851262054847386  0.5037227046727620  0.8650636763873049
  0.7393058743568451  0.0250932082022508  0.3762563180666830
  0.7909463382860495  0.7600868076848899  0.2352482058542885
  0.2955757224956694  0.5006553505007626  0.6157266704699813
  0.7467693150019431  0.5357197347291740  0.8822136791874901
  0.2516691717178793  0.0417791109032493  0.3848139601906967
  0.7592861823568302  0.4903623754140649  0.6456343168899366
  0.2367228427677629  0.0074198328308340  0.1306477965356172
  0.2529890637354578  0.2243319948017098  0.6327306424627355
  0.7365063491648469  0.4874649520155285  0.1417945452035562
  0.2291455665498502  0.4691768644601289  0.8619526822051733
  0.5163442115501351  0.4635069895401943  0.3772580404420261
  0.2744643501809055  0.0137799749451813  0.2585170271126515
  0.7646602127524765  0.5151927408446214  0.7614354383612145
  0.2425515431125978  0.0035469311688475  0.7449390924676778
  0.7321900628268485  0.5073831533797544  0.2612218393800305
  0.2415446936522911  0.9805459518302623  0.0092202693676287
  0.7350347152369526  0.4850270114826719  0.5076976916504011
  0.2696400990835230  0.0390770864344196  0.5053390419146956
  0.7868166651022030  0.5100483658721087  0.0111806596309175
  0.7297573764683769  0.0029270165429237  0.7476493810867767
  0.2202178761909449  0.5058886090049588  0.2514341955444359
  0.2867625252484367  0.4855353732766720  0.7308182986120366
  0.7654753478695517  0.9916132937959217  0.2462024002861256
  0.2559798058297804  0.5325399998032601  0.4862726804828309
  0.7612366677088085  0.0272171982125802  0.9992232689689292
  0.7314039683252853  0.0081843433742019  0.4970122474342896
  0.2651100681087447  0.4616223016198390  0.9973710223815678
  0.9768172151854727  0.2633467027926279  0.3834263331870456
  0.5027265548236864  0.7366543470735717  0.8757490554357569
  0.5128501513296528  0.2507832870093811  0.6254877538354155
  0.0132012119656552  0.7463874245717262  0.1266558899314180
  0.0021025741796703  0.2350807566356156  0.8784859501054237
  0.4918250451039518  0.7454214158646255  0.3753702715271526
  0.0080646617455346  0.7507927657209448  0.6241013688720120
  0.5221800646314623  0.2557228556984916  0.1301050327234956
  0.1509670404998262  0.3800082981090784  0.0416503724560444
  0.6573231715930796  0.8837676322413157  0.5454118514298392
  0.6610155787227500  0.1302488316190551  0.9469383358235957
  0.1545214674323151  0.6352837528484226  0.4443901677048012
  0.3738605246180005  0.3769935452945045  0.9342442042125396
  0.8345510756976950  0.9121318021449760  0.4524600391814997
  0.8504731009570174  0.1228800315282412  0.0573234213815093
  0.3433862114745059  0.6249135379864283  0.5404445629260742
  0.8524880820049812  0.1094708747238162  0.2147303213190503
  0.3694236653859105  0.5939106960117606  0.6887112872250174
  0.8528554849956568  0.8912093537891488  0.3035971053726396
  0.3758732737268347  0.3758503770968988  0.7890022240861508
  0.1125503093897955  0.6091099091554786  0.2961203119883922
  0.6276788270870119  0.0863447712002020  0.8043556876083602
  0.1341915859021335  0.3958500134093798  0.2002463816053806
  0.6410396514015637  0.8916415159172538  0.6973345524866392
  0.8718978294950946  0.6015276638283885  0.9579967416285735
  0.3703216696934615  0.1373943773188100  0.4658845948943490
  0.8436862762112188  0.3883264416691666  0.5468279355966130
  0.3266895493825120  0.8879881652580911  0.0681281979887806
  0.1613069922499449  0.1262943849240771  0.5551141967359631
  0.6785983132925770  0.6074086776794326  0.0559389929394144
  0.1610774014602454  0.8852445205274766  0.9522782322176253
  0.6295887736629028  0.3999737925993663  0.4517106118543519
  0.6243320063882275  0.3788616162625011  0.2972216420198079
  0.1453583650658478  0.9245606629827715  0.8029009395484213
  0.1263640042043546  0.1246291792081454  0.7096433610312293
  0.6299515960811027  0.6132006483388748  0.2121411352141293
  0.8656143577759523  0.4031703421870617  0.7142656546974802
  0.3499118300899877  0.9115519191861083  0.2056602856843702
  0.3665297864650216  0.1218006524148700  0.3019059831466331
  0.8582980654383993  0.6217868770001499  0.8112153861906075
  0.1421341079768953  0.0779481928795436  0.0517587770716273
  0.6473040543441402  0.5882332015395463  0.5644674735658390
  0.6867428658648057  0.4044301112333801  0.9600870070647708
  0.1554590595160703  0.9359841299062379  0.4622694140301776
  0.3668157652740935  0.0578689922334714  0.9600710040981617
  0.8313932115250267  0.5897701158128920  0.4592771542880115
  0.8750123865906532  0.4142978280706817  0.0646070657646343
  0.3404360725531059  0.9242448555334950  0.5609562044277786
  0.1760441287349514  0.1144788754356114  0.2062922294516311
  0.6389896077812999  0.6034845502840978  0.7075738759081844
  0.1526376905917237  0.9261427871710808  0.3080574215030100
  0.6805816053452067  0.4012405881517639  0.8083281035441375
  0.8331505455361707  0.6020986771266127  0.3047494349577313
  0.3503385055940069  0.0958280794385813  0.8098423664989177
  0.8474532329558883  0.4123745524882590  0.2067596610780873
  0.3305299626406010  0.9202210781315514  0.6872481433463969
  0.8730415157018306  0.9403391905271522  0.9548544887214401
  0.3467023602460306  0.4120382505714255  0.4424481297517990
  0.8261484430915784  0.1080745799763190  0.5516551927845584
  0.3291452183570320  0.5555700101493127  0.0646982246408116
  0.1662872253612457  0.4567361196486993  0.5449470185644164
  0.6504462451487818  0.9306193734121818  0.0377389521560351
  0.1656734658210145  0.5762089259457480  0.9518007179214779
  0.6293266638984921  0.1063052314751498  0.4509779670648050
  0.3293554742892595  0.4078760662452003  0.2963915769538342
  0.8316717609091765  0.8998146559464493  0.7930410328262953
  0.8213217330487084  0.1090174491079039  0.7054859497400620
  0.3306613349070026  0.6059089373568570  0.2074903182918619
  0.1880743890673037  0.3815997881897423  0.6889263980661141
  0.6965310762186373  0.8864017610577638  0.1840431396221538
  0.6521339296325734  0.0816067848033208  0.2967513250849216
  0.1811339971892492  0.5798817039247959  0.7859778775523873
  0.0746959313725405  0.3327942658064235  0.4353818566485311
  0.5973216299212701  0.6353448406508909  0.8388100689088093
  0.5975923726598278  0.3644167361120852  0.6693301117927544
  0.0888235236168161  0.8674362813658384  0.1625497547446889
  0.4192675396320873  0.1456134596789040  0.6636205976237971
  0.9355739631997576  0.6442167331505561  0.1740903250471380
  0.9211570951279501  0.3704807715809352  0.3321925698335753
  0.4287642441357847  0.8033230584270764  0.8135529226660659
  0.1164067556450973  0.1344487422138959  0.9126828154930318
  0.5840491020881051  0.6506112108808445  0.4165851288619943
  0.0800431996176167  0.7405176991369640  0.5563883998777577
  0.6023669826443337  0.1242417183604652  0.1591883378051647
  0.8709781680526910  0.6736596506975215  0.6203329276006260
  0.6202714744176665  0.3676744057383097  0.0890444952113730
  0.9282322369243019  0.3228330525015521  0.9305500391652896
  0.4000784959133634  0.8413184709832190  0.4230373708481882
  0.9695669485614736  0.8968520786422806  0.6500489522588110
  0.4453146273312092  0.3419758313497779  0.1829109652735452
  0.8861983981626634  0.1718539589874996  0.8336011563569736
  0.3942209979246531  0.6561599630848494  0.3285672389611642
  0.0851092946406952  0.3165609965158309  0.8238658567425383
  0.5803947644750581  0.8377410757691903  0.3312941628128512
  0.1024322228100446  0.6743141039863521  0.6798804150779575
  0.4034324525574092  0.2073325029017362  0.0841101713844982
  0.3969213302551742  0.3299615404156548  0.5872743230514150
  0.9030514894878997  0.8087106376736628  0.0773884847579536
  0.0816783980762958  0.1660553199617295  0.3401510709243759
  0.3889131548860619  0.6687202485068210  0.9181919616967755
  0.8474097575047758  0.1916411263346492  0.4142272353491235
  0.5953940361935104  0.8490243551827863  0.9092300196573985
  0.6102667180085040  0.1772290900862387  0.5779343687368727
  0.1154130048489881  0.6533510351171097  0.0859765393677926
 
 -0.47787754E-02  0.22976290E-02 -0.47288174E-02
  0.15408196E-02 -0.40445769E-02  0.38090239E-02
  0.35160026E-02 -0.67978189E-03  0.53060574E-02
  0.22001243E-02 -0.94692248E-03 -0.12076871E-01
 -0.13225688E-02  0.67568395E-02 -0.93202780E-02
 -0.44502249E-02 -0.36092689E-02  0.32894223E-02
  0.12355029E-01  0.61071685E-02  0.49641668E-03
 -0.57829448E-04 -0.73282132E-02 -0.51227630E-02
 -0.12143631E-02  0.69364908E-03 -0.69370609E-02
 -0.11072799E-01  0.42281385E-03  0.95188890E-02
  0.75465277E-02  0.40976086E-03 -0.19847318E-02
 -0.31793072E-02 -0.18537654E-02  0.11803704E-02
 -0.21835293E-02  0.75300332E-02 -0.93167141E-02
  0.24799040E-02 -0.19070067E-02  0.21226582E-02
 -0.32848550E-02  0.25898078E-02  0.81754673E-02
 -0.52213255E-02  0.36038450E-03  0.71664560E-03
  0.10784992E-01  0.83894465E-03 -0.49115417E-02
  0.24296631E-02 -0.23274135E-02 -0.10194250E-01
  0.17047099E-02  0.99361315E-03  0.27821412E-02
  0.10095030E-02 -0.30673745E-02  0.65530910E-02
 -0.22867910E-02  0.19523217E-02  0.35137036E-02
 -0.17317462E-02  0.10028509E-02  0.30768995E-02
  0.51091780E-02  0.82614492E-02  0.13653482E-01
  0.23382425E-02 -0.44370412E-02 -0.83772872E-03
  0.62644114E-02 -0.19064899E-02  0.49465016E-02
 -0.11510301E-02  0.57267596E-02  0.29067217E-02
  0.24270414E-02  0.37368192E-02 -0.46553905E-02
  0.13493467E-02 -0.24895674E-02 -0.41841854E-02
 -0.26833797E-02 -0.25574742E-02  0.54745087E-02
 -0.79248358E-02  0.31402565E-02 -0.21370690E-02
  0.60765957E-02 -0.68192424E-02  0.49232732E-02
 -0.34650354E-03 -0.12395436E-01 -0.86668137E-03
 -0.30185383E-02 -0.70365479E-03 -0.56532539E-02
  0.86579891E-02 -0.81648833E-02 -0.25934943E-02
 -0.25107445E-02 -0.47816713E-02  0.12310565E-01
 -0.78192533E-02 -0.98245363E-02 -0.57106365E-03
  0.49842996E-02  0.14896915E-02  0.95796617E-02
 -0.89499664E-02 -0.18806238E-02  0.30313470E-02
  0.82827019E-02 -0.25097704E-02  0.23162806E-02
  0.19538994E-02  0.53921725E-02 -0.75186680E-02
 -0.22501989E-02 -0.13329602E-01 -0.20160174E-02
 -0.82731630E-02 -0.28332035E-02 -0.96739648E-02
  0.30763991E-03  0.69480245E-02 -0.83372958E-03
 -0.94450259E-02 -0.30349092E-02 -0.57841180E-02
  0.90287853E-02  0.37055958E-02 -0.40141932E-03
 -0.64005554E-02  0.13422732E-01  0.62163855E-02
 -0.33717592E-02 -0.58960791E-03  0.82702131E-02
  0.63571027E-02 -0.68134895E-03  0.42860493E-02
  0.25118062E-02 -0.43479251E-02 -0.18458035E-02
 -0.21513811E-02 -0.12751052E-02 -0.12386511E-02
 -0.29724253E-02  0.26571113E-02 -0.82313192E-03
 -0.11848049E-02 -0.17144378E-02 -0.23813883E-02
  0.22818439E-02 -0.36259949E-02  0.49945379E-02
 -0.27871068E-02  0.50908235E-02  0.71394482E-02
  0.74050691E-03  0.76969489E-02 -0.14817859E-01
 -0.74069548E-03  0.69289760E-02  0.17687457E-02
 -0.16984575E-02  0.12974426E-02 -0.15371405E-02
 -0.16434545E-02  0.15163166E-02 -0.42970576E-02
 -0.30393626E-02 -0.31530889E-02 -0.14281806E-02
  0.25396103E-02 -0.21547620E-02  0.45921105E-02
  0.82058497E-02 -0.62529956E-02  0.45352674E-02
 -0.38410715E-02  0.93239341E-02  0.27422406E-02
  0.35600852E-02 -0.23355387E-02  0.39372861E-02
  0.35852480E-02 -0.11350529E-02 -0.43133562E-03
 -0.58041391E-03  0.43146277E-02  0.50594179E-02
 -0.21270661E-02 -0.77904010E-02 -0.18738293E-02
  0.90904841E-02 -0.58206074E-02  0.49527619E-02
 -0.10387716E-01  0.12646184E-02 -0.13398318E-01
 -0.37369339E-02  0.40221233E-03 -0.56552712E-02
  0.44148370E-02  0.48517494E-02 -0.14994723E-02
  0.20200131E-02 -0.45490566E-02  0.15784588E-03
 -0.17565737E-02  0.19685822E-02  0.38969925E-02
 -0.80084198E-03  0.86759499E-03  0.12218999E-02
 -0.43033481E-02 -0.19326658E-02  0.48834393E-02
  0.10930348E-01  0.42526162E-02 -0.26304852E-02
  0.70975727E-02 -0.81731348E-02  0.12912678E-01
 -0.59875167E-02 -0.19859918E-02  0.64202450E-02
  0.52547598E-04  0.50536111E-02 -0.20846934E-02
  0.70585465E-02 -0.12959702E-02  0.83474031E-03
 -0.74890375E-02 -0.87677720E-02 -0.71134689E-04
 -0.11894657E-02  0.22756724E-02  0.48757428E-02
  0.14306121E-02 -0.76878264E-02 -0.38392759E-02
 -0.53247556E-02  0.11055030E-02  0.33246626E-03
  0.29679904E-02 -0.39361476E-02 -0.24724005E-02
  0.47213468E-03 -0.23208638E-02  0.55411581E-02
 -0.33773717E-02 -0.92769993E-02 -0.82339655E-02
  0.77273797E-04 -0.18992440E-02 -0.91337205E-02
  0.11879845E-01  0.11452865E-01 -0.61434110E-03
  0.38955614E-02  0.40380930E-02 -0.58360711E-03
 -0.23548980E-02  0.38097200E-02  0.17430266E-02
 -0.34762187E-02  0.22254654E-02 -0.18261482E-02
  0.11723750E-02  0.34160609E-02 -0.25281620E-02
  0.70777128E-02  0.30865759E-02 -0.43000465E-02
 -0.21386578E-03 -0.23734337E-02 -0.47491844E-02
 -0.32010144E-03  0.35753538E-02  0.60683272E-02
 -0.57456721E-03 -0.27707142E-02  0.31952267E-02
 -0.12320976E-02 -0.54415228E-03  0.48722788E-03
  0.35838883E-02 -0.20279885E-02 -0.61117185E-03
 -0.18626382E-02  0.84211859E-03 -0.13990623E-02
  0.25659631E-03 -0.49163053E-02  0.35902210E-02
  0.63366368E-03 -0.21025511E-02 -0.93145578E-03
  0.44292958E-02  0.27180371E-02 -0.19010264E-03
 -0.12814783E-02  0.20321578E-04  0.20582058E-02
  0.13824975E-02  0.89430590E-03 -0.60104671E-04
  0.10960212E-02 -0.19825203E-02  0.77747541E-02
 -0.54733698E-02  0.25861571E-02  0.51615811E-02
 -0.93295384E-03  0.17458072E-02  0.17346545E-03
 -0.11621489E-03  0.40754666E-02  0.85967201E-02
 -0.17427346E-02  0.27580310E-02  0.34671829E-02
 -0.35466304E-02 -0.47575461E-03  0.12512044E-02
 -0.45781228E-02  0.54037106E-02 -0.76740603E-02
 -0.78779240E-04 -0.44876215E-02 -0.50505988E-02
 -0.53886610E-02 -0.34201792E-03 -0.83824170E-03
  0.21504098E-02  0.30207544E-02  0.21575397E-02
  0.31438519E-02  0.15627618E-04 -0.35427502E-02
  0.37132098E-02 -0.18907824E-03 -0.12308984E-03
 -0.38608477E-02  0.11955767E-02 -0.91731142E-03
  0.12765573E-02 -0.15990974E-02 -0.23672057E-02
 -0.17225014E-02 -0.47524270E-02  0.30678889E-02
 -0.45242415E-02  0.17673165E-02  0.93828616E-03
  0.19925470E-02 -0.39354707E-02  0.14067883E-02
 -0.48731162E-02 -0.15203359E-02 -0.47546542E-02
 -0.44783172E-02  0.29245835E-02 -0.57141524E-02
  0.61550693E-03 -0.34202868E-02 -0.91084479E-04
  0.49715384E-02  0.30320945E-02 -0.29259421E-02
  0.52700308E-02  0.19404401E-02 -0.77411130E-03
  0.74518619E-03 -0.17759683E-02 -0.24776604E-02
 -0.27003430E-02  0.86107331E-03  0.30023993E-02
 -0.46622827E-02  0.81957374E-04 -0.21635595E-02
 -0.16769239E-02  0.25757757E-02 -0.26743512E-03
  0.35611760E-03 -0.27103922E-02  0.50218059E-02
 -0.37894516E-02 -0.14363890E-02  0.24155426E-02
  0.25619834E-02  0.32118117E-02 -0.64160067E-04
  0.13937217E-02  0.18325972E-02 -0.10152061E-03
  0.21160995E-02 -0.27922835E-02 -0.11874455E-03
  0.53606374E-02  0.30604637E-02  0.13813659E-02
 -0.59640080E-02  0.23774449E-02  0.14271254E-02
 -0.31470000E-02 -0.20476292E-02 -0.12579420E-02
 -0.17129583E-02  0.11865315E-02  0.19977437E-02
 -0.19018668E-02 -0.34395481E-02  0.37611658E-02
  0.11377637E-02 -0.44516623E-02  0.26570275E-02
 -0.26940027E-03  0.15816714E-03  0.13858332E-02
 -0.42245741E-03  0.18766748E-02 -0.45592850E-02
  0.15472510E-02  0.41160339E-02  0.11168268E-03
 -0.11200512E-02  0.42804680E-02  0.13582058E-02
  0.47871247E-02 -0.24654397E-02  0.77215997E-03
  0.23676862E-02 -0.10080929E-02  0.34356993E-02
  0.59875164E-03  0.12163875E-02 -0.61721641E-03
 -0.13318088E-02 -0.16858928E-02  0.19607902E-02
 -0.30713359E-02  0.27355300E-02 -0.12743764E-02
  0.93361517E-03  0.14202620E-02  0.25723989E-03
  0.12839298E-02 -0.11905872E-02  0.58951083E-03
 -0.59832556E-03 -0.14583413E-02 -0.30139955E-02
 -0.10296963E-02  0.41188638E-03  0.34878709E-02
  0.99332561E-03 -0.21415850E-03  0.37664654E-02
 -0.48694261E-04 -0.85421458E-03  0.34749731E-02
 -0.24717412E-02  0.69919859E-03 -0.58968433E-03
 -0.14118858E-02 -0.29035071E-03 -0.18559431E-02
  0.55468987E-02  0.23836206E-02  0.16433864E-03
 -0.88926867E-02 -0.30405882E-03  0.73187227E-03
 -0.42593179E-03  0.11078286E-02  0.52478109E-03
  0.15727734E-02 -0.28425394E-02  0.12801550E-02
 -0.14051431E-02  0.16964258E-02 -0.46544626E-02
  0.15944570E-02  0.18318974E-02 -0.35839328E-02
  0.32156915E-02 -0.11139755E-02  0.18004031E-02
  0.81366524E-03 -0.55334344E-02  0.18784100E-02
  0.13302921E-02  0.13868002E-02 -0.45396800E-02
  0.39799435E-02 -0.40018449E-02  0.37077878E-02
 -0.67071709E-03 -0.44957943E-02 -0.36597361E-02
 -0.20736261E-02  0.27526823E-02  0.21852743E-02
 -0.21318967E-02  0.23585109E-02  0.51387231E-03
  0.29916469E-02  0.37586320E-02 -0.38207920E-02
  0.19293962E-02  0.38112965E-02 -0.40567883E-02
  0.64706550E-02 -0.88164398E-05  0.30487780E-02
 -0.16862134E-02 -0.44365662E-02 -0.36531994E-02
  0.14348982E-02  0.69182924E-03 -0.49961942E-02
  0.13702656E-02  0.16314812E-02  0.17651321E-02
 -0.60417729E-02 -0.97765726E-03  0.19320443E-02
 -0.46319241E-03 -0.62245142E-02  0.36214711E-02
 -0.31607412E-02 -0.10812908E-02  0.24007268E-02
  0.41631704E-02 -0.43675710E-03 -0.50201396E-02
 -0.18950084E-02  0.20332646E-02  0.10314621E-02
  0.53055788E-03  0.14063733E-04  0.23494951E-02
  0.46093070E-03 -0.15355676E-02 -0.68210698E-03
 -0.53943939E-03  0.35712229E-03  0.26925201E-03
 -0.58315849E-03  0.24477667E-03  0.21422140E-02
 -0.77851798E-03  0.39206316E-02 -0.28495556E-02
 -0.13184738E-02 -0.30320386E-03 -0.17992262E-02
  0.20838736E-02 -0.26782125E-02 -0.66895158E-03
 -0.20780023E-02 -0.52354517E-02 -0.17602508E-02
 -0.39805071E-03  0.18474546E-02  0.46707836E-02
 -0.32446714E-02  0.25160405E-02 -0.14100865E-02
 -0.42525651E-02 -0.11736274E-03 -0.19676718E-02
 -0.10484457E-02 -0.47414712E-03 -0.17966423E-02
  0.77474161E-03 -0.30962233E-02  0.56512597E-02
  0.42501932E-02 -0.14049329E-03 -0.28995449E-02
 -0.38605412E-02  0.29032990E-02 -0.12366680E-02
 -0.30122746E-02  0.46158659E-03 -0.11932184E-03
  0.29822239E-02  0.12375928E-02  0.10505660E-02
 -0.59894433E-03  0.28825066E-02 -0.93640499E-03
  0.21943994E-02  0.13246364E-02 -0.10383770E-02
  0.36280943E-02 -0.57049546E-03 -0.13727557E-02
  0.38781059E-02  0.44431249E-03 -0.22511655E-02
 -0.89878217E-03 -0.58299456E-03  0.10553065E-02
 -0.39158579E-02  0.33573554E-02 -0.13399305E-02
 -0.28024032E-03 -0.18014072E-02  0.19808894E-02
  0.34180776E-02 -0.11065417E-03 -0.30517589E-02
 -0.14069214E-02 -0.24851873E-02 -0.19765829E-03
 
           1
   2.00000000000000     
  0.55792363E+00  0.16960562E-02  0.00000000E+00  0.00000000E+00
  0.53106868E-02  0.94626554E+00  0.35052155E-01
  0.50155707E+00  0.53146131E+00  0.49603951E+00
  0.52839153E+00  0.51590723E+00  0.96878101E-02
  0.46812297E-02  0.97453318E+00  0.25050217E+00
  0.23416090E+00  0.76408833E+00  0.88641000E+00
  0.99797718E+00  0.54277015E+00  0.37711403E+00
  0.20270992E-01  0.48594439E+00  0.13150226E+00
  0.27525412E+00  0.38279299E+00  0.11533219E+00
  0.68888415E+00  0.75317844E+00  0.62863418E+00
  0.74242612E+00  0.26243324E+00  0.88256879E+00
  0.74350871E+00  0.47146399E+00  0.37871196E+00
  0.26088909E+00  0.18923862E+00  0.67451126E-02
  0.76466735E+00  0.22545483E+00  0.13102204E+00
  0.25802526E+00  0.72873085E+00  0.61755900E+00
  0.27455906E+00  0.24705362E+00  0.87653621E+00
  0.25906809E+00  0.51903514E+00  0.37141537E+00
  0.16128342E+00  0.65156855E-02  0.62619044E+00
  0.16716253E-01  0.50708758E+00  0.63001431E+00
  0.51049976E+00  0.18598741E-01  0.86814689E-01
  0.96903601E+00  0.49792492E+00  0.88230408E+00
  0.50004460E+00  0.85072202E-02  0.35623867E+00
  0.26081350E+00  0.29367955E+00  0.37827983E+00
  0.67675069E+00  0.76954039E+00  0.78346103E+00
  0.74949887E+00  0.24029867E+00  0.63639289E+00
  0.24558097E+00  0.71748755E+00  0.26380292E-02
  0.26410824E+00  0.23464807E+00  0.75743772E+00
  0.77645177E+00  0.72071611E+00  0.12543716E+00
  0.78361507E+00  0.24655263E+00  0.27861893E+00
  0.50575491E+00  0.72986534E+00  0.50048610E+00
  0.50932043E+00  0.25466856E-01  0.88040468E+00
  0.19129237E-02  0.52542155E+00  0.49465062E+00
  0.53119862E+00  0.47288649E+00  0.75042619E+00
  0.28176443E-01  0.74383505E+00  0.24160259E+00
  0.49805187E+00  0.21711188E+00  0.75959542E+00
  0.30897700E-02  0.98217429E+00  0.87851809E+00
  0.49606757E+00  0.98491557E+00  0.49723935E+00
  0.46619505E+00  0.87739383E+00  0.98239532E+00
  0.26213251E+00  0.26496732E+00  0.22877827E+00
  0.97185295E+00  0.99317795E+00  0.73152623E+00
  0.51477276E+00  0.73559911E+00  0.25881237E+00
  0.82479077E+00  0.96975669E+00  0.13108234E+00
  0.52303790E+00  0.53579622E+00  0.61747852E+00
  0.48071054E+00  0.98012404E+00  0.74930060E+00
  0.98340380E+00  0.51431859E+00  0.25170894E+00
  0.50280663E+00  0.22876023E+00  0.98065976E+00
  0.80184168E+00  0.73876411E+00  0.52338103E+00
  0.23574001E+00  0.78609925E+00  0.49689099E+00
  0.78014198E+00  0.27285034E+00  0.49326010E-02
  0.97636742E+00  0.92994505E+00  0.52466162E+00
  0.48201137E+00  0.49634895E+00  0.25243931E+00
  0.42893054E-01  0.47427045E+00  0.75201112E+00
  0.51875889E+00  0.23477142E-01  0.22701960E+00
  0.24486001E+00  0.29201090E+00  0.50259041E+00
  0.74506849E+00  0.76801590E+00  0.98735391E+00
  0.72595583E+00  0.24023143E+00  0.50847021E+00
  0.36387490E-02  0.72566482E+00  0.99103379E+00
  0.20187558E-01  0.25290583E+00  0.15707133E-01
  0.49185079E+00  0.27353527E+00  0.50755527E+00
  0.46619993E+00  0.52368399E+00  0.14844173E+00
  0.99154606E+00  0.99049979E+00  0.38547668E+00
  0.27423521E+00  0.96984712E+00  0.88613376E+00
  0.97658070E+00  0.17904141E+00  0.48952985E+00
  0.14425560E-01  0.50401464E+00  0.15430551E-01
  0.52882437E+00  0.98491477E+00  0.62774176E+00
  0.54337493E+00  0.22707370E+00  0.24615991E+00
  0.21571047E-02  0.73551273E+00  0.75186127E+00
  0.25359003E+00  0.76113425E+00  0.26525447E+00
  0.71613873E+00  0.25716519E+00  0.74666679E+00
  0.76175554E+00  0.76283677E+00  0.38306421E+00
  0.98550277E+00  0.23336205E+00  0.75016266E+00
  0.31155719E-01  0.24653730E+00  0.25387071E+00
  0.27889953E+00  0.74976683E+00  0.75300493E+00
  0.26874014E+00  0.75595092E+00  0.14216663E+00
  0.77064048E+00  0.98153855E+00  0.62050432E+00
  0.75621995E+00  0.73686754E-02  0.87342657E+00
  0.23470357E+00  0.78182448E+00  0.37493418E+00
  0.48426848E+00  0.50343821E+00  0.86552353E+00
  0.73931340E+00  0.25817147E-01  0.37610700E+00
  0.79195749E+00  0.75990116E+00  0.23530799E+00
  0.29450290E+00  0.49939935E+00  0.61572158E+00
  0.74659892E+00  0.53604573E+00  0.88256291E+00
  0.25187411E+00  0.40677816E-01  0.38453897E+00
  0.75852340E+00  0.49052074E+00  0.64565813E+00
  0.23714801E+00  0.68559727E-02  0.13047071E+00
  0.25305670E+00  0.22399953E+00  0.63312753E+00
  0.73602253E+00  0.48613601E+00  0.14120478E+00
  0.22915664E+00  0.46890479E+00  0.86129847E+00
  0.51804602E+00  0.46514763E+00  0.37721404E+00
  0.27502240E+00  0.14358439E-01  0.25847523E+00
  0.76432287E+00  0.51573849E+00  0.76156028E+00
  0.24205357E+00  0.38657330E-02  0.74480829E+00
  0.73235801E+00  0.50787251E+00  0.26104076E+00
  0.24255859E+00  0.98098811E+00  0.89122747E-02
  0.73500408E+00  0.48468701E+00  0.50735753E+00
  0.26959424E+00  0.39589262E-01  0.50577369E+00
  0.78673436E+00  0.50965146E+00  0.11409521E-01
  0.72958088E+00  0.28490658E-02  0.74768428E+00
  0.22073127E+00  0.50559810E+00  0.25139042E+00
  0.28649570E+00  0.48565601E+00  0.73071809E+00
  0.76551211E+00  0.99090902E+00  0.24645955E+00
  0.25607058E+00  0.53223881E+00  0.48620596E+00
  0.76187117E+00  0.27606562E-01  0.99920965E+00
  0.73122039E+00  0.81872545E-02  0.49715967E+00
  0.26530811E+00  0.46175041E+00  0.99736672E+00
  0.97697422E+00  0.26306270E+00  0.38398321E+00
  0.50194248E+00  0.73702482E+00  0.87611876E+00
  0.51271650E+00  0.25103338E+00  0.62550018E+00
  0.13184564E-01  0.74697124E+00  0.12727164E+00
  0.18529244E-02  0.23547585E+00  0.87873429E+00
  0.49131698E+00  0.74535326E+00  0.37545989E+00
  0.74088376E-02  0.75156686E+00  0.62355171E+00
  0.52216878E+00  0.25508000E+00  0.12974328E+00
  0.15019511E+00  0.37995930E+00  0.41590333E-01
  0.65763122E+00  0.88420036E+00  0.54556639E+00
  0.66146594E+00  0.13025107E+00  0.94668458E+00
  0.15505339E+00  0.63525667E+00  0.44438135E+00
  0.37330745E+00  0.37716481E+00  0.93417850E+00
  0.83473394E+00  0.91190273E+00  0.45229049E+00
  0.85022635E+00  0.12219924E+00  0.57543162E-01
  0.34273811E+00  0.62516671E+00  0.54051177E+00
  0.85277352E+00  0.10890711E+00  0.21483108E+00
  0.36872558E+00  0.59369291E+00  0.68837073E+00
  0.85221396E+00  0.89162831E+00  0.30318782E+00
  0.37596145E+00  0.37536041E+00  0.78899570E+00
  0.11326249E+00  0.60954426E+00  0.29591074E+00
  0.62843377E+00  0.86622743E-01  0.80430024E+00
  0.13429834E+00  0.39559560E+00  0.20006892E+00
  0.64065282E+00  0.89176487E+00  0.69754960E+00
  0.87122995E+00  0.60153940E+00  0.95784177E+00
  0.37008145E+00  0.13776336E+00  0.46586544E+00
  0.84373729E+00  0.38793817E+00  0.54718763E+00
  0.32614670E+00  0.88778240E+00  0.68301213E-01
  0.16167400E+00  0.12675448E+00  0.55510960E+00
  0.67879797E+00  0.60767120E+00  0.55931721E-01
  0.16138054E+00  0.88484452E+00  0.95226973E+00
  0.63035669E+00  0.40041221E+00  0.45180955E+00