Na88 Ge16 P8 Se96                       
   1.00000000000000     
    13.9614333504000001    0.0000000000000000    0.0000000000000000
     0.0000000000000000   13.9614333504000001    0.0000000000000000
     0.0000000000000000    0.0000000000000000   27.9228667008000002
   Na   Ge   P    Se
    88    16     8    96
Direct
  0.2312395338177986  0.7508285911495197  0.2600318659230559
  0.6131402100722448  0.7128338354066909  0.4852081855101039
  0.5398922593367181  0.4140377442882464  0.3987536430984164
  0.4462542710722573  0.6970692947198127  0.2508314702672875
  0.9986043088752590  0.8960220499330029  0.7597278964126097
  0.7733473636695768  0.5553485008359962  0.4000704017368564
  0.7875900264053209  0.3941647900832586  0.8460171006303131
  0.0164409230953969  0.4791336097110366  0.2697721908022067
  0.5144080902174168  0.4757521844961360  0.8778584071663160
  0.7513490861487283  0.7040659193325947  0.8699062741634327
  0.0392116607174985  0.0032142085140316  0.2693168918103923
  0.4792568760982038  0.4251138311654608  0.0198629450545420
  0.4797520225027430  0.1958944002267657  0.0029404731994310
  0.4640764340936991  0.9132698647014722  0.4486448254310759
  0.2395302856169859  0.2328164522422831  0.7468367222419118
  0.1971766492356453  0.0433307755994978  0.3972764351491713
  0.4865667516391001  0.0420222834375994  0.5233687971502541
  0.0246110389535151  0.4952429233662387  0.8637924439249675
  0.4968808401810677  0.0016503041034109  0.1008236790576191
  0.6708560265165846  0.9494841049511470  0.8689889054752328
  0.1653608889462640  0.1857687019636134  0.2946577770836687
  0.2455751222582977  0.2395909598925956  0.9923927287395866
  0.3097750829548669  0.4049496155525594  0.1362698128377255
  0.7350251277793622  0.2374481947889450  0.5048804955079709
  0.9791161952571306  0.9447154612295359  0.8753379069513854
  0.3584575633646653  0.4320819392175488  0.6333357828688904
  0.7174526146146478  0.7656402705175317  0.1539564534556757
  0.7186958567377196  0.4192766843430997  0.6244396229850837
  0.9730738135122335  0.0217966517733891  0.4556686378947731
  0.2306052583557018  0.7288040328702419  0.7428931567619601
  0.1684055054156111  0.5721192135335125  0.6297680518880900
  0.7019335752142902  0.1997092910835780  0.6774308378718188
  0.8277231750142056  0.5857289620495063  0.0832720793289733
  0.4940883290574328  0.9604673567866608  0.9852998864559235
  0.0131712555961802  0.7335653846691246  0.9974682670908450
  0.8796195614569668  0.7519196278072485  0.3853010061831119
  0.2413448942124812  0.8292392691797082  0.1560540924093724
  0.2577675791823352  0.2129876814538343  0.4996201746211165
  0.2347928565552802  0.9967812548364737  0.8912937713426400
  0.5378161535265571  0.4409449332265355  0.2512326828907613
  0.8794182733103655  0.7172249213109666  0.2258534183627479
  0.4802636844223268  0.6866745994539609  0.7384537833102937
  0.6684950354002039  0.2172176330163841  0.8660636211525566
  0.0688647391271795  0.4783918985459747  0.3818701221169436
  0.7381750389782002  0.4117993018208825  0.1268342591767933
  0.5179404332738391  0.0724145377907502  0.3661228788624266
  0.7166423189615644  0.7617372157974827  0.5764090081162148
  0.9831417066632214  0.1985943535246402  0.9827105102024657
  0.0130082631136572  0.4255581810548461  0.6384892063465742
  0.7480366583155506  0.2008890662476171  0.0015993835625067
  0.0107979003119188  0.4792687283376226  0.7599327484575542
  0.2743108829801305  0.2644420018716916  0.1946791349863531
  0.3264399138338576  0.5066184325221778  0.3691591489640629
  0.0078924969460574  0.4574910135624891  0.9634196430663746
  0.4606494127596574  0.4277727818752547  0.7431431426588229
  0.2904146564744357  0.4981036817024625  0.8842974173635371
  0.8961357374880812  0.2274798346420160  0.2855441568939344
  0.4305404838121378  0.7470516767356098  0.6234312100252640
  0.2193950793157914  0.9710831683632750  0.6342205548120484
  0.2005940578973693  0.1750448157460957  0.6047895931543690
  0.2657535956158988  0.2291748504967057  0.8672515126245621
  0.0167934117743196  0.6826782563136686  0.5094942324153340
  0.0195744987666572  0.0027968294404623  0.1509750572432230
  0.7143485472365517  0.9582931091011853  0.6274187667374388
  0.5471720337296279  0.0231715699698492  0.2569645011631683
  0.4717721864270550  0.9566704510090546  0.7776334765173523
  0.7277238532187423  0.7176408832525373  0.3041658537421920
  0.5055429497557198  0.4360432082177204  0.5488721146552317
  0.7322134898566095  0.7489717817986812  0.9849328196713234
  0.4661398815502940  0.1822564996924421  0.7554418992400481
  0.3167750361956427  0.0415591348549297  0.1371064438225301
  0.7200087401218208  0.7512996319960756  0.7507862200326393
  0.0287104130271068  0.9552748379206405  0.0242782051944032
  0.8433429596929047  0.6171893860053931  0.6994758487372609
  0.9984847887523474  0.3648563918422271  0.4935431869702339
  0.2544310412642640  0.7706125060842588  0.3617859263779236
  0.3154347962671497  0.7610646547174399  0.0022443908337394
  0.7842174160577733  0.2083121606544794  0.3956469780490862
  0.7038943612655763  0.2230384614309580  0.2300023083599070
  0.2710088707519765  0.7415373005037705  0.5386517104357873
  0.9926279699098897  0.9680231983870607  0.5698770681008748
  0.0124435466281437  0.3997840849116012  0.1319544705086146
  0.4795528733041455  0.0113222145104996  0.6500665016157799
  0.1784390555088325  0.5744666393636647  0.1343377973970379
  0.9687907513321812  0.1535188984409475  0.7522115471816579
  0.7381610509103484  0.9855869389024684  0.1220790901656884
  0.2268188809910106  0.7614567031864268  0.8880320494283546
  0.7361311168372644  0.9465846600829055  0.3658853758072632
  0.2693261345699529  0.9822912255742945  0.2602137446301797
  0.7309631700316204  0.4616427299225802  0.7499601112571462
  0.2406378841046706  0.9881670591524063  0.7579896407728964
  0.7655195560531125  0.5016802286092937  0.2518191388540201
  0.2392910094763494  0.9971376045422947  0.0102466838073273
  0.7952854082611371  0.4862758526801394  0.5045860075835978
  0.2435813110736943  0.9639982357701097  0.5003255006163977
  0.7370766763476090  0.4939887948995869  0.9880671791693636
  0.7218244474071190  0.9730462408715617  0.7479356444223176
  0.2651556464080873  0.4937411890383110  0.2553434350746069
  0.2527254426049030  0.4608711959456477  0.7437517896128540
  0.7758647439387687  0.0014182084144831  0.2479527480886536
  0.2374563194320065  0.4767743629309044  0.5125642258096318
  0.7586209603571445  0.9723758559715925  0.9933569259588407
  0.7306707756331486  0.9622485649455904  0.5039078173599718
  0.2573094103808399  0.4862345114472883  0.0053224715603350
  0.9956478747561083  0.2363497978876296  0.3874181103231395
  0.4984433760612725  0.7452588609684326  0.8779414248549894
  0.4648681119905680  0.2223018716687197  0.6101051442462690
  0.0057000779790583  0.7579061122425278  0.1285422054518762
  0.9841703376803641  0.2325855676022953  0.8657198661294703
  0.5242465188358921  0.7348863920172107  0.3687146611731481
  0.9708696092287088  0.7279968821783407  0.6407436198673523
  0.4926410217815085  0.2651436190429510  0.1212727059388435
  0.1740368988308856  0.3782289112530112  0.0612648422042127
  0.6041937866792146  0.8874641930852957  0.5414402627360539
  0.6373054612892899  0.0498326665524281  0.9458590093351604
  0.1619745070307523  0.5767865055566231  0.4560456681340761
  0.3505163383839224  0.3808289203891645  0.9550979050474147
  0.8433121420470924  0.8442746806840917  0.4740039765082135
  0.8569231856336376  0.0668224632731048  0.0392217859273095
  0.3555118076948541  0.5615941014840129  0.5612104508889036
  0.8579544542913889  0.1090885474115181  0.1970191459537102
  0.3407127011936354  0.5737861258040826  0.7017872439783751
  0.8737936439285113  0.8963660703116741  0.2886587519995640
  0.3264834903691074  0.3671366169164013  0.8031097504110071
  0.1900866007615238  0.5953152386167330  0.3158146883567967
  0.6170526798854958  0.0873327505087983  0.7928534843785335
  0.1502155632642463  0.4090480382731778  0.2128248242877068
  0.6038539203670695  0.8982914480746390  0.7028181574328923
  0.8466498340964406  0.5893668962952435  0.9312787732637355
  0.3512462284790394  0.0703656041565207  0.4546010523385873
  0.8459753011871025  0.3694307213160258  0.5547491752362657
  0.3548130856678652  0.9042647804506576  0.0611191246703470
  0.1372452407672053  0.0737826618319888  0.5337895662788289
  0.6448018161039274  0.6029147218121579  0.0442908755181862
  0.1621434881374542  0.8766631917973253  0.9658577306200967
  0.7109158173566118  0.3852419660382385  0.4440426170891804
  0.6920992299675063  0.4047556695138850  0.3058005787402954
  0.1736911544480192  0.8876441207389412  0.8132088849747285
  0.1119024613799893  0.0695942209481691  0.7049636341191788
  0.6572702361902267  0.5841987033999659  0.2027154894988324
  0.8606900591390404  0.3751574561772990  0.7080185057426340
  0.3789013267090631  0.8939443108076888  0.2097150920984694
  0.3637582521255721  0.0997631234357670  0.3041060929615109
  0.8225455863662752  0.5713075839625877  0.8009904560972038
  0.1492256185871065  0.1071451741973865  0.0575929388688937
  0.6864723284345822  0.5770234483514772  0.5544837176830143
  0.6533655014151337  0.3721354257894606  0.9421150893611066
  0.1833023399058503  0.8501512235220079  0.4569516810401884
  0.3399280228338605  0.0826498712062932  0.9530919367287498
  0.9166938131878916  0.5609623759223404  0.4556045598767605
  0.8511912027304848  0.4112088214545909  0.0528394513110880
  0.3554768837140261  0.9393423544546732  0.5719012100742303
  0.1865612480954189  0.0776623173056687  0.2006579214193941
  0.6235839707810144  0.5596441306870352  0.7063032705222051
  0.1704601661607249  0.8935702066453176  0.3097458263299973
  0.6183235498587893  0.3611592950843029  0.7947432438798164
  0.8688888445349144  0.5979948655708740  0.2968488308213073
  0.3326414571266393  0.0957707874354902  0.7938200905284484
  0.8724565548572477  0.4180460088678926  0.2038791581985752
  0.3484950907293337  0.8702020108167188  0.7144388219324557
  0.8626757184500352  0.8636723937033802  0.9464873107952598
  0.3558643143134639  0.3797769419010677  0.4663076696379863
  0.7996168124181183  0.0771909425652004  0.5551869513551212
  0.3293193516756069  0.5868492899093376  0.0581141079296227
  0.1611780523758604  0.3728512740333216  0.5619006010443942
  0.6433489094011847  0.8905937737900079  0.0446503212247655
  0.1597872267039989  0.5978394200887688  0.9535734738606854
  0.6542991173052107  0.0425955083504163  0.4399924423710015
  0.3596774195755789  0.3773478551331596  0.2948462284126226
  0.8077811308403022  0.8822884265086748  0.8023373960675141
  0.8409553716708834  0.0600065063562969  0.6952259078694383
  0.3294533826362111  0.5919353236625995  0.2024814080598479
  0.1923957506206207  0.3806092274207939  0.6781436240796150
  0.6558761567277812  0.9005274029496605  0.2132041249198384
  0.6820428524056361  0.1102479084978276  0.3094706720095383
  0.1510195834050366  0.5553515004969058  0.7977443889872631
  0.9329829609948013  0.2092034178981703  0.4541549924038207
  0.5683292856194847  0.6661563338381215  0.9361348995803600
  0.5422422974911567  0.3427095166333677  0.6432818537630803
  0.9580194774504655  0.5976099767665624  0.1508723472116903
  0.3508440063516695  0.1567943949083053  0.6625777081914954
  0.1172468685091256  0.7955535350185676  0.0742212889142292
  0.9823546756855520  0.0896322793508827  0.3484474819587980
  0.5890514850667515  0.8015941980708036  0.8200844709650246
  0.9562556755039613  0.3265362406968162  0.8063074314011910
  0.4578018830392684  0.8568428240256237  0.3328217262665430
  0.0861177386282411  0.7995126048320278  0.6033268340013035
  0.6095541009992360  0.1851552912746400  0.0887886688898087
  0.9533352705350938  0.5892563574602112  0.6001939243309717
  0.4749851934498454  0.1953607293220200  0.1928294058208901
  0.0971355263953588  0.3053327101874806  0.9108144081913417
  0.6738218330330852  0.7724017329106395  0.4005625273936989
  0.8318698761680481  0.8118726573268746  0.6591355488294570
  0.3584883099974687  0.2212961636620707  0.0843406970275496
  0.0620663713393156  0.1072134403028631  0.8478480271582995
  0.5812489878368156  0.5916180669360452  0.3487611475043107
  0.8605174457318127  0.2358312347421219  0.9119233323540479
  0.4219924150621717  0.6983596808354382  0.4298396824568718
  0.0418486994147858  0.6807755044766214  0.7069358458145466
  0.5191513153417034  0.4323478611634097  0.1214091775467652
  0.4397445625608022  0.2616020563684859  0.5338521735406924
  0.8722949270410535  0.8196728233904558  0.0926670504258856
  0.9215493176332428  0.3612234575907258  0.3502674061388886
  0.4096446335685865  0.6425399199919207  0.8309308315621948
  0.1469502195410636  0.2649704624511400  0.3893885059823887
  0.4104487735346441  0.8558064835361260  0.9092446350548339
  0.6023995027478439  0.1279288836164142  0.6031681566199297
  0.0529540462888693  0.8283543479423515  0.1985448356337373
 
 -0.70381098E-02 -0.12871004E-01  0.60635326E-03
  0.77038729E-03  0.20472180E-02  0.62280371E-02
  0.61958772E-02 -0.27839398E-02 -0.43725692E-02
  0.11079919E-01  0.41387047E-02 -0.72956155E-02
 -0.39850050E-02  0.51866592E-02  0.29962451E-04
 -0.83248848E-02 -0.67121028E-03 -0.60166744E-02
 -0.30824011E-02  0.26632255E-02  0.18372018E-02
 -0.10613407E-01  0.10088502E-01 -0.36240525E-02
 -0.53957762E-02  0.59061750E-02 -0.14421559E-02
 -0.27138566E-02 -0.11460544E-01 -0.50252888E-02
  0.12479727E-02  0.42872317E-02  0.36286013E-02
  0.10231930E-02 -0.15422151E-03 -0.82214056E-02
 -0.11937729E-02 -0.77922249E-03  0.30031570E-02
  0.64893365E-03  0.20443019E-02  0.14155575E-02
  0.15045401E-02 -0.13856732E-02 -0.16389437E-02
  0.53981849E-02  0.52282955E-02  0.13628032E-02
  0.58735337E-02 -0.29610953E-02  0.54214477E-02
  0.38504551E-02  0.12108408E-02 -0.61739948E-02
  0.28498635E-02 -0.99833992E-02  0.43699072E-02
  0.28043267E-02  0.60735546E-02 -0.75203836E-03
  0.39670478E-02  0.83344728E-02 -0.11671967E-01
 -0.30877437E-02  0.14046566E-02  0.48943455E-03
 -0.34389470E-02  0.21611818E-02  0.25225789E-03
 -0.62753821E-02  0.32714738E-02  0.44357498E-02
  0.73991945E-02  0.77867152E-02  0.45652179E-02
 -0.19836452E-02 -0.77517274E-02  0.72956029E-02
 -0.44773272E-02  0.45998553E-02  0.36527489E-03
 -0.22049379E-03 -0.60874211E-02 -0.40551357E-04
  0.18439765E-01 -0.17641347E-02 -0.97353842E-03
  0.27801241E-02  0.93842748E-02 -0.76176267E-03
  0.18090144E-02  0.47752927E-02  0.90851916E-03
 -0.30741803E-02 -0.40276245E-02 -0.55262308E-02
 -0.58494639E-02  0.10817575E-01 -0.38591800E-02
 -0.21562022E-02 -0.84401125E-03  0.33171031E-02
 -0.54249184E-02 -0.94648493E-02 -0.66623316E-02
  0.35755639E-02 -0.61141233E-02  0.82943168E-02
  0.31248280E-02  0.12545960E-01 -0.48340342E-02
 -0.59859729E-03 -0.49249276E-02  0.90934530E-05
  0.17400669E-03  0.20196442E-03  0.11479231E-02
  0.17991834E-02  0.55064361E-02 -0.54794543E-03
  0.85045268E-03  0.24859507E-03  0.11608238E-02
 -0.63887067E-02 -0.31121493E-02  0.19824803E-02
  0.36066152E-02  0.13381042E-02  0.17177992E-02
 -0.14530896E-02  0.11499865E-02  0.78705980E-02
 -0.45023477E-02  0.41108688E-02  0.31550500E-02
  0.71125107E-04  0.32754860E-02  0.52787467E-02
 -0.56828061E-02 -0.41239273E-02 -0.75921839E-02
  0.38891538E-03 -0.44471115E-02 -0.93054295E-03
 -0.48436839E-02 -0.84073199E-03 -0.93333031E-03
  0.86831542E-02  0.67490480E-03  0.24350298E-02
 -0.19474283E-02 -0.58235682E-02  0.19922362E-02
  0.82378495E-02 -0.64759721E-02  0.11329267E-02
 -0.56477101E-02 -0.20616257E-02 -0.23703123E-02
  0.80133977E-02 -0.51883836E-02  0.44801938E-02
  0.34405088E-03  0.44038987E-02 -0.45832639E-02
  0.47671875E-02  0.79661941E-02 -0.37086375E-02
 -0.36271454E-02 -0.40049876E-02  0.35002846E-02
 -0.70887340E-02 -0.73335197E-03 -0.78216833E-02
  0.41755065E-02  0.35517740E-02 -0.52453326E-02
 -0.62768012E-03  0.32459118E-02  0.48045763E-02
 -0.68172605E-02  0.96412766E-03 -0.54601226E-02
  0.27643227E-02  0.53127459E-02 -0.76080205E-02
  0.56858609E-02  0.16326980E-02  0.28218599E-03
  0.10685670E-01  0.97505032E-03  0.37730805E-02
 -0.38569774E-02  0.31208134E-02  0.31518784E-02
  0.57724014E-02 -0.24542701E-04  0.20763817E-03
  0.51259590E-02  0.22399044E-02 -0.47034386E-03
  0.61290758E-02  0.32254725E-02  0.25636239E-02
  0.16531183E-02 -0.87577053E-02  0.75330933E-02
 -0.99943806E-02  0.59787268E-02  0.73761115E-02
  0.59982974E-02 -0.13814898E-02 -0.13441696E-02
 -0.14885668E-02  0.28194798E-02  0.29267093E-02
 -0.45179548E-02 -0.52962525E-02  0.13375677E-02
 -0.21579135E-02 -0.42440375E-03 -0.42472815E-03
  0.11980412E-02 -0.10721149E-01  0.33510285E-02
  0.36966031E-03 -0.47728514E-02  0.10010323E-01
 -0.53098680E-02  0.31684846E-02  0.81980644E-02
 -0.54644435E-03  0.47864329E-02 -0.69219099E-03
  0.10204551E-01 -0.28782885E-02 -0.27379427E-02
  0.91140554E-03 -0.62381944E-02 -0.81757394E-02
  0.15008921E-02 -0.13542563E-02  0.53912714E-02
 -0.87933965E-02  0.24179900E-02  0.11032928E-02
  0.29278700E-02 -0.71193761E-02 -0.34519582E-02
 -0.84769144E-03  0.87075061E-03 -0.11918282E-01
  0.20474275E-02 -0.34684840E-03 -0.43430603E-02
  0.10789595E-01 -0.18996601E-02  0.20091961E-02
  0.18360550E-02 -0.46371634E-02 -0.27722020E-02
  0.10045611E-02  0.12471315E-01 -0.42052959E-02
 -0.28674097E-02  0.25360110E-03 -0.26927818E-02
 -0.99652290E-03  0.38569712E-02 -0.53546210E-02
  0.60597871E-02 -0.53859494E-04  0.39164593E-02
 -0.10833765E-02 -0.43684239E-02 -0.11283921E-02
 -0.48835642E-03  0.13696335E-02 -0.49626066E-02
  0.17817385E-02  0.38427263E-02  0.31572043E-03
  0.27138932E-02  0.18136456E-02 -0.13820010E-02
 -0.56074448E-02  0.18130209E-02  0.82505070E-02
  0.39267108E-02  0.15721174E-02 -0.11554418E-02
  0.64013815E-04 -0.63388648E-02 -0.17820574E-02
 -0.41037312E-02 -0.35772067E-02 -0.45323182E-02
  0.20317708E-02  0.32542327E-02 -0.46040110E-03
  0.19879129E-02  0.12723990E-02 -0.33714565E-02
 -0.31652900E-02 -0.66527574E-03 -0.11087137E-03
 -0.55783747E-03  0.39125113E-02  0.40369489E-02
 -0.62644425E-02 -0.53281055E-02 -0.22692574E-02
 -0.41590663E-02  0.17926644E-02 -0.50913812E-02
  0.67728556E-03 -0.39061984E-02 -0.11370892E-02
 -0.15049707E-02 -0.47046086E-02 -0.15538413E-02
 -0.26302277E-02  0.16937940E-02  0.13412316E-01
 -0.70215215E-02  0.21083526E-02 -0.89261731E-02
  0.34256067E-02  0.51054117E-02  0.25561869E-02
 -0.21145423E-02 -0.31192501E-02 -0.27204382E-02
  0.26243434E-02 -0.23790994E-03 -0.30142222E-02
 -0.12131814E-02  0.23942072E-02 -0.16295353E-02
  0.31488535E-02  0.59872636E-03  0.19052459E-02
 -0.29975321E-02 -0.22614105E-03  0.16856939E-02
  0.29343124E-03 -0.35871421E-02  0.15714785E-02
 -0.17884101E-02 -0.90267774E-03 -0.46935900E-02
  0.42510371E-02  0.48968716E-02  0.16212341E-02
 -0.28128428E-02  0.32626289E-02  0.32891007E-02
  0.17569270E-02 -0.23232332E-02  0.26550070E-02
  0.13975916E-02 -0.70064158E-02 -0.89264071E-03
 -0.22066399E-02  0.12199906E-03 -0.26178417E-02
  0.21563387E-02  0.39559295E-02  0.11856367E-02
 -0.17470553E-02  0.62688155E-03 -0.13805795E-03
 -0.88300865E-02 -0.11249477E-02  0.39302495E-02
  0.18725201E-02  0.36171054E-02 -0.39393297E-02
 -0.50695052E-02 -0.16877695E-02  0.39850655E-02
 -0.23355185E-03  0.67619660E-03 -0.51843410E-02
 -0.26129995E-02  0.14792125E-02 -0.43156032E-03
  0.38554600E-02 -0.10672285E-02 -0.62409683E-03
 -0.26934003E-02 -0.51914423E-03 -0.13148789E-02
 -0.38227568E-02 -0.27284711E-02 -0.33687660E-02
  0.51479989E-02 -0.41126135E-02  0.31621743E-02
 -0.13955720E-02 -0.58674041E-02  0.27528581E-02
  0.62891920E-03  0.30720355E-02  0.49123538E-03
  0.18520680E-02 -0.42488254E-02 -0.34537276E-03
  0.32668195E-02  0.41827245E-02 -0.12080038E-02
  0.44067825E-02  0.28234082E-02 -0.76159395E-03
  0.12506526E-02 -0.64448001E-02 -0.35435817E-02
  0.36013885E-03  0.41077553E-02  0.24231385E-02
 -0.12569564E-02 -0.51051688E-03 -0.29320449E-02
 -0.54546476E-03 -0.57926316E-03  0.26767997E-04
  0.66735694E-02 -0.39381508E-03  0.45528204E-02
 -0.21133269E-02  0.17924768E-03  0.90290272E-02
 -0.19763945E-02 -0.20933209E-02  0.37460971E-03
  0.41899552E-03  0.22949660E-02  0.14652335E-02
 -0.43694836E-02  0.11182843E-02 -0.34538162E-02
  0.18038946E-02  0.36619868E-02  0.83369934E-02
 -0.17449716E-02  0.30629856E-02  0.15664541E-02
  0.47483105E-03  0.15279238E-02 -0.24073488E-02
 -0.27911250E-02 -0.34646807E-02  0.36238414E-02
  0.58230296E-02  0.47473011E-02 -0.17461916E-02
  0.28729832E-02 -0.52866230E-02  0.35945012E-02
 -0.32323710E-02 -0.44183754E-02 -0.25619812E-03
 -0.89638384E-03 -0.65494687E-02 -0.68089645E-03
  0.14367862E-02 -0.17385565E-02  0.28371941E-02
 -0.18495596E-02 -0.43749434E-02 -0.41734510E-02
  0.46604065E-03 -0.68981869E-03 -0.11829057E-02
 -0.93941792E-04 -0.92132705E-03  0.46046597E-02
  0.75063011E-03 -0.10174979E-03 -0.29033110E-02
  0.37125932E-03 -0.14778794E-02  0.44580860E-03
  0.22621410E-02  0.45864719E-02  0.13661180E-02
  0.18905658E-02 -0.29873540E-03  0.39910403E-03
 -0.11896851E-02 -0.26596925E-02 -0.76800462E-02
 -0.30605711E-02  0.43785183E-02  0.15311574E-02
  0.12145115E-02 -0.19232908E-02  0.18467467E-02
  0.13010050E-02 -0.47995757E-02  0.48406152E-02
  0.37309559E-02  0.41721575E-02  0.41492674E-02
 -0.81342700E-03  0.37951909E-02 -0.10854495E-02
  0.25761119E-02  0.11217775E-01 -0.55381301E-02
  0.31630542E-02  0.17765853E-02 -0.20396183E-02
  0.12681706E-02 -0.69069690E-03  0.18672168E-03
  0.20046669E-02 -0.49259176E-02 -0.28221126E-02
 -0.39241996E-02  0.24962640E-02 -0.11607454E-02
 -0.32424125E-03 -0.15359317E-02 -0.21894318E-02
  0.33333494E-02  0.88335439E-03 -0.37428244E-03
  0.11260190E-02 -0.21573928E-02  0.74931573E-02
 -0.57568214E-02 -0.22557263E-02 -0.79404922E-02
  0.42398507E-02  0.33740942E-02  0.48922399E-03
  0.29969172E-02  0.29193334E-02  0.28493111E-02
 -0.11702012E-02  0.34418176E-02  0.71665081E-03
 -0.40713759E-03  0.48066527E-02 -0.23249821E-02
 -0.26241252E-02 -0.49879062E-02  0.60830405E-02
 -0.13690973E-02  0.53974097E-03 -0.52978065E-02
 -0.68676162E-03 -0.14876314E-02 -0.15541363E-02
 -0.72778770E-03 -0.13852803E-02 -0.28811564E-02
 -0.85865263E-03 -0.16463238E-02  0.51078190E-02
 -0.70484003E-03 -0.14398098E-02 -0.24787343E-02
  0.23041983E-02  0.29906633E-02  0.12750851E-02
  0.13333900E-02 -0.11520667E-02 -0.91648857E-03
  0.46753984E-03  0.25763760E-02  0.10569321E-02
  0.10613795E-02  0.23822405E-03  0.16602433E-02
 -0.29096099E-02 -0.48688262E-02  0.59411468E-02
  0.63941912E-02  0.29346517E-02 -0.83709171E-02
  0.12347409E-02 -0.32586905E-02  0.16193211E-03
 -0.82831755E-02  0.42707083E-05  0.51052528E-02
  0.49425353E-02  0.13741110E-02 -0.95620314E-03
 -0.26965298E-03  0.31842470E-02 -0.76100816E-03
  0.16650953E-02  0.32767873E-02 -0.66777020E-02
  0.91089578E-03 -0.31412255E-02  0.79687821E-02
  0.14395673E-02 -0.23825102E-02  0.31217904E-02
  0.99745140E-03  0.51800317E-03  0.37606729E-02
 -0.83044468E-02 -0.27228691E-02  0.55443780E-03
 -0.56062119E-02 -0.28091096E-02 -0.19193418E-02
  0.91040854E-03 -0.36103668E-02  0.11601427E-02
  0.26513700E-02  0.30008846E-02 -0.36185505E-02
 -0.41735387E-02 -0.47465853E-03 -0.17454639E-02
 -0.32296193E-02  0.15727242E-02 -0.24959892E-02
 
           1
   2.00000000000000     
  0.49743566E+00  0.50650305E-03  0.00000000E+00  0.00000000E+00
  0.23023131E+00  0.74898480E+00  0.26007530E+00
  0.61325057E+00  0.71312710E+00  0.48565427E+00
  0.54077983E+00  0.41363894E+00  0.39844045E+00
  0.44784149E+00  0.69766217E+00  0.25030892E+00
  0.99803345E+00  0.89676505E+00  0.75973004E+00
  0.77215481E+00  0.55525235E+00  0.39963945E+00
  0.78714847E+00  0.39454630E+00  0.84614869E+00
  0.14920534E-01  0.48057881E+00  0.26951261E+00
  0.51363514E+00  0.47659825E+00  0.87775511E+00
  0.75096032E+00  0.70242418E+00  0.86954633E+00
  0.39390435E-01  0.38283620E-02  0.26957679E+00
  0.47940345E+00  0.42509174E+00  0.19274080E-01
  0.47958101E+00  0.19578278E+00  0.31555770E-02
  0.46416939E+00  0.91356271E+00  0.44874622E+00
  0.23974581E+00  0.23261795E+00  0.74671933E+00
  0.19794995E+00  0.44079738E-01  0.39737405E+00
  0.48740815E+00  0.41598101E-01  0.52375711E+00
  0.25162623E-01  0.49541638E+00  0.86335023E+00
  0.49728909E+00  0.22016452E-03  0.10113668E+00
  0.67125775E+00  0.95035415E+00  0.86893504E+00
  0.16592918E+00  0.18696263E+00  0.29382176E+00
  0.24513280E+00  0.23979218E+00  0.99242778E+00
  0.30928245E+00  0.40525921E+00  0.13628788E+00
  0.73412617E+00  0.23791684E+00  0.50519821E+00
  0.98017614E+00  0.94583092E+00  0.87566489E+00
  0.35817340E+00  0.43097149E+00  0.63385834E+00
  0.71681123E+00  0.76629921E+00  0.15398262E+00
  0.71866427E+00  0.41840465E+00  0.62443672E+00
  0.97571534E+00  0.21543936E-01  0.45559891E+00
  0.23100352E+00  0.73014835E+00  0.74283859E+00
  0.16866465E+00  0.57280328E+00  0.62983313E+00
  0.70149319E+00  0.19913233E+00  0.67703502E+00
  0.82688523E+00  0.58727860E+00  0.82995662E-01
  0.49377945E+00  0.96034645E+00  0.98553748E+00
  0.12394126E-01  0.73220953E+00  0.99699107E+00
  0.88013177E+00  0.75104377E+00  0.38589509E+00
  0.24179253E+00  0.83103650E+00  0.15570785E+00
  0.25768183E+00  0.21228218E+00  0.49962083E+00
  0.23481778E+00  0.99681019E+00  0.89137599E+00
  0.53807389E+00  0.44173374E+00  0.25119344E+00
  0.87954010E+00  0.71726053E+00  0.22593656E+00
  0.47934849E+00  0.68622878E+00  0.73859578E+00
  0.66901169E+00  0.21740932E+00  0.86618666E+00
  0.68656581E-01  0.47855664E+00  0.38243386E+00
  0.73753007E+00  0.41238819E+00  0.12706024E+00
  0.51795062E+00  0.72883757E-01  0.36650097E+00
  0.71582825E+00  0.76114646E+00  0.57586521E+00
  0.98319742E+00  0.19795730E+00  0.98264386E+00
  0.12314397E-01  0.42543774E+00  0.63842236E+00
  0.74928054E+00  0.20098575E+00  0.17737947E-02
  0.10518928E-01  0.47843449E+00  0.76007544E+00
  0.27549097E+00  0.26351431E+00  0.19476028E+00
  0.32563087E+00  0.50632310E+00  0.36898937E+00
  0.90404303E-02  0.45674777E+00  0.96374054E+00
  0.46069870E+00  0.42840365E+00  0.74281486E+00
  0.29109756E+00  0.49924485E+00  0.88403178E+00
  0.89561614E+00  0.22690611E+00  0.28579487E+00
  0.42952501E+00  0.74694662E+00  0.62287098E+00
  0.21999323E+00  0.97159197E+00  0.63384485E+00
  0.20050414E+00  0.17550980E+00  0.60513373E+00
  0.26477701E+00  0.22931296E+00  0.86686043E+00
  0.17189406E-01  0.68343932E+00  0.50894930E+00
  0.20389008E-01  0.30307163E-02  0.15099527E+00
  0.71587929E+00  0.95843279E+00  0.62768902E+00
  0.54661951E+00  0.23618632E-01  0.25719026E+00
  0.47259909E+00  0.95666694E+00  0.77764835E+00
  0.72845816E+00  0.71796175E+00  0.30413216E+00
  0.50642095E+00  0.43650526E+00  0.54905574E+00
  0.73245030E+00  0.74771723E+00  0.98547238E+00
  0.46470817E+00  0.18311296E+00  0.75597022E+00
  0.31763430E+00  0.41361234E-01  0.13701017E+00
  0.71979550E+00  0.75170353E+00  0.75099585E+00
  0.28063208E-01  0.95451614E+00  0.24374010E-01
  0.84303383E+00  0.61712859E+00  0.69944543E+00
  0.99865641E+00  0.36332057E+00  0.49378321E+00
  0.25448400E+00  0.76992879E+00  0.36250292E+00
  0.31467415E+00  0.76151855E+00  0.28315844E-02
  0.78413914E+00  0.20899783E+00  0.39559740E+00
  0.70535618E+00  0.22262614E+00  0.22980620E+00
  0.27113943E+00  0.74064367E+00  0.53806612E+00
  0.99284298E+00  0.96782920E+00  0.57026322E+00
  0.11183877E-01  0.40013047E+00  0.13203349E+00
  0.47997230E+00  0.10302351E-01  0.64981925E+00
  0.17831762E+00  0.57459138E+00  0.13348414E+00
  0.96908405E+00  0.15346921E+00  0.75190047E+00
  0.73970668E+00  0.98531481E+00  0.12222300E+00
  0.22708190E+00  0.76079242E+00  0.88783349E+00
  0.73627502E+00  0.94837120E+00  0.36558417E+00
  0.26891537E+00  0.98232755E+00  0.26002087E+00
  0.73082042E+00  0.46219525E+00  0.74957658E+00
  0.24150596E+00  0.98815934E+00  0.75827016E+00
  0.76536436E+00  0.50105444E+00  0.25173832E+00
  0.23922105E+00  0.99733381E+00  0.98912327E-02
  0.79554065E+00  0.48682633E+00  0.50460862E+00
  0.24397008E+00  0.96425804E+00  0.50022651E+00
  0.73627340E+00  0.49424851E+00  0.98865813E+00
  0.72238696E+00  0.97327145E+00  0.74785288E+00
  0.26516482E+00  0.49283314E+00  0.25521579E+00
  0.25213758E+00  0.46035875E+00  0.74342716E+00
  0.77615580E+00  0.18843830E-02  0.24791977E+00
  0.23774109E+00  0.47695664E+00  0.51232274E+00
  0.75816753E+00  0.97228055E+00  0.99334898E+00
  0.73059086E+00  0.96280904E+00  0.50419697E+00
  0.25641202E+00  0.48547125E+00  0.51599340E-02
  0.99505208E+00  0.23660660E+00  0.38705344E+00
  0.49854040E+00  0.74469929E+00  0.87785998E+00
  0.46465252E+00  0.22162793E+00  0.60999385E+00
  0.53232932E-02  0.75814875E+00  0.12950287E+00
  0.98316449E+00  0.23288759E+00  0.86508052E+00
  0.52473724E+00  0.73561775E+00  0.36889775E+00
  0.97056670E+00  0.72755004E+00  0.64054877E+00
  0.49301696E+00  0.26510954E+00  0.12105681E+00
  0.17386311E+00  0.37857189E+00  0.61148125E-01
  0.60464487E+00  0.88754996E+00  0.54157673E+00
  0.63687606E+00  0.49800271E-01  0.94597975E+00
  0.16201654E+00  0.57627264E+00  0.45615823E+00
  0.35026015E+00  0.38069961E+00  0.95476172E+00
  0.84392111E+00  0.84497617E+00  0.47412010E+00
  0.85652024E+00  0.67289841E-01  0.39457371E-01
  0.35576349E+00  0.56126129E+00  0.56140062E+00
  0.85815466E+00  0.10808487E+00  0.19695521E+00
  0.34039660E+00  0.57380360E+00  0.70159974E+00
  0.87410254E+00  0.89693276E+00  0.28874367E+00
  0.32623322E+00  0.36722642E+00  0.80309986E+00
  0.18882168E+00  0.59515409E+00  0.31609620E+00
  0.61732092E+00  0.87850907E-01  0.79257133E+00
  0.14948935E+00  0.40880626E+00  0.21311026E+00
  0.60382046E+00  0.89838831E+00  0.70244682E+00
  0.84627552E+00  0.58957880E+00  0.93124786E+00
  0.35179853E+00  0.70212722E-01  0.45455635E+00
  0.84558947E+00  0.36935635E+00  0.55465500E+00
  0.35426547E+00  0.90387392E+00  0.60877834E-01
  0.13798270E+00  0.73193523E-01  0.53401606E+00
  0.64460190E+00  0.60207421E+00  0.44488051E-01
  0.16223358E+00  0.87710327E+00  0.96589292E+00
  0.71118113E+00  0.38463331E+00  0.44401788E+00