Na88 Sn16 P8 Se96                       
   1.00000000000000     
    14.0793397336999995    0.0000000000000000    0.0000000000000000
     0.0000000000000000   14.0793397336999995    0.0000000000000000
     0.0000000000000000    0.0000000000000000   28.1586794673000007
   Na   Sn   P    Se
    88    16     8    96
Direct
  0.2074993819655721  0.0056639414642370  0.1166937781331919
  0.5350019369679189  0.4859050170916295  0.7501285630390941
  0.6220911496215159  0.5420464645068026  0.8887936643315699
  0.0262549904718151  0.0312537769952803  0.4886581379773274
  0.4581694818790084  0.9781994314092413  0.9106883986111554
  0.9758823890397745  0.5020752726104092  0.3553673548120760
  0.7246927459442972  0.7835564916958458  0.1351767021063407
  0.2293217994932138  0.3309364644109426  0.1162625677342893
  0.7457512658628294  0.7101206837249441  0.6165145881792694
  0.6633998155704679  0.9528394323541536  0.8673527888877008
  0.7477502122137797  0.7376048815262343  0.3645542201792168
  0.2016632669984268  0.2396477082589588  0.0025054985031414
  0.7202106515169757  0.2526159332505170  0.1039543249099557
  0.2945952756424235  0.7054291058868920  0.6417754880709100
  0.1943952086213109  0.0308698818126406  0.8765139805497415
  0.4815298955571024  0.5047327010312522  0.3398304671316131
  0.0209845955426247  0.0130438123547396  0.6148040634813471
  0.0564655618763545  0.4665693945423837  0.7663965157279595
  0.4633916145835434  0.0176350339544398  0.1258458240158747
  0.9423081849033002  0.4916201399219823  0.8768246190487851
  0.4923964747009469  0.0228118670734325  0.3767684129458527
  0.2703270953649012  0.2749354286210537  0.3695489786345120
  0.7873840254236373  0.7241633991425775  0.8725967859371426
  0.5086005928251601  0.5258435295954604  0.4806202231122476
  0.2107746998825569  0.5216114437253051  0.3750120597465106
  0.2943501930146820  0.1850340767367610  0.6172719013996781
  0.7036631701545500  0.7535798661859364  0.2497063230117226
  0.6827926582776186  0.2418224977354506  0.3813412032797439
  0.5063443735612375  0.0163074921036290  0.5020985737808468
  0.4587347639088677  0.2940170378057648  0.9992472421992071
  0.0423634810826630  0.7542288949590527  0.5017020890745035
  0.5132169704238578  0.9509039319079035  0.7585400155133100
  0.7380689363108406  0.5253375257481250  0.1328705724367257
  0.7898204901231493  0.4923698803702941  0.6356121309469698
  0.1796852790611548  0.7598126499692848  0.0161778838285556
  0.5712555979610801  0.2312916949687978  0.5018234226006867
  0.4881886272673107  0.7752877800858716  0.0056183904680709
  0.2336215636123540  0.2738831326387792  0.2339911827163595
  0.3884845761871544  0.6826901982958038  0.7581250782525438
  0.0170903258750970  0.7837309995677251  0.2494223648611839
  0.0075243246618567  0.9875144107895741  0.2242694008687425
  0.7627213500280769  0.2472115173089007  0.7430661013815061
  0.5302389938478852  0.2389596621260226  0.7673445034126322
  0.9818830058191752  0.5246841438005233  0.2243695694450091
  0.9784337792243247  0.3150822262597318  0.0144290249581293
  0.7766460684371014  0.7196990787164960  0.4790073499558259
  0.2610151466474046  0.7625777830622368  0.4900253117164707
  0.7589110899987165  0.2565445313762856  0.9881481123828393
  0.0018203239241904  0.9809195359118922  0.7444850294178201
  0.5151824678865211  0.3881240046476335  0.2381228693510208
  0.0251956099876156  0.7458457390700788  0.7520015791224141
  0.4806533827852605  0.0403657245631707  0.2218999724595902
  0.2952972950788324  0.2708828203685789  0.4982785686071663
  0.7243763335331664  0.7629973154754838  0.0171946468812236
  0.7944795634344660  0.2535527411771497  0.6111309858218908
  0.2489805920744366  0.7644142010657271  0.1288531117194054
  0.9661063559518582  0.9421211188963630  0.0076315946207981
  0.5322174279927968  0.7519680336033557  0.4923239498863667
  0.4890786948793289  0.5302690731485693  0.9989752650136990
  0.0055193272411066  0.2714341739375402  0.4979678510660219
  0.4982979726826924  0.0665022409922539  0.0199139340309733
  0.0744472289777546  0.4888786525459806  0.6307898986154846
  0.9675548705134419  0.5466358355071003  0.0270190817789633
  0.5144872097366781  0.9433604588886707  0.6162666531788581
  0.9885616676047047  0.2454451151073790  0.2488372667433635
  0.7892851700318310  0.7628076643588293  0.7510741796417914
  0.2819998992503369  0.0395167541107800  0.3582160494776727
  0.0206141798478269  0.2317847970181625  0.7332398433624026
  0.4670526368865890  0.7244810905587411  0.2536143818182406
  0.2752814865455120  0.2137597035848637  0.7523586598168835
  0.7150901020166472  0.2454847792122133  0.2661908332394557
  0.2642989176114576  0.7523634626419174  0.9029231627477698
  0.1985779794464086  0.5527173960069321  0.1285756969802717
  0.7664090400948786  0.9531271688384365  0.6188335473166102
  0.9621675517015584  0.0152257860643948  0.9008859442436472
  0.7453293473696558  0.4938895365298632  0.3729051522816491
  0.2758072407145437  0.5032475900134451  0.8569177326067217
  0.7273500780615353  0.9741254087248805  0.3703990334574726
  0.7375305082137744  0.0048600238765995  0.1218808929109703
  0.2909665602899303  0.4306617043951750  0.6083694505223519
  0.7400605800636840  0.2048319985994709  0.8684414731693335
  0.0264726876337342  0.0047167316977347  0.3513213185651251
  0.5364457437834216  0.5076760181748197  0.6006147222416679
  0.2668350204910137  0.7574899050898471  0.2862699249937951
  0.2679356215618718  0.9701498873530120  0.6272686276718318
  0.4691304741061621  0.5518065232415018  0.1222054195805246
  0.2709609983634422  0.2252073489679372  0.8812893220267605
  0.0138203195206343  0.5394822642045780  0.4960026072349308
  0.2407954761436144  0.0329374018101430  0.2384919380377968
  0.8019495460164084  0.5041953460731001  0.7618725877381566
  0.2582740459664408  0.9576893766945191  0.7610638782026965
  0.7306219355415202  0.4985586235713358  0.2475621509819026
  0.2206210844043736  0.9953110024149576  0.9893749910318512
  0.7898358046145578  0.4523812306376233  0.4932142294786962
  0.2743925440462435  0.0037439304307101  0.4995948599274742
  0.7189461180626661  0.4733712335143297  0.9905353121902254
  0.7624879000430179  0.9881172827817262  0.7407305667329829
  0.2314004433978447  0.5222303545628266  0.2449265979781738
  0.2897651361819674  0.4535298816019456  0.7307202717561205
  0.7495375168146107  0.9966133714773562  0.2343903612378101
  0.2586350638275571  0.5193524133454288  0.4903107303104404
  0.7091897966190231  0.0014341672209888  0.9959062962037565
  0.7785082938718548  0.9957061748561717  0.4965961181988181
  0.2248370681228593  0.5089188560867023  0.9961421759846660
  0.0010508670521692  0.2543686074044791  0.3614977793702416
  0.4930363154143055  0.7266342866659691  0.8689024108725060
  0.5409705457097733  0.1969337604063405  0.6264977703161470
  0.9677270227227398  0.7673487446057580  0.1280867005651379
  0.0021887367446570  0.2537872309322377  0.8774786608615736
  0.4847312198090081  0.7494226467219125  0.3762278046779612
  0.0259281363904760  0.7356578978576405  0.6187188095841744
  0.4686774533582668  0.2926355705975222  0.1271493610587781
  0.1094901585934447  0.4292998225956421  0.0536730944114953
  0.6681164591074104  0.8570668718525766  0.5386432196084697
  0.5971842360581491  0.0883911114463779  0.9398393604067875
  0.1603741754929382  0.6364679073085965  0.4461468731143329
  0.3107198454020004  0.3826614306936683  0.9509706411254085
  0.8885745536493544  0.8984368988099499  0.4390163285402784
  0.8003253919401759  0.1168149508842198  0.0393557181699749
  0.3912871440625062  0.6013849080720132  0.5476213783881850
  0.8587449980290925  0.1039943655484030  0.1895008636343247
  0.4147815296382973  0.5241143892065754  0.6821583020300520
  0.8634219697283871  0.8912805030067389  0.2839194305229146
  0.3773263029561824  0.3770137098680078  0.8071808637187962
  0.1044757457275924  0.6094691693290603  0.2985008406385992
  0.6416930622976501  0.0904401881964199  0.7970915978605934
  0.1294468392760975  0.4029916076045917  0.1937561403580928
  0.6659234347198368  0.8696782148068496  0.6932788440251203
  0.7813915323356382  0.6025776543459327  0.9450457471841783
  0.3735216243153113  0.1232194304125540  0.4411441691807215
  0.9034934894184437  0.3992690796972948  0.5614766883592278
  0.3307571119275342  0.9121613814875630  0.0539554595570770
  0.1718077811633469  0.1342940765034108  0.5388118114605471
  0.6338177654232414  0.6103184784999878  0.0499002339191930
  0.1153455451170941  0.8934692927306533  0.9337277885215329
  0.6531820854503240  0.3790474098667436  0.4502179940647903
  0.6290201015428172  0.4048443553651653  0.3094836675172457
  0.1159490349228465  0.8958719198818403  0.8045657253544491
  0.1913207695084494  0.0713534420896301  0.6995122847348466
  0.6223725961529054  0.6143910649844602  0.1993107549458810
  0.9065671593257957  0.4185131075074047  0.7023506573675806
  0.3267081914503828  0.9220829959307768  0.1924059839582011
  0.3735914727762096  0.1541363063270008  0.2782849203332894
  0.9120137288314245  0.6125188473883196  0.8067089196424292
  0.0935140698324373  0.0873693226014627  0.0365760485051501
  0.6796899244668582  0.5763944931592774  0.5306541594665620
  0.6201269159150049  0.3685255790735347  0.9413052809082078
  0.1664238985453766  0.9186708297253730  0.4470297980966698
  0.3398704214902062  0.1123103779681737  0.9548554975449555
  0.8653376933642694  0.5847270980977721  0.4344856540013273
  0.8211345663515979  0.4080071912013041  0.0565589472427254
  0.3581760931495195  0.8929031979658117  0.5543243891185059
  0.1290555158157760  0.1402499553365270  0.1871268526218407
  0.6823794706823484  0.5843318757901597  0.7030342790584111
  0.1402841010048330  0.9100712087523442  0.2904121323037930
  0.7046314157113337  0.3908781125711736  0.8032315284646517
  0.8380001816555986  0.5906520058701347  0.3038834303937306
  0.3402741918970521  0.0774739717632136  0.8221674863787847
  0.8220320177753676  0.3764757954841831  0.2085884262685104
  0.3479104028471186  0.8406189725927108  0.7084249665554433
  0.8146420840360037  0.8980938424239620  0.9439521511796810
  0.3569117321631402  0.4014909674716897  0.4428311937418430
  0.8860881316850113  0.0792372363214426  0.5595859231979122
  0.3203587746052236  0.6122594712539996  0.0525922847929033
  0.1452247315787157  0.4291723232574161  0.5449425176196163
  0.6153278807066399  0.9092498129954839  0.0546780467639539
  0.1378159262416763  0.6169035097957809  0.9390959702569971
  0.6628083144829870  0.0688391298876903  0.4411344190902501
  0.3317009262906365  0.4084269836578197  0.2911839914439192
  0.8638771454741090  0.9123956364975380  0.8033233118898843
  0.8647810323887365  0.0981525424404341  0.6988303708665072
  0.3184496336966293  0.6467586019380422  0.2027356218472007
  0.1928935053604209  0.3574784359924493  0.6816997029284355
  0.5990585141533789  0.9137016638037714  0.1980394900871429
  0.6451580383042447  0.0774511318585534  0.2926893360443938
  0.1887187932525129  0.5696478374610254  0.7745834028845486
  0.1207309270663534  0.1736782632750051  0.3273081449289740
  0.6083050537591512  0.6714914996718380  0.8165266007158977
  0.6426448535819892  0.2997967537350811  0.6663190148172538
  0.0921372550984884  0.8377164903617498  0.1631098675930956
  0.4611298595902091  0.1076854145298240  0.6826138890716597
  0.8832578271956776  0.6642528526751075  0.1755702036083040
  0.8882803199338686  0.3163485563652773  0.3168244137604921
  0.4034161620696672  0.8597843229398492  0.8401469711005853
  0.0591685564348850  0.1711341914966601  0.9379942194426268
  0.5732600440255933  0.6331019345718359  0.4061749397125048
  0.1244487830206101  0.8338672556561915  0.5761519136750280
  0.5651070779688471  0.3747755053039870  0.0845481037742253
  0.9323230252946397  0.6450979747828746  0.5756215042490345
  0.3584915387118285  0.1886743869038060  0.0950292201522270
  0.8861668925396955  0.3342793031837312  0.9190278789066637
  0.4019209694239097  0.8445463950104092  0.4249048739641991
  0.9256469603624579  0.8260605641940334  0.6578088471074494
  0.3761935042474236  0.4067597595235400  0.1633524429123079
  0.9393219424803295  0.1563047572421134  0.8256477605590079
  0.3758819687549054  0.6614128867284437  0.3402809582983773
  0.1075136844874250  0.3422509210209262  0.8304450765322076
  0.5853917678182711  0.8294699035259092  0.3223490861752017
  0.1211985693174012  0.6566388438519987  0.6805148944497589
  0.5716842541821855  0.1966297467749374  0.1703070467509598
  0.4535652138855865  0.2861926754237298  0.5782061303119096
  0.8781947248510874  0.8652500870605009  0.0898075903625175
  0.8987388046792282  0.1506338834275750  0.4011555845602751
  0.4275859017278582  0.6010126170436055  0.8972767460262567
  0.0683247907850087  0.3614174391507808  0.4084660626104690
  0.5698270500867564  0.8160875988043376  0.9216520415052087
  0.6148633318713269  0.1029476671742430  0.5790591900991152
  0.0534404220600565  0.6795652404676784  0.0804424663497316
 
 -0.12164659E-02 -0.54970541E-02  0.26912362E-02
  0.71453586E-02  0.36786396E-02  0.19618716E-02
  0.17623282E-02 -0.15315245E-02  0.31104874E-02
 -0.69390741E-02 -0.57294360E-02 -0.56063529E-03
  0.64008260E-02  0.52541825E-02 -0.13941826E-02
 -0.31056131E-02  0.35601462E-02 -0.18876743E-02
  0.32778282E-02 -0.32640762E-02 -0.53656092E-02
 -0.77902167E-02  0.10306368E-01  0.17277769E-02
  0.38603003E-02 -0.10019181E-03  0.95400963E-02
  0.47197690E-02  0.25306355E-02 -0.39966708E-02
 -0.16476651E-02 -0.32264144E-04  0.72831961E-02
  0.26448965E-02  0.43483159E-02  0.52575149E-03
 -0.50020059E-02  0.31878286E-03  0.27188774E-02
  0.36900908E-02  0.11937669E-02 -0.18638386E-03
  0.49069620E-02 -0.39122959E-02  0.55940679E-02
  0.13174332E-01 -0.25780645E-02  0.15113207E-02
  0.19828979E-02  0.15243805E-02 -0.40062986E-03
 -0.18876584E-02  0.11348871E-01  0.80661107E-03
 -0.44714644E-02  0.13621472E-01  0.98102790E-02
 -0.12288521E-02  0.22781655E-03 -0.50639685E-03
 -0.44621936E-03  0.56973418E-02 -0.79526957E-03
  0.53725095E-03  0.76985712E-02  0.79140167E-03
 -0.25892888E-02 -0.52953554E-02 -0.29588649E-02
 -0.31999385E-02  0.73184197E-02  0.30865863E-02
 -0.72006984E-03  0.12303893E-02  0.48786527E-02
 -0.58454360E-02  0.31582710E-02 -0.60299309E-02
  0.76957089E-02 -0.54967594E-02  0.53444657E-02
  0.98189194E-02  0.59806978E-02 -0.12163120E-01
  0.19531940E-02 -0.35571214E-02 -0.69087822E-02
  0.33881861E-02  0.45442502E-02  0.31528269E-02
 -0.29239565E-02  0.34796666E-02  0.49109232E-02
 -0.11496658E-01 -0.21358096E-02 -0.44695959E-03
 -0.70399250E-03 -0.20218470E-02  0.40312928E-02
  0.11175152E-01  0.75936440E-02 -0.36945808E-03
  0.19340239E-02  0.48969007E-02  0.18128343E-02
  0.61412304E-02 -0.45053539E-02 -0.56105438E-02
  0.37211361E-02  0.83743292E-03  0.56146298E-02
 -0.56314530E-02  0.92804341E-02  0.11430482E-02
  0.17910914E-03  0.20123023E-03 -0.29705658E-02
  0.24276695E-02 -0.17434788E-02 -0.32686459E-02
  0.79428769E-03 -0.13808776E-01 -0.16038069E-01
  0.77924908E-02 -0.70647726E-02  0.64715308E-02
 -0.56016856E-03  0.41312144E-02  0.86224964E-02
  0.33076145E-02  0.11753413E-03 -0.17758408E-02
  0.40170394E-02  0.49525719E-02 -0.60510538E-03
 -0.16818883E-02  0.75662821E-02  0.17845905E-02
  0.23375966E-02  0.93947025E-03 -0.36230666E-02
  0.56740061E-02 -0.50587587E-02  0.21161437E-04
 -0.64446241E-03 -0.94660099E-02 -0.23677307E-03
  0.45994323E-02  0.32637127E-04 -0.49472392E-02
  0.34909599E-02  0.35017519E-02 -0.36322415E-03
  0.50722834E-02 -0.27931790E-02 -0.80322700E-03
  0.11170117E-01  0.60909769E-02 -0.19953658E-02
 -0.56520943E-02 -0.53201586E-02  0.68898668E-02
  0.10816643E-01  0.38397575E-02  0.87067510E-02
 -0.29750298E-02 -0.38143415E-03  0.11668643E-01
  0.39424073E-02 -0.15623985E-02  0.54788097E-02
  0.47288475E-03  0.85622898E-03  0.12912956E-02
 -0.14113765E-02  0.65689966E-02  0.35342388E-02
 -0.24673836E-02 -0.38884389E-02  0.35960841E-02
 -0.31047969E-02 -0.41705848E-02  0.67880330E-02
  0.45225312E-02 -0.35199140E-02 -0.21471063E-02
  0.42512153E-02 -0.27544109E-02  0.42782076E-02
 -0.31934034E-03 -0.54930483E-02 -0.20809079E-02
  0.38307297E-02 -0.78122220E-02  0.13134776E-01
 -0.83017103E-02 -0.18559109E-03  0.12582158E-02
  0.66547083E-03  0.30575319E-02 -0.82544625E-03
 -0.36728483E-02  0.57442910E-02  0.11120330E-01
  0.20929517E-02  0.73599216E-02  0.44331388E-02
 -0.11816562E-03  0.23615766E-02  0.79324989E-02
 -0.27988170E-03 -0.23912806E-02  0.32314628E-02
  0.95192949E-02  0.30210795E-02 -0.68518353E-02
  0.61462525E-02  0.17183054E-02 -0.46899212E-02
  0.36342762E-03 -0.28222333E-02  0.15602792E-02
 -0.35832198E-02 -0.15450961E-02 -0.36257564E-02
  0.10256284E-01 -0.15174490E-02  0.16685459E-02
  0.43215012E-02 -0.13099552E-02  0.20258459E-03
  0.58056259E-02  0.72532436E-02  0.55218913E-02
  0.19350945E-02  0.29297116E-02 -0.65434487E-03
 -0.29115891E-02  0.19621681E-02 -0.10513469E-01
  0.34909196E-03  0.58881347E-02  0.11379394E-02
 -0.75890230E-02  0.20404533E-02  0.45985564E-02
  0.46851560E-02 -0.28244114E-02  0.44288628E-03
 -0.35856013E-02  0.34766989E-02 -0.16768139E-02
  0.39377912E-02 -0.29312399E-02  0.58398660E-02
  0.75048525E-02 -0.40239375E-02 -0.71821591E-02
 -0.44192257E-02  0.44673543E-02 -0.81219364E-02
 -0.63619209E-02 -0.65081320E-02 -0.85794665E-03
 -0.64760939E-03  0.40490351E-02  0.30180017E-02
 -0.60257842E-04 -0.21889060E-02 -0.84360798E-04
 -0.20485160E-02 -0.14737213E-03  0.88129134E-03
  0.21931941E-02  0.45940649E-02  0.56745877E-03
  0.25771071E-02  0.15947705E-02 -0.37568972E-02
  0.85601473E-03 -0.19410907E-02  0.10042897E-02
 -0.39972884E-02  0.11289816E-02 -0.29641151E-03
 -0.40237506E-02 -0.34179563E-02 -0.12824555E-02
  0.10725641E-02 -0.26265540E-02 -0.47477983E-02
 -0.15228233E-02  0.16364452E-03 -0.14236818E-02
  0.36336606E-02 -0.89290398E-03 -0.11890020E-02
 -0.11164710E-02  0.27550313E-02 -0.25674572E-02
  0.69904260E-03  0.31664563E-03 -0.20311269E-03
 -0.19297035E-02  0.11804401E-02  0.16291221E-04
  0.38639071E-02  0.97806800E-03  0.18179111E-02
 -0.43032781E-02  0.18072182E-02 -0.37962376E-02
 -0.68607015E-02 -0.36928752E-02  0.66279560E-02
 -0.33159080E-03  0.23617754E-02  0.27742094E-02
  0.40782257E-02 -0.23873441E-02 -0.84372161E-02
  0.23632968E-02  0.65853091E-02  0.69266117E-03
  0.35124961E-02 -0.62205600E-02  0.64941592E-02
 -0.12706044E-02  0.15977253E-02  0.25227310E-02
  0.79467261E-02  0.44275862E-02  0.26248070E-02
 -0.37275776E-02  0.95354142E-02 -0.28296027E-02
  0.85247169E-04  0.15718304E-02 -0.10520258E-02
 -0.62219816E-02 -0.29128185E-02  0.82060965E-03
  0.34172745E-02 -0.28381874E-02 -0.57058178E-03
 -0.28382516E-02  0.18393439E-02 -0.14552193E-02
 -0.36840091E-02 -0.41485619E-02  0.89318183E-03
 -0.44039722E-02  0.42534022E-02 -0.34247360E-02
 -0.19068961E-02  0.14270435E-02 -0.33956175E-02
 -0.10155932E-02  0.35019801E-03  0.77742758E-03
  0.25465522E-02 -0.83461617E-03 -0.13352696E-02
 -0.72670898E-02  0.40807307E-02 -0.10346879E-02
 -0.33906763E-02 -0.36416541E-02  0.72902266E-03
 -0.85290557E-03  0.10085676E-02  0.19245173E-03
 -0.25745939E-02  0.50413121E-02 -0.23258340E-02
  0.38321655E-03 -0.14589279E-02 -0.97140893E-03
 -0.67688286E-03 -0.28410168E-02  0.17481972E-03
  0.39319949E-02  0.22388918E-02  0.15099097E-02
  0.18549272E-02 -0.25689025E-02  0.10192272E-02
 -0.28603385E-02  0.16507898E-02  0.36953934E-02
  0.52809468E-02  0.41141432E-03  0.59432944E-02
 -0.27927483E-02  0.99054139E-03 -0.44471560E-03
 -0.30747359E-02 -0.32606779E-02 -0.77859687E-03
 -0.18270682E-04  0.20609640E-02  0.32965653E-02
 -0.20056958E-02 -0.37928843E-02  0.34503015E-02
 -0.14356581E-02  0.13166970E-02 -0.31443358E-02
  0.45009243E-02 -0.44327277E-02 -0.68105434E-02
 -0.85128179E-03 -0.87655726E-03 -0.35670222E-03
  0.53098278E-02 -0.22830165E-02 -0.44589026E-03
 -0.33897815E-02  0.43054338E-02  0.99118862E-03
  0.42007333E-02 -0.17283299E-02  0.77382464E-03
 -0.14211664E-02  0.59394818E-03 -0.18221804E-02
 -0.14742298E-02 -0.54167562E-02 -0.26389756E-02
  0.14161402E-02  0.12728138E-02 -0.92040179E-03
  0.25554636E-02  0.23754489E-02  0.42749991E-03
  0.11195803E-02  0.30759168E-02 -0.24580931E-03
 -0.14075055E-02  0.85429042E-03 -0.16597951E-02
 -0.18764455E-02 -0.72525315E-03  0.22670791E-02
 -0.37651893E-02 -0.19632112E-02  0.74782060E-02
  0.20441967E-02 -0.32704301E-02  0.98056058E-03
  0.39258859E-02 -0.54159820E-02  0.18116467E-02
  0.30942668E-02  0.55445901E-02  0.30179050E-02
 -0.27968868E-02 -0.46933080E-02 -0.32684637E-02
 -0.97483452E-03  0.31707430E-04 -0.53741323E-02
 -0.16855251E-02 -0.90725011E-03  0.25478834E-02
  0.68947842E-03 -0.81780355E-02 -0.25691972E-03
 -0.24340453E-03 -0.18597846E-02 -0.77647821E-04
  0.13312715E-02  0.29062424E-03  0.31573577E-02
 -0.40127110E-03 -0.23293781E-02 -0.17135553E-02
  0.10783305E-01 -0.39972624E-02  0.13227365E-02
  0.18030418E-02  0.21948948E-03  0.23062262E-02
 -0.34821053E-04  0.22832813E-02 -0.40790884E-02
 -0.20028648E-02  0.13857689E-02  0.63356318E-03
 -0.17993131E-02 -0.71855119E-02  0.31479434E-02
 -0.41685192E-02 -0.29226745E-02  0.28785158E-02
 -0.49882048E-03 -0.53329662E-02 -0.78433092E-02
 -0.27639613E-02 -0.36005304E-02  0.45885004E-02
 -0.76365335E-03  0.50025100E-02  0.22150618E-02
  0.27617464E-02 -0.27426732E-02 -0.66021717E-02
  0.27681093E-02 -0.63135666E-03  0.37142566E-03
 -0.89621188E-03  0.10310183E-02  0.29890010E-03
  0.39392558E-02  0.29811137E-02  0.26112449E-02
  0.30158503E-02  0.81262567E-04  0.17219524E-02
 -0.30276608E-02  0.77543988E-03 -0.41118181E-02
 -0.98742937E-03 -0.14941685E-02 -0.26355916E-02
 -0.22426817E-02 -0.21581369E-03 -0.17147112E-02
  0.16554443E-02 -0.10829212E-02  0.66788844E-04
 -0.12253962E-02  0.45007224E-02 -0.12735061E-02
  0.30795176E-03 -0.69446517E-02 -0.16331458E-02
 -0.37120214E-02  0.63432163E-02 -0.11364072E-02
  0.11113254E-02 -0.45219906E-03 -0.13107951E-02
 -0.11262731E-02 -0.36964426E-02  0.64833981E-02
 -0.33899957E-02  0.14885858E-02  0.27303951E-02
 -0.26208436E-02 -0.10026403E-02  0.21367621E-02
 -0.22871346E-02 -0.31757856E-02 -0.60990709E-02
 -0.16258235E-04  0.10058877E-02 -0.24467331E-02
  0.23298104E-02  0.28979636E-02 -0.28432338E-02
 -0.61515424E-03  0.34410862E-02 -0.20253043E-02
 -0.13764337E-02 -0.15114905E-02  0.72097757E-04
  0.15298325E-02 -0.35176565E-02 -0.60594794E-03
 -0.15412251E-03 -0.26651023E-02 -0.39909730E-02
 -0.15349123E-02  0.13617436E-02  0.32576659E-02
 -0.19247337E-02 -0.17673826E-02  0.12898875E-02
  0.20563776E-02 -0.40661998E-02  0.52397151E-02
 -0.96408950E-03  0.34292307E-02 -0.36885171E-02
 -0.27772142E-02 -0.17347457E-03 -0.65066972E-02
  0.19641031E-02  0.55771129E-02  0.24609635E-02
  0.37732184E-02  0.59900149E-02 -0.28169717E-02
 -0.30238495E-02  0.11769600E-02  0.69213097E-03
  0.67148710E-03 -0.11733337E-02 -0.11348614E-02
  0.41971220E-03 -0.33434164E-02  0.40619419E-02
  0.14350992E-02  0.33990661E-02  0.99197669E-03
 -0.26067039E-02  0.31402809E-02  0.67684079E-02
 -0.20975103E-02 -0.21058446E-02 -0.17833142E-02
 -0.21717068E-02  0.23265680E-02 -0.72080832E-03
 -0.11595548E-03 -0.42115562E-02 -0.55708495E-03
  0.45782527E-03 -0.99921527E-04  0.21774754E-03
  0.27222559E-02  0.83503825E-03 -0.99888435E-04
 
           1
   2.00000000000000     
  0.59115420E+00 -0.13866134E-02  0.00000000E+00  0.00000000E+00
  0.20732658E+00  0.48830733E-02  0.11688493E+00
  0.53601695E+00  0.48642758E+00  0.75026791E+00
  0.62234149E+00  0.54182891E+00  0.88901459E+00
  0.25269280E-01  0.30439898E-01  0.48861832E+00
  0.45907873E+00  0.97894580E+00  0.91058938E+00
  0.97544123E+00  0.50258100E+00  0.35523328E+00
  0.72515837E+00  0.78309282E+00  0.13479560E+00
  0.22821518E+00  0.33240051E+00  0.11638528E+00
  0.74629963E+00  0.71010645E+00  0.61719218E+00
  0.66407027E+00  0.95319891E+00  0.86706892E+00
  0.74751616E+00  0.73760030E+00  0.36507152E+00
  0.20203898E+00  0.24026540E+00  0.25428406E-02
  0.71950011E+00  0.25266122E+00  0.10414744E+00
  0.29511946E+00  0.70559868E+00  0.64176225E+00
  0.19509225E+00  0.30314132E-01  0.87691131E+00
  0.48340134E+00  0.50436648E+00  0.33993781E+00
  0.21266270E-01  0.13260354E-01  0.61477561E+00
  0.56197416E-01  0.46818153E+00  0.76645381E+00
  0.46275643E+00  0.19569993E-01  0.12654261E+00
  0.94213362E+00  0.49165250E+00  0.87678865E+00
  0.49233309E+00  0.23621187E-01  0.37671193E+00
  0.27040341E+00  0.27602903E+00  0.36960519E+00
  0.78701621E+00  0.72341118E+00  0.87238663E+00
  0.50814603E+00  0.52688313E+00  0.48083945E+00
  0.21067241E+00  0.52178622E+00  0.37535857E+00
  0.29351984E+00  0.18548272E+00  0.61684362E+00
  0.70475636E+00  0.75279904E+00  0.25008592E+00
  0.68418746E+00  0.24267207E+00  0.38047730E+00
  0.50662183E+00  0.15802195E-01  0.50160787E+00
  0.45921606E+00  0.29466256E+00  0.99947118E+00
  0.41948127E-01  0.75472319E+00  0.50205089E+00
  0.51158385E+00  0.95060054E+00  0.75850827E+00
  0.73796893E+00  0.52505032E+00  0.13315690E+00
  0.79140794E+00  0.49344857E+00  0.63558589E+00
  0.17996001E+00  0.76050827E+00  0.16306642E-01
  0.57212797E+00  0.23065170E+00  0.50142493E+00
  0.48871722E+00  0.77540674E+00  0.60171755E-02
  0.23282160E+00  0.27520144E+00  0.23407237E+00
  0.38851002E+00  0.68271878E+00  0.75791409E+00
  0.17435181E-01  0.78348333E+00  0.24919021E+00
  0.76371549E-02  0.98555284E+00  0.22313028E+00
  0.76382829E+00  0.24620795E+00  0.74352575E+00
  0.53015942E+00  0.23954651E+00  0.76795693E+00
  0.98235286E+00  0.52470084E+00  0.22424344E+00
  0.97900441E+00  0.31578575E+00  0.14386047E-01
  0.77640715E+00  0.72077389E+00  0.47913410E+00
  0.26134721E+00  0.76271124E+00  0.48976798E+00
  0.75971709E+00  0.25582592E+00  0.98814962E+00
  0.17287767E-02  0.97957487E+00  0.74446821E+00
  0.51583583E+00  0.38812864E+00  0.23777149E+00
  0.25691508E-01  0.74634317E+00  0.75197578E+00
  0.48137391E+00  0.39968948E-01  0.22184292E+00
  0.29688403E+00  0.27174806E+00  0.49813685E+00
  0.72357344E+00  0.76224158E+00  0.17684007E-01
  0.79601609E+00  0.25409819E+00  0.61174939E+00
  0.24855798E+00  0.76436002E+00  0.12968189E+00
  0.96666638E+00  0.94189918E+00  0.80207329E-02
  0.53228460E+00  0.75208966E+00  0.49241567E+00
  0.48887821E+00  0.53120221E+00  0.99922629E+00
  0.51688302E-02  0.27088181E+00  0.49822327E+00
  0.49785693E+00  0.65909801E-01  0.20396061E-01
  0.75089664E-01  0.48837864E+00  0.63063740E+00
  0.96815876E+00  0.54624457E+00  0.27322946E-01
  0.51444185E+00  0.94258016E+00  0.61611885E+00
  0.98910583E+00  0.24433537E+00  0.24977018E+00
  0.78810589E+00  0.76278130E+00  0.75116355E+00
  0.28209443E+00  0.39951083E-01  0.35815742E+00
  0.20092444E-01  0.23260079E+00  0.73402968E+00
  0.46734995E+00  0.72552658E+00  0.25392925E+00
  0.27526470E+00  0.21409517E+00  0.75292207E+00
  0.71505034E+00  0.24514509E+00  0.26642035E+00
  0.26565115E+00  0.75279261E+00  0.90243650E+00
  0.19945107E+00  0.55296148E+00  0.12824259E+00
  0.76646067E+00  0.95272626E+00  0.61894437E+00
  0.96165855E+00  0.15006302E-01  0.90062842E+00
  0.74678627E+00  0.49367398E+00  0.37302366E+00
  0.27642112E+00  0.50306151E+00  0.85693212E+00
  0.72817478E+00  0.97515575E+00  0.37079123E+00
  0.73780539E+00  0.52761956E-02  0.12183442E+00
  0.29055296E+00  0.43094043E+00  0.60762272E+00
  0.74011017E+00  0.20566842E+00  0.86852230E+00
  0.25394651E-01  0.50065824E-02  0.35164794E+00
  0.53711128E+00  0.50727480E+00  0.60064618E+00
  0.26632568E+00  0.75798378E+00  0.28615083E+00
  0.26849499E+00  0.96973350E+00  0.62768341E+00
  0.47019655E+00  0.55123491E+00  0.12169530E+00
  0.27033324E+00  0.22584195E+00  0.88071245E+00
  0.12916595E-01  0.53855777E+00  0.49594167E+00
  0.24070348E+00  0.33512576E-01  0.23870629E+00
  0.80194099E+00  0.50388441E+00  0.76186660E+00
  0.25798305E+00  0.95766844E+00  0.76112647E+00
  0.73093348E+00  0.49921122E+00  0.24760246E+00
  0.22098717E+00  0.99553754E+00  0.98910815E+00
  0.78995740E+00  0.45210549E+00  0.49328556E+00
  0.27382472E+00  0.39043047E-02  0.49957381E+00
  0.71837454E+00  0.47288571E+00  0.99044422E+00
  0.76264026E+00  0.98774418E+00  0.74039335E+00
  0.23118412E+00  0.52225360E+00  0.24482548E+00
  0.29028131E+00  0.45340304E+00  0.73063582E+00
  0.74937892E+00  0.99700473E+00  0.23420800E+00
  0.25873436E+00  0.51939739E+00  0.49029630E+00
  0.70891568E+00  0.16018512E-02  0.99590745E+00
  0.77905717E+00  0.99584511E+00  0.49672524E+00
  0.22422578E+00  0.50917558E+00  0.99587254E+00
  0.76289883E-04  0.25384403E+00  0.36196854E+00
  0.49298921E+00  0.72696978E+00  0.86909945E+00
  0.54154987E+00  0.19659463E+00  0.62589851E+00
  0.96806273E+00  0.76828420E+00  0.12813590E+00
  0.26876942E-02  0.25290359E+00  0.87793992E+00
  0.48455073E+00  0.74964961E+00  0.37640698E+00
  0.27056986E-01  0.73628685E+00  0.61890524E+00
  0.46814794E+00  0.29399010E+00  0.12694839E+00
  0.10950227E+00  0.42952310E+00  0.53598373E-01
  0.66723261E+00  0.85665310E+00  0.53870150E+00
  0.59766967E+00  0.87987941E-01  0.93979883E+00
  0.15997100E+00  0.63672919E+00  0.44604351E+00
  0.31019652E+00  0.38207212E+00  0.95103408E+00
  0.88794896E+00  0.89904110E+00  0.43877308E+00
  0.80005451E+00  0.11701767E+00  0.39114541E-01
  0.39114288E+00  0.60143465E+00  0.54767660E+00
  0.85910674E+00  0.10387581E+00  0.18940602E+00
  0.41374922E+00  0.52469407E+00  0.68208481E+00
  0.86294032E+00  0.89076320E+00  0.28397121E+00
  0.37720515E+00  0.37715698E+00  0.80719453E+00
  0.10411002E+00  0.61018530E+00  0.29833565E+00
  0.64174750E+00  0.90232944E-01  0.79702260E+00
  0.12935069E+00  0.40258804E+00  0.19376856E+00
  0.66648198E+00  0.86999625E+00  0.69338609E+00
  0.78165503E+00  0.60221274E+00  0.94511814E+00
  0.37311531E+00  0.12345393E+00  0.44140664E+00
  0.90424366E+00  0.39932752E+00  0.56189882E+00
  0.33036040E+00  0.91230209E+00  0.53923873E-01
  0.17137101E+00  0.13383089E+00  0.53875651E+00
  0.63381517E+00  0.61061124E+00  0.50134376E-01
  0.11506063E+00  0.89293051E+00  0.93397285E+00
  0.65297815E+00  0.37923445E+00  0.44999466E+00