Na88 Ge16 P8 S96                        
   1.00000000000000     
    13.3422163233000006    0.0000000000000000    0.0000000000000000
     0.0000000000000000   13.3422163233000006    0.0000000000000000
     0.0000000000000000    0.0000000000000000   26.6844326466999995
   Na   Ge   P    S 
    88    16     8    96
Direct
  0.0051989874048657  0.9970860343660302  0.1258471991152623
  0.5150683806058379  0.4886711209488077  0.7371069903247573
  0.2660115773076431  0.4977378394095166  0.8758507535093089
  0.0023932731030483  0.0368757849172975  0.4421592913037073
  0.6742931864550386  0.9665081193076903  0.8721363756023430
  0.9640215595181224  0.5110293561107874  0.3554795289131620
  0.9949192587035208  0.4781955337492143  0.1216806811337101
  0.2115636037024683  0.2290590334028305  0.1367409438388985
  0.7458677317305726  0.9831953206868431  0.6184859947784325
  0.7511689308412312  0.2684171501309422  0.7523746427004420
  0.7451347007049596  0.7623120426560702  0.3442397939063710
  0.2587640671924251  0.2296732995123150  0.8681386724855863
  0.7856237427569354  0.2423616034267958  0.1200706301991227
  0.2925335733897390  0.7483979168117475  0.6332222514487300
  0.9597589640847480  0.9999081088749046  0.8619288927676036
  0.7181638321591762  0.2755222711805033  0.3671463201955154
  0.9901056743890718  0.9889985165677772  0.6002195524881068
  0.0306278036838595  0.4876258721231352  0.6364769176699288
  0.5148532435063751  0.0071207322386865  0.1009680401266243
  0.8919004192376621  0.4475966833276747  0.8462713898667447
  0.4814364618557450  0.0387193190567305  0.3600768996719151
  0.2471415352231454  0.0028129176644041  0.3750001846085053
  0.7726953878975980  0.7302910361628341  0.8691480939630769
  0.5125126272936081  0.5132059456743332  0.6200024666573172
  0.2827531612593974  0.7193532637758595  0.1233841450611340
  0.2367898851112418  0.2784369832542498  0.5052599252044196
  0.7615849101223851  0.5428384168315553  0.1156791533230239
  0.7375827126459784  0.2652670720567835  0.6246271181647548
  0.4848673962658234  0.7264960002824915  0.5058544464845844
  0.4939350746477397  0.7421003248400234  0.9985088098037220
  0.9546509456684154  0.2430294328185506  0.5005029244209260
  0.0216724870890829  0.7389076739435997  0.7441156501782173
  0.0261106060983905  0.7764511349406680  0.2547328422539706
  0.4798031299140188  0.2068957859085450  0.7626473384202213
  0.9837662622909428  0.9980682435756550  0.9920832951057811
  0.4794389467170004  0.2668257516076127  0.4929476838724776
  0.4970114123459558  0.4789649379766308  0.9835370022280983
  0.7727524709075381  0.2510717958757569  0.2428343674910967
  0.3312116335791637  0.7447577131896137  0.7620349971897035
  0.5160692235515838  0.7413102202215651  0.2292082658175265
  0.9991135224195709  0.0316470115812415  0.2701257291246890
  0.5407837864485642  0.4852758561605930  0.8508426123144290
  0.4778916423557810  0.9986615044999951  0.7618909813760790
  0.9848315295970801  0.5206156251929150  0.2324119647618689
  0.2343164880952981  0.2476926870344031  0.9928093267535261
  0.7256808999261652  0.7239402869253608  0.4736662025174278
  0.2357528185787490  0.7861335098949890  0.5066341768910496
  0.7150223450484170  0.2610111681963050  0.0056211349009743
  0.9848001359596495  0.9690825433591552  0.7480408345685654
  0.6485850410044961  0.5168678566712042  0.3695179392660158
  0.0370700017062773  0.5006842728755015  0.7587405014972912
  0.4950937432930280  0.0501898975706486  0.2275884040917148
  0.2474840139241547  0.2510350701045763  0.3829714258311758
  0.0107565608039844  0.7015866650280617  0.9835492898628271
  0.7859270919643715  0.5185923797782492  0.6174217602798502
  0.2497021011901742  0.7119001714495036  0.0022679566419714
  0.9435900919077876  0.2621729757631098  0.0156107456124746
  0.4893561335280954  0.5094815059846916  0.4761395111949165
  0.4784887766059639  0.5156517286563279  0.2517527191920588
  0.9780942775056788  0.4958749761834351  0.4917079927247267
  0.4819053184708870  0.9711671513595258  0.9172155847404082
  0.9651700795682425  0.7430772791672825  0.4934807991912088
  0.9992489644039121  0.4513308691855352  0.9813263081644018
  0.4939374358836764  0.9704330063784276  0.4892538408583099
  0.4692585611320239  0.2594261449413250  0.2469217011005014
  0.7770214112083710  0.7599721727614206  0.0117493186253893
  0.2721470052604101  0.7585223025554585  0.2498463393703624
  0.0157093810636167  0.2472006859248838  0.7394866397336364
  0.7504009703634273  0.7657452745042438  0.2167031303000184
  0.2635402586028956  0.2047248673647962  0.7288369180336411
  0.1384574366723027  0.2663444168058220  0.2678627140575162
  0.7262855573628672  0.7581156820614600  0.7450039675812704
  0.2373427876897344  0.4605480303873042  0.1213136955412258
  0.4867763619017053  0.9835942341299196  0.6175487802104204
  0.7115019130780370  0.2167952095605533  0.8782492357455008
  0.2568925942451847  0.5385884477036994  0.3678307526487311
  0.2193170980330008  0.7474035654279105  0.8747734592990135
  0.7741788011389555  0.0149083126041527  0.3592996130026454
  0.7767255864301156  0.9581794095144895  0.1289383160382410
  0.2671117387785489  0.5021321592514356  0.6289733362834681
  0.4750149647933092  0.2261817789527891  0.9928715795719858
  0.2183269694484111  0.7794712128992137  0.3793238055396843
  0.7408489884868533  0.7233774596177516  0.6219392013034521
  0.2389465640931624  0.9538721227275546  0.1098576663202458
  0.2563073817741863  0.0407257687938211  0.6159509752588862
  0.5007264165911015  0.4990925495726286  0.1244833767284054
  0.2244038097436100  0.0000973739554999  0.8742088782191307
  0.7202734648027366  0.2236686118139213  0.5000394066436136
  0.2534527493064638  0.0050247522197531  0.2465581248638018
  0.7808068769352957  0.5168556362677585  0.7552395783279194
  0.2099266130096143  0.9997103187196306  0.7392324803249367
  0.7308712338412658  0.4828023037263611  0.2350465499636130
  0.2272775079908517  0.9655337946789754  0.0031661193232005
  0.7234421538397235  0.4664144345663101  0.4968437621827411
  0.2363533466382699  0.0197237413806555  0.4979164352895152
  0.7409306767926050  0.5068338751730709  0.9906728580717650
  0.7263373776121081  0.0017301958217044  0.7506159754202739
  0.2257481280021319  0.4880577483438441  0.2434059328792268
  0.2748491512615743  0.4913145423080608  0.7506308790781862
  0.7413771181539817  0.0031262656673301  0.2421998902113005
  0.2382888342213108  0.5123224543454333  0.4951835905044145
  0.7287144122042147  0.0083810749119950  0.9978295512125072
  0.7335974451089810  0.9828882075566000  0.4895810736143389
  0.2376651266505660  0.4775915272149748  0.9981390849001323
  0.9918672951884627  0.2610971378549961  0.3731971676231891
  0.5029680975465303  0.7373931352435443  0.8762604338619725
  0.4913379389249164  0.2536596473215144  0.6284239962688729
  0.0100403083182966  0.7400959259496439  0.1185269125524855
  0.9858451145784659  0.2529000053271474  0.8689941108943824
  0.4937561514947422  0.7553781496930981  0.3700379824141899
  0.0075541433942389  0.7284797122152213  0.6224517442500215
  0.4836995073743190  0.2639798171262628  0.1209474470504717
  0.1265876582548107  0.3775717821274722  0.0419047366234305
  0.6542250804899505  0.8707875295555761  0.5467057240816672
  0.6272794639957788  0.1025637686737097  0.9478604273675103
  0.1491800343564784  0.6391984394121265  0.4489475364104356
  0.3336666894342289  0.3703309518795881  0.9481019889323092
  0.8435295832600808  0.8946335312264865  0.4412005336424573
  0.8419055992148128  0.1114948989392153  0.0431792880115607
  0.3389004329244766  0.6191509892089215  0.5398655601885454
  0.8568523389670616  0.0811106745144077  0.1958038320614102
  0.3672661189328052  0.5767448943267915  0.6951948190103175
  0.8397989961631556  0.8886252324053943  0.2867203106973724
  0.3753973549171611  0.3823060618047598  0.7947157169066315
  0.1258480448989950  0.5793040211114818  0.2918973721531759
  0.6317962994967152  0.0914166751085911  0.8034912387423913
  0.1276328960039201  0.4100379991515121  0.1914214519886322
  0.6308675090614209  0.9095876589772627  0.6985765507706106
  0.8339875509160668  0.5981545720165478  0.9403868378739275
  0.3516298715879961  0.1280749819365892  0.4521006542002217
  0.8116262272600541  0.3646974805052070  0.5442480073057506
  0.3554366340965029  0.8746516586917099  0.0390123780528519
  0.1417351937108979  0.1216147060815148  0.5462130094947102
  0.6339166946856716  0.6081703070533004  0.0367793733058960
  0.1444752200099565  0.8473038556661363  0.9542065580979221
  0.6283801839727772  0.3770150274734589  0.4420601395288268
  0.6329473108151435  0.3823416093434593  0.2836746962776485
  0.1312411793772127  0.8888991272819340  0.7895793832854654
  0.1133959982201174  0.1006573951915281  0.6920795004873156
  0.6249739729370745  0.5770274535856560  0.1943741638277529
  0.8921909874268777  0.4155513251936304  0.7098510919481976
  0.3405947560017777  0.9027355987709366  0.1932640818054090
  0.3501387317292893  0.0927628494979041  0.2923454910819316
  0.8800440521301975  0.6342346720270012  0.7941554990770765
  0.1340474381209585  0.0618652310119007  0.0539257702970060
  0.6253993500277669  0.5747372187004437  0.5364865769217678
  0.6439197357856670  0.4055803340809804  0.9341770471585739
  0.1478059503443235  0.9211948350877789  0.4441493785925426
  0.3105100136424492  0.0793355117204708  0.9535803258655383
  0.8093470601265942  0.5602539678435136  0.4409893109747386
  0.8411669757159385  0.4270926787433348  0.0476609956493997
  0.3311283358370392  0.9146515894495909  0.5513244491929513
  0.1373218089282936  0.0969567838896883  0.2033895264660089
  0.6727995585490063  0.6036252361093905  0.7005970389504127
  0.1652405309388998  0.9055475677982671  0.2988038639914374
  0.7082164849014371  0.4200079078786803  0.8103730139690944
  0.7947668470541015  0.5915992327751345  0.2882850474025025
  0.3009000168787588  0.0758251923637278  0.7938491483491121
  0.8527431746735302  0.4009170890713762  0.1904456307609438
  0.3382282867561840  0.9235765479821418  0.6991982871264449
  0.8231065348616469  0.9263896290964695  0.9431663173661006
  0.3308018291212187  0.4095302402863492  0.4492952826544699
  0.8168516787619287  0.0834959961244724  0.5442801865606843
  0.3525858700117055  0.5509403762255767  0.0498941338181033
  0.1507522493058680  0.4426359587913556  0.5497762867434677
  0.6646817596570376  0.8975905539928472  0.0479437473040318
  0.1512079136861791  0.5757951228922696  0.9430075682144359
  0.6350107899172294  0.0572528020789953  0.4373800196000778
  0.3146968158323583  0.3823372350103306  0.2976963074060866
  0.8146533445638438  0.9037389449638683  0.8008093656722012
  0.8261014387888569  0.0916276842075646  0.7054923351457831
  0.3338690602612903  0.5893160618853205  0.1957182970021959
  0.1795053778554817  0.3969513429943347  0.7030870349182389
  0.6295654099860737  0.9118687425158714  0.2025344863058950
  0.6606537417705084  0.1133342523211053  0.2896545213919444
  0.1945556972919715  0.6071578342463213  0.7896957717697574
  0.0795274343109459  0.1487116520243272  0.3588879871368191
  0.5753348444884451  0.6693016997142969  0.8170775621248900
  0.5676699978088452  0.3398189885881915  0.6749106204212789
  0.1115662220036654  0.8132009738071388  0.1657918967573639
  0.4038635858848187  0.1534610311320727  0.6675888230277757
  0.9086147646825463  0.6782667493901220  0.1641751826836358
  0.9308457608032822  0.3257993637650854  0.3083727742564573
  0.4102891915774154  0.8483819671848256  0.8467075313479787
  0.0854665340223203  0.1451470307636361  0.9037170467986452
  0.5824980977123817  0.6830866630254391  0.4216627122200209
  0.0883086503652594  0.8250751291162720  0.5843944957144669
  0.5739318646034665  0.3402248479587558  0.0769429139428841
  0.9219930228227672  0.6494941603069605  0.5758465228847101
  0.4089698596568303  0.1538320264843362  0.0806006969274988
  0.8869105487821284  0.3068174968428027  0.9211689372932012
  0.4002300837428434  0.8472277090294569  0.4138881472180979
  0.9046884591941374  0.8098407684244450  0.6616347619270954
  0.3911866878322530  0.3470915711297564  0.1618496794512811
  0.9021895422026992  0.1864474005587089  0.8143038525507661
  0.4114639744073012  0.6502849320862255  0.3309705614756203
  0.0753215111152626  0.3649351787538728  0.8448287159167095
  0.5676247218702271  0.8487727650442662  0.3209336571528175
  0.0954586740396760  0.6413719565374406  0.6705943532312482
  0.5884248290748226  0.1751995589768977  0.1574603779040997
  0.4005185303679689  0.3422997222618295  0.5858331611370192
  0.9443638391452742  0.8327437238128393  0.0679692315570044
  0.8771723574276208  0.1979629334272063  0.4157920016943391
  0.4070424890089238  0.6476908316215926  0.9199425489210749
  0.0702442400200873  0.3608023094351085  0.4212709312363626
  0.6002699711281267  0.7985838393263834  0.9245849161916678
  0.5802016395894399  0.1546274432246603  0.5925226601016602
  0.0907494487565578  0.6342395131292122  0.0866910995879051
 
  0.61720480E-02 -0.10509502E-02 -0.23950765E-02
 -0.20688057E-02 -0.35302368E-02  0.53349803E-02
 -0.88383289E-02  0.35357584E-02 -0.23892863E-02
  0.35153113E-02  0.73793382E-04 -0.49716069E-02
  0.44606969E-02  0.19935213E-02  0.21545773E-02
 -0.14091647E-02  0.36416780E-02  0.55691216E-03
 -0.17649663E-02 -0.46382367E-02  0.21526216E-02
  0.17767249E-02 -0.32219821E-02  0.31666441E-02
 -0.48011283E-03  0.73843563E-06 -0.12750881E-02
  0.12050514E-02 -0.35740354E-02 -0.67443312E-02
 -0.22462442E-02  0.12357905E-01  0.82263600E-02
  0.11316551E-01 -0.21224678E-02 -0.90484013E-03
  0.42176874E-02  0.69983674E-03 -0.51800645E-02
  0.13521393E-02 -0.41073829E-02  0.20934006E-02
 -0.33779361E-02  0.35152521E-02  0.86462000E-02
 -0.40752239E-02  0.46167693E-02  0.55004391E-03
  0.16055992E-02 -0.11697365E-02  0.69884779E-02
  0.52249966E-02  0.41694795E-02 -0.44403439E-02
  0.17486214E-02  0.54367212E-02  0.16093556E-02
  0.32899192E-02 -0.44671413E-02  0.17611324E-02
  0.44809126E-02  0.65789157E-02 -0.16450645E-02
  0.14111882E-02 -0.15714583E-02  0.97189498E-02
 -0.50931703E-02 -0.48033805E-02  0.88272832E-02
 -0.10250367E-02  0.38123425E-02  0.72790097E-02
  0.21807873E-02 -0.24735288E-02 -0.24169137E-02
 -0.11436775E-01 -0.14431502E-02  0.32267715E-02
  0.20244786E-02  0.33469043E-02 -0.31542005E-02
 -0.72280954E-02  0.80333911E-03  0.89710778E-02
 -0.30255919E-02  0.34140109E-02  0.26590316E-02
  0.70082816E-02  0.49499673E-02 -0.12218338E-01
  0.32183970E-02  0.41038255E-02  0.28052062E-02
 -0.86516402E-03  0.72016090E-02 -0.32119975E-02
  0.57636487E-02  0.21559704E-02  0.27724956E-02
  0.11146358E-01 -0.24883542E-02 -0.39654580E-02
 -0.30324901E-02 -0.23969454E-02 -0.20118990E-02
 -0.30596023E-02 -0.23455196E-02  0.50413598E-03
 -0.30559470E-02  0.16227160E-02  0.26368651E-02
 -0.98715888E-02  0.47859097E-03 -0.20493024E-02
  0.49974543E-02  0.41854104E-02  0.88157782E-04
  0.32803454E-02 -0.40803926E-02 -0.70081189E-02
  0.10676293E-02  0.20815162E-02 -0.12436129E-02
  0.93724046E-02  0.71207847E-02  0.51683547E-02
  0.13069063E-02  0.35372183E-02  0.30280488E-02
 -0.17129872E-02 -0.26652985E-02  0.26191578E-02
  0.16655187E-02  0.37069973E-03  0.57578822E-02
  0.30151781E-02  0.31440579E-03 -0.82742938E-02
  0.62707925E-02 -0.51425184E-03 -0.27229429E-02
 -0.38469921E-02  0.56063636E-02  0.55369016E-04
 -0.39624905E-02 -0.48247983E-02 -0.75587009E-03
  0.14994108E-01  0.80830943E-02 -0.60222611E-02
  0.42656991E-02  0.83089317E-02  0.59235654E-03
  0.87907800E-02  0.57260555E-02 -0.38537653E-02
 -0.18200224E-02  0.90707368E-02  0.52578654E-02
 -0.10748352E-01  0.16837253E-02 -0.50667090E-03
 -0.31374272E-02  0.58982112E-02 -0.16403786E-02
  0.12489507E-02  0.29919611E-02 -0.55932131E-02
 -0.66166914E-02 -0.27510683E-02  0.55500241E-03
 -0.32444448E-02 -0.92367282E-02 -0.74730752E-02
 -0.98304585E-03  0.24608342E-02  0.17215204E-01
 -0.45672324E-02 -0.36556892E-02  0.70216911E-02
 -0.38408324E-02 -0.12847499E-02  0.25470657E-02
  0.35341698E-02  0.60853422E-02 -0.58091533E-02
 -0.16655429E-02 -0.17517944E-02  0.29156520E-02
 -0.15417012E-01 -0.14396017E-02 -0.33552880E-02
 -0.45562275E-02  0.29862191E-02 -0.62548988E-02
 -0.18359881E-03  0.78615100E-02  0.11759256E-02
 -0.61218381E-02  0.16341641E-02  0.44909331E-02
 -0.36430391E-02 -0.43765033E-02 -0.65985460E-02
  0.51296033E-02 -0.24404020E-02 -0.54236740E-02
 -0.13812490E-02 -0.34030138E-02 -0.68971476E-03
 -0.23860897E-02  0.45707634E-02  0.15317806E-02
  0.36725576E-03  0.54835201E-02  0.69157656E-02
 -0.22626861E-02 -0.12949208E-02 -0.29541465E-02
 -0.24092822E-02  0.11395114E-02  0.44050804E-02
 -0.63810664E-02 -0.40062410E-02  0.81520358E-03
 -0.44295932E-02 -0.48307008E-02  0.58086988E-02
 -0.48873620E-02  0.44151278E-02  0.20911139E-02
 -0.10833196E-02 -0.10392366E-01  0.15303295E-02
  0.11579879E-01  0.26529935E-04 -0.24929271E-02
  0.26629952E-02 -0.45304116E-02 -0.80233116E-03
 -0.61023161E-02  0.19950416E-02  0.65490664E-02
  0.25060317E-02  0.47521733E-03  0.25256139E-02
  0.74732206E-02 -0.50899930E-02 -0.14882064E-02
  0.81875005E-02  0.33720449E-02 -0.52285581E-02
 -0.32690080E-02  0.99916536E-03 -0.27380558E-02
  0.61929933E-02 -0.69618944E-02  0.84227656E-02
 -0.22194249E-02 -0.20329740E-02  0.13064899E-02
 -0.97152142E-02 -0.36577146E-02 -0.18817032E-02
 -0.24836021E-02 -0.14993802E-02 -0.19129491E-02
 -0.81634264E-03  0.96119599E-03 -0.66412868E-02
 -0.78426139E-03  0.18103759E-02 -0.25149806E-03
  0.25529172E-02  0.95770525E-03  0.35670645E-03
  0.27435119E-02  0.20108827E-02 -0.26723284E-02
 -0.16059013E-03 -0.11554718E-03 -0.14526031E-02
  0.18284882E-02 -0.23484269E-02  0.17626413E-03
  0.31049845E-02 -0.17585967E-02 -0.29512432E-02
  0.35288901E-02 -0.57485354E-04  0.14115341E-02
 -0.99800769E-04 -0.46068441E-02  0.23873327E-02
 -0.51716813E-02 -0.15388916E-02 -0.12212573E-02
  0.99094800E-04  0.16147434E-02  0.21788115E-02
 -0.31192537E-02  0.67625875E-03 -0.13651621E-02
  0.21732490E-02 -0.47176350E-02  0.23366925E-02
  0.14738190E-02 -0.21822508E-02  0.14084714E-02
  0.21582895E-03 -0.66657994E-03  0.12516923E-02
 -0.54672467E-02  0.45655313E-04  0.36461503E-03
 -0.35326870E-02 -0.16187800E-02  0.87749231E-03
 -0.48673202E-02 -0.13777792E-02 -0.17141824E-02
  0.40933086E-02  0.62929766E-02 -0.17877237E-02
  0.34613488E-02 -0.87064423E-02 -0.17203119E-02
 -0.51858321E-02  0.16085027E-02 -0.23877616E-02
 -0.51788790E-02 -0.98903311E-02 -0.32924540E-02
 -0.36245525E-02 -0.41363926E-02  0.89968849E-03
 -0.78935455E-02 -0.11017555E-01 -0.25450881E-02
  0.15023929E-02  0.68435449E-02 -0.31854037E-02
  0.25562820E-02  0.41248478E-02 -0.21809028E-02
  0.27823683E-02 -0.30236455E-02 -0.25027181E-02
 -0.32128457E-02 -0.10133906E-02 -0.38088464E-02
  0.34443052E-03 -0.12238773E-02  0.33867379E-03
 -0.30403465E-02  0.38110178E-02 -0.25785307E-02
 -0.19274791E-03  0.23979297E-02  0.32547655E-02
 -0.29925846E-02 -0.36135336E-02 -0.32602728E-02
 -0.69567831E-03 -0.40607391E-02  0.17280779E-02
  0.37646952E-03  0.28929363E-03  0.64827438E-02
 -0.94359307E-02 -0.48772624E-02 -0.50290231E-02
 -0.10721886E-02 -0.55393139E-02  0.59595024E-02
 -0.73353003E-02 -0.23586908E-02  0.23357128E-02
  0.90228360E-03 -0.28438982E-02 -0.11102473E-02
 -0.45837891E-02  0.18614175E-02  0.33912746E-02
 -0.20926926E-02  0.30741610E-02 -0.60539300E-02
  0.11099936E-02  0.99966486E-03 -0.48294912E-02
 -0.14157353E-02 -0.29226812E-02  0.29834501E-02
  0.36894856E-03 -0.40994309E-03  0.18029645E-02
 -0.16948711E-02  0.39850438E-02 -0.14289465E-02
 -0.33766010E-02 -0.22329181E-02  0.10991461E-02
  0.47732275E-02  0.26628070E-02  0.17723291E-02
  0.11911113E-03  0.80526325E-02  0.28532288E-02
  0.36239118E-02  0.40748585E-02 -0.18024847E-02
 -0.38071352E-02 -0.31747541E-02 -0.21319812E-02
  0.25773911E-02  0.28873037E-02  0.47774465E-02
 -0.42290719E-03 -0.40260603E-02 -0.19533961E-02
 -0.51208537E-03  0.55228536E-02 -0.31557060E-03
 -0.17314388E-02  0.27279099E-02  0.32385269E-02
  0.40929210E-02  0.81980454E-03 -0.16305961E-02
  0.71743573E-02  0.24412030E-02  0.36293095E-02
 -0.22850067E-02 -0.86033343E-02  0.51369200E-02
  0.18128147E-02 -0.17604601E-02 -0.21950376E-02
 -0.23180813E-02  0.27888975E-02  0.64589124E-03
 -0.41633634E-02  0.14565982E-02 -0.49877596E-02
  0.36962898E-02  0.41473277E-02 -0.10648862E-02
  0.92485129E-02 -0.19942076E-02  0.44051516E-03
  0.18749539E-02 -0.43899757E-02  0.48666936E-02
 -0.43507732E-02  0.43535414E-03 -0.61116569E-03
  0.50872443E-03 -0.70337054E-03 -0.27192288E-02
  0.33113487E-02  0.20362514E-02  0.23795877E-02
  0.25296526E-02 -0.18153582E-02  0.79159529E-02
  0.53173240E-02 -0.60801036E-02 -0.25215889E-02
  0.32848730E-02  0.65807441E-02 -0.50086977E-03
 -0.53508488E-02 -0.97878565E-03 -0.35842997E-02
 -0.72226769E-02  0.40263012E-02 -0.37636717E-02
 -0.27493759E-02 -0.10543406E-02  0.95195786E-03
 -0.25250288E-02  0.23220706E-02  0.95410811E-03
  0.11683806E-01 -0.48381011E-02 -0.97996010E-03
  0.63358085E-02 -0.28981545E-03  0.65115145E-03
 -0.15296254E-02  0.48815237E-02 -0.67336402E-02
 -0.64563336E-02 -0.47349444E-02  0.14416151E-02
 -0.26658728E-02 -0.38951721E-02 -0.19089469E-02
 -0.65461824E-03  0.51437600E-03 -0.97816273E-04
  0.37701741E-03  0.23216428E-02  0.21525481E-02
  0.11502475E-02  0.30484205E-02  0.37272366E-02
  0.91473012E-03 -0.44282170E-02 -0.42738756E-02
  0.52156238E-02  0.10912041E-02 -0.19663748E-02
  0.42635893E-02 -0.69981187E-03  0.19385152E-02
 -0.59604260E-02 -0.10608250E-02  0.47383622E-02
  0.49472075E-02 -0.64691629E-02 -0.47295996E-03
 -0.63106612E-03  0.20949894E-02 -0.55988134E-02
  0.17626795E-02 -0.27444126E-02 -0.29039652E-02
 -0.42209295E-02 -0.35226546E-02  0.63079294E-02
  0.74212292E-03  0.26748146E-02 -0.73957346E-03
 -0.12823939E-02  0.45555426E-02 -0.10813004E-02
 -0.46904268E-02  0.14722007E-01 -0.60611005E-03
  0.35884982E-02  0.25796838E-03  0.21464797E-02
 -0.18055226E-02 -0.52249335E-02 -0.67079452E-02
  0.64018171E-03  0.36551460E-04  0.62538161E-03
 -0.84977488E-03 -0.63229496E-02  0.21853376E-02
  0.40529490E-02 -0.63387198E-03 -0.64558938E-02
 -0.23159060E-02 -0.49836967E-02 -0.29367203E-02
 -0.49425940E-03  0.13581909E-02  0.34847664E-02
  0.31179997E-02  0.68246787E-03 -0.40379169E-03
  0.92476253E-02 -0.96223536E-03 -0.26539249E-02
  0.30937290E-03  0.13488455E-02 -0.18789698E-02
 -0.13267028E-02 -0.33943726E-02  0.66638697E-02
 -0.16602277E-02  0.73840600E-02  0.12395624E-02
 -0.39359962E-02  0.52943862E-02 -0.28589676E-02
 -0.60605474E-02  0.25578416E-02  0.59742891E-02
 -0.47132467E-02 -0.32870355E-02  0.20810882E-02
  0.70615489E-03 -0.16324008E-02  0.22978028E-02
  0.16770107E-02 -0.17127058E-02  0.38808756E-02
  0.51801168E-02 -0.36399602E-02 -0.59880748E-02
 -0.75684712E-03  0.56277156E-02  0.24789512E-03
 -0.12524156E-02  0.43508409E-03 -0.60259080E-02
  0.34723000E-02 -0.60967590E-02  0.16936925E-02
  0.87036888E-02  0.26890256E-02 -0.56062747E-02
  0.12348313E-02  0.33081875E-02  0.13578926E-02
  0.11792894E-02  0.25180427E-02  0.73767984E-02
 -0.25048565E-02 -0.52620810E-02  0.27811007E-02
 -0.15336626E-02 -0.77312629E-03 -0.89896721E-02
  0.56402402E-02  0.83404116E-02  0.45540587E-02
  0.43626041E-02  0.92898516E-03  0.89647947E-03
 
           1
   2.00000000000000     
  0.10267005E+01 -0.36945419E-02  0.00000000E+00  0.00000000E+00
  0.61241782E-02  0.99692850E+00  0.12566769E+00
  0.51475827E+00  0.48814194E+00  0.73750685E+00
  0.26468671E+00  0.49826785E+00  0.87567168E+00
  0.29202187E-02  0.36886847E-01  0.44178667E+00
  0.67496185E+00  0.96680695E+00  0.87229786E+00
  0.96381033E+00  0.51157524E+00  0.35552127E+00
  0.99465469E+00  0.47750026E+00  0.12184202E+00
  0.21182994E+00  0.22857606E+00  0.13697828E+00
  0.74579576E+00  0.98319543E+00  0.61839043E+00
  0.75134957E+00  0.26788140E+00  0.75186915E+00
  0.74479799E+00  0.76416449E+00  0.34485636E+00
  0.26046042E+00  0.22935514E+00  0.86807085E+00
  0.78625597E+00  0.24246651E+00  0.11968238E+00
  0.29273626E+00  0.74778222E+00  0.63337915E+00
  0.95925261E+00  0.43504563E-03  0.86257693E+00
  0.71755296E+00  0.27621433E+00  0.36718755E+00
  0.99034635E+00  0.98882317E+00  0.60074334E+00
  0.31411031E-01  0.48825088E+00  0.63614411E+00
  0.51511536E+00  0.79356975E-02  0.10108866E+00
  0.89239358E+00  0.44692706E+00  0.84640339E+00
  0.48210815E+00  0.39705499E-01  0.35995360E+00
  0.24735307E+00  0.25773559E-02  0.37572862E+00
  0.77193192E+00  0.72957101E+00  0.86980970E+00
  0.51235897E+00  0.51377742E+00  0.62054803E+00
  0.28308006E+00  0.71898248E+00  0.12320300E+00
  0.23507551E+00  0.27822065E+00  0.50550177E+00
  0.76188838E+00  0.54334012E+00  0.11544275E+00
  0.73649922E+00  0.26538749E+00  0.62529950E+00
  0.48441386E+00  0.72700776E+00  0.50605374E+00
  0.49498562E+00  0.74284233E+00  0.99759304E+00
  0.95513338E+00  0.24364460E+00  0.50071317E+00
  0.21542799E-01  0.73998720E+00  0.74387491E+00
  0.26974578E-01  0.77677432E+00  0.25494064E+00
  0.48147397E+00  0.20652278E+00  0.76235013E+00
  0.98331169E+00  0.99770894E+00  0.99193250E+00
  0.47898031E+00  0.26647416E+00  0.49298547E+00
  0.49655333E+00  0.47920818E+00  0.98373464E+00
  0.77127272E+00  0.25114354E+00  0.24268077E+00
  0.33196075E+00  0.74538511E+00  0.76204160E+00
  0.51656095E+00  0.74069857E+00  0.22868301E+00
  0.99927356E+00  0.31959031E-01  0.27003252E+00
  0.54218871E+00  0.48634326E+00  0.85122998E+00
  0.47808755E+00  0.99919173E+00  0.76211793E+00
  0.98457475E+00  0.52021610E+00  0.23260827E+00
  0.23456615E+00  0.24774825E+00  0.99324088E+00
  0.72613288E+00  0.72398742E+00  0.47304604E+00
  0.23669281E+00  0.78605642E+00  0.50643009E+00
  0.71444568E+00  0.26185156E+00  0.56252848E-02
  0.98420616E+00  0.96835931E+00  0.74798418E+00
  0.65083266E+00  0.51807951E+00  0.36906657E+00
  0.37709431E-01  0.50192978E+00  0.75878490E+00
  0.49641148E+00  0.51048234E-01  0.22729956E+00
  0.24721119E+00  0.25239477E+00  0.38336550E+00
  0.91453815E-02  0.70183906E+00  0.98351131E+00
  0.78545679E+00  0.51947652E+00  0.61729881E+00
  0.24988932E+00  0.71234867E+00  0.18487449E-02
  0.94259825E+00  0.26176059E+00  0.15652343E-01
  0.48886979E+00  0.50809692E+00  0.47557940E+00
  0.47834142E+00  0.51602061E+00  0.25304300E+00
  0.97740965E+00  0.49532699E+00  0.49223427E+00
  0.48132958E+00  0.97097457E+00  0.91740649E+00
  0.96569985E+00  0.74398947E+00  0.49304540E+00
  0.99899930E+00  0.45106827E+00  0.98154484E+00
  0.49162642E+00  0.97021721E+00  0.48900236E+00
  0.46857558E+00  0.25987378E+00  0.24645290E+00
  0.77699389E+00  0.76115061E+00  0.11837454E-01
  0.27122934E+00  0.75876726E+00  0.25018294E+00
  0.15163289E-01  0.24654465E+00  0.73899208E+00
  0.75116990E+00  0.76537946E+00  0.21629663E+00
  0.26333321E+00  0.20421476E+00  0.72878522E+00
  0.13809976E+00  0.26702957E+00  0.26797752E+00
  0.72634061E+00  0.75893766E+00  0.74552230E+00
  0.23700361E+00  0.46035392E+00  0.12109228E+00
  0.48641521E+00  0.98376505E+00  0.61787894E+00
  0.71054539E+00  0.21619467E+00  0.87831034E+00
  0.25622860E+00  0.53786433E+00  0.36826612E+00
  0.21858448E+00  0.74806539E+00  0.87493019E+00
  0.77401641E+00  0.13350496E-01  0.35941431E+00
  0.77846141E+00  0.95818339E+00  0.12875147E+00
  0.26751092E+00  0.50145305E+00  0.62891320E+00
  0.47410023E+00  0.22648084E+00  0.99336243E+00
  0.21870262E+00  0.77954245E+00  0.37951310E+00
  0.74196923E+00  0.72261447E+00  0.62182766E+00
  0.24017387E+00  0.95437759E+00  0.10946579E+00
  0.25581736E+00  0.40875544E-01  0.61574576E+00
  0.50165475E+00  0.49804896E+00  0.12511466E+00
  0.22407112E+00  0.99979263E+00  0.87430680E+00
  0.71881715E+00  0.22312032E+00  0.49989837E+00
  0.25308046E+00  0.47999949E-02  0.24641475E+00
  0.78068451E+00  0.51699972E+00  0.75474181E+00
  0.20980905E+00  0.99998169E+00  0.73921363E+00
  0.73125392E+00  0.48294586E+00  0.23507329E+00
  0.22768876E+00  0.96583523E+00  0.29658281E-02
  0.72341808E+00  0.46639711E+00  0.49673489E+00
  0.23662744E+00  0.19371712E-01  0.49792965E+00
  0.74139611E+00  0.50657026E+00  0.99045166E+00
  0.72686636E+00  0.17215788E-02  0.75072177E+00
  0.22573317E+00  0.48736718E+00  0.24358486E+00
  0.27407392E+00  0.49108386E+00  0.75053935E+00
  0.74139197E+00  0.33683159E-02  0.24236319E+00
  0.23782126E+00  0.51242383E+00  0.49508127E+00
  0.72904018E+00  0.76739008E-02  0.99800469E+00
  0.73381837E+00  0.98256109E+00  0.48968664E+00
  0.23769748E+00  0.47749161E+00  0.99823290E+00
  0.99104775E+00  0.26110398E+00  0.37322450E+00
  0.50243855E+00  0.73715048E+00  0.87632620E+00
  0.49060833E+00  0.25345312E+00  0.62829552E+00
  0.10653896E-01  0.74103924E+00  0.11839292E+00
  0.98636397E+00  0.25159491E+00  0.86886517E+00
  0.49297879E+00  0.75561926E+00  0.36985902E+00
  0.67778287E-02  0.72699715E+00  0.62220497E+00
  0.48315619E+00  0.26335977E+00  0.12101488E+00
  0.12540441E+00  0.37592025E+00  0.41713982E-01
  0.65445029E+00  0.87181338E+00  0.54646698E+00
  0.62766265E+00  0.10318208E+00  0.94769697E+00
  0.14959711E+00  0.63874519E+00  0.44875996E+00
  0.33318508E+00  0.37017904E+00  0.94781652E+00
  0.84358121E+00  0.89445007E+00  0.44122592E+00
  0.84144985E+00  0.11206617E+00  0.42986027E-01
  0.33887154E+00  0.61951044E+00  0.54010951E+00
  0.85640375E+00  0.80569005E-01  0.19555947E+00
  0.36716184E+00  0.57613619E+00  0.69532434E+00
  0.83985543E+00  0.88866860E+00  0.28720619E+00
  0.37398291E+00  0.38157496E+00  0.79433879E+00
  0.12568732E+00  0.57847368E+00  0.29234404E+00
  0.63069674E+00  0.91063107E-01  0.80366630E+00
  0.12776815E+00  0.40961170E+00  0.19133824E+00
  0.63018040E+00  0.90986669E+00  0.69883073E+00
  0.83367386E+00  0.59861539E+00  0.93993310E+00
  0.35179626E+00  0.12822483E+00  0.45173868E+00
  0.81141401E+00  0.36425937E+00  0.54447162E+00
  0.35549194E+00  0.87459021E+00  0.39147510E-01
  0.14148113E+00  0.12221206E+00  0.54610591E+00
  0.63341054E+00  0.60783559E+00  0.36861754E-01
  0.14519073E+00  0.84770301E+00  0.95433939E+00
  0.62839804E+00  0.37822212E+00  0.44227399E+00