Na88 Ge16 P8 S96                        
   1.00000000000000     
    13.3422163233000006    0.0000000000000000    0.0000000000000000
     0.0000000000000000   13.3422163233000006    0.0000000000000000
     0.0000000000000000    0.0000000000000000   26.6844326466999995
   Na   Ge   P    S 
    88    16     8    96
Direct
  0.0262590306652003  0.9778868007313557  0.0064421816005628
  0.4998878127069401  0.4155220241518093  0.7437272191472387
  0.5110434309723915  0.5035848184462631  0.9819061307928063
  0.0268105379851469  0.9389668389561918  0.3825296986478375
  0.4649710065475411  0.0159472960145184  0.8614379527146012
  0.0190495444264694  0.4995096498649960  0.3785908389536992
  0.5220392378920762  0.4662990831669037  0.8455362308881946
  0.3027681209266188  0.2655577394594500  0.2274832988317902
  0.7479290216754489  0.2114233370551786  0.6208282780436732
  0.4482139676278626  0.9545338408640128  0.7585078547835675
  0.7918535153196707  0.7655717063794176  0.3380512421889299
  0.2413107806408253  0.2268856390784663  0.8704219735743715
  0.7958872661163283  0.2607640727599951  0.2640465670435674
  0.1662603193044316  0.6036511738137984  0.6048294022212238
  0.9359331734175856  0.9579173270627033  0.8788277161187421
  0.5125591241352326  0.4381647516651859  0.3662240147873289
  0.2952056855362480  0.2610575327954024  0.5207440049631277
  0.0009280750797305  0.4430392261894204  0.7691761461917487
  0.2056977804183518  0.9373654817086824  0.1124223050950688
  0.7401539835439567  0.2229279177917591  0.7410364676347004
  0.5020678812389496  0.0476177342722473  0.3851536001711519
  0.2706025327989565  0.0459197721216388  0.3699414381607709
  0.6996012540918224  0.6791347356927393  0.9031793278138756
  0.9533989204717719  0.4633153010065809  0.6326874433057943
  0.3347175289281201  0.7555421823866590  0.1221327685602063
  0.0968391742214654  0.2610947261083549  0.6181368094240133
  0.8279617231417932  0.9421112252401912  0.1159178391790924
  0.7758366772142432  0.2162341261180411  0.5037932253015205
  0.2928358524096639  0.7588737294486780  0.4763816054811942
  0.5317178666175988  0.0000800453600420  0.1210954539690612
  0.0008731056874394  0.0476085742204915  0.4835152637663201
  0.4901597950923907  0.7019141535094008  0.7518073138942575
  0.0696479329252560  0.9413581148368007  0.2222562604173440
  0.2207066041419163  0.2528615513542959  0.7541846165536668
  0.9939969319510401  0.1867013147966190  0.0191007714358612
  0.4403745026438672  0.8653940228061568  0.6346532014745324
  0.4919618372095952  0.9938218463643014  0.9870739507428220
  0.7423963343547411  0.2373997610101974  0.3809217837098103
  0.9521888459713898  0.8173594391409650  0.7337694099086582
  0.8682818593782627  0.7367426780081772  0.2017691640662655
  0.0504567081047633  0.2454550122351740  0.2374209357418697
  0.5088087673099307  0.7584268065155815  0.0018900081259223
  0.6885357443091963  0.9875545306704659  0.8704825144133284
  0.9871529241758736  0.5080452380273180  0.2447525432290996
  0.2423322027768258  0.4893502332818182  0.8649827708175348
  0.8052209019126986  0.7046191922260616  0.5146517217455557
  0.2771727981730367  0.7922516574854577  0.3662725862487931
  0.9773027429872393  0.4409511887127351  0.9856933494611868
  0.1343973253841427  0.9235628860301985  0.6289639349582790
  0.5066344377313087  0.4991646273466436  0.1229769659974128
  0.8257373727478819  0.4575033033759912  0.8795792963842717
  0.5402181084413117  0.0050859727475826  0.2409402835856965
  0.5230699041386560  0.0240309779900322  0.5318999504389529
  0.7681813933142462  0.7227336234760677  0.0290978938379234
  0.6780061732575476  0.4664769296190706  0.6178699185986013
  0.2509494708675265  0.7254519924521959  0.9986967503430078
  0.6807033899890845  0.2484182980141025  0.8658676788838858
  0.5248304505472606  0.4694244958626459  0.4833392326561104
  0.2418764102182798  0.4710300223432342  0.1150201614553770
  0.9927965297728751  0.4283203100768477  0.5076690793848955
  0.1973163556843830  0.9958079515612702  0.8558488601357418
  0.0295447001828295  0.7423567474034557  0.4860189477970642
  0.9974073877795333  0.6921568792859313  0.9932234281972973
  0.5625268047217643  0.7263824738801815  0.4852231808036647
  0.4906282669031798  0.5062274545618095  0.2475501908307434
  0.7252997814748799  0.7178261073009085  0.7512341398768670
  0.5698530425188671  0.7480686156490294  0.2375529390596939
  0.4644846823263913  0.1505378177612400  0.7108596954707939
  0.2761039961215078  0.7209386611258051  0.2414278883722110
  0.9967737206876738  0.0961077774880630  0.7675405167615456
  0.5428950107772555  0.2423534785984305  0.2661332950512355
  0.1928098863437032  0.7684485941736222  0.7648418639420815
  0.0254499351505689  0.4698763204506361  0.1220880647876145
  0.7104068430781113  0.9770649439118083  0.6237835057650273
  0.7358196957432649  0.2646361663061762  0.9941117994623864
  0.2357228828224909  0.2611646918201337  0.4100229352182844
  0.2256900569995510  0.7455475686184464  0.8863386715177555
  0.7514343053769077  0.9803971856909804  0.3701400217571871
  0.7749210946312333  0.2303663306232195  0.1202740924589416
  0.3317520185487927  0.4358464560454585  0.6316369048229382
  0.5026255788862669  0.2765075578927634  0.9925923783865417
  0.2567514318363605  0.5292290227841949  0.3777269257874580
  0.7466310352089266  0.7566113886881314  0.6239980392452007
  0.2639799627874612  0.2110854796634229  0.1108852206705894
  0.2937099965729335  0.0694081885097179  0.6195299321306804
  0.7648244360048639  0.5300270344320747  0.1210833101664281
  0.2693403452489984  0.2205382746312358  0.9893834497397950
  0.7935742215274787  0.4939393509470928  0.3689360969880558
  0.2949078980185350  0.0088615522274636  0.2466746801407824
  0.7581736499105259  0.4933619803415788  0.7484090713581684
  0.1828767678732607  0.0086868598160787  0.7299356205594265
  0.7434970642595784  0.4921534637006893  0.2407555903814446
  0.2604897264982476  0.9714354941518142  0.9915701787345861
  0.7603916556917257  0.4815001975446911  0.5052080041211439
  0.2424167305179780  0.0232000240903916  0.4894322034261493
  0.7433392818597773  0.5072803347258317  0.0108488471883681
  0.6987685428794070  0.9675365544130298  0.7534611916032238
  0.2418286534705920  0.4955058126622026  0.2484746336781472
  0.2461791920827809  0.5261379019399218  0.7458959259311695
  0.7957650028579589  0.9766058524444013  0.2416137647599291
  0.2613046934332727  0.5075175581939581  0.5043737367233952
  0.7430169000228277  0.9881097932010666  0.9997048975663244
  0.7488492430898639  0.9547692197263166  0.4908481365917687
  0.2545771038577082  0.4863048233699739  0.9900463807934288
  0.9955117382993018  0.2347024267510740  0.3833834554290816
  0.4731461094970844  0.7485148851487828  0.8851267886254693
  0.4880948444845595  0.2361815325032631  0.6222311437358716
  0.0346213273018163  0.7204245760490583  0.1256951054368391
  0.9728463367717970  0.2170307313529029  0.8734558070557729
  0.5469748356274408  0.7507309011304157  0.3666280812580617
  0.9807860879506214  0.7250180660233163  0.6270183052489673
  0.5108193776001948  0.2264817187747200  0.1138887701020399
  0.1714065384774147  0.3564546812563509  0.0445202441255477
  0.6560427752431677  0.8557409420495320  0.5504581014438581
  0.6549135119831359  0.1037156875401473  0.9493872290365647
  0.1733455018970894  0.6086777728851828  0.4585011284617409
  0.3528588681930179  0.3652088934714438  0.9430689046415384
  0.8338170939390557  0.8435667634366861  0.4453330659014665
  0.8463004992948484  0.0852250663794420  0.0444961893714996
  0.3651503763539267  0.5839159682936323  0.5572503929963691
  0.8833785228834569  0.1031234841069996  0.2025952764674698
  0.3402312584302549  0.6143486338727956  0.6928491846957955
  0.9064494924726285  0.9026510308825169  0.2939885190890893
  0.3250569730339624  0.4131812166722345  0.7944588178179536
  0.1547833492708497  0.5793578794314758  0.3065392460871227
  0.6051127893223269  0.0705509811932533  0.8011275954272723
  0.1294607644147858  0.4046880212793293  0.1954256471087533
  0.6001301198940479  0.8551176682622859  0.7090267900709084
  0.8491909216362427  0.5862821389632378  0.9598588785318733
  0.3668606762570815  0.1101752341038453  0.4482687092697196
  0.8270051921795533  0.3788703769166010  0.5593242604681591
  0.3575895490340636  0.8792021921174772  0.0392160444474532
  0.1637338724243209  0.1113066719604968  0.5463701740309206
  0.6329254517556151  0.6017198628247034  0.0445677949394705
  0.1447311145817279  0.8641900379616222  0.9523407643805587
  0.6794010043050855  0.3867897277804775  0.4412639456725404
  0.6503615675258269  0.3968034950397594  0.2909572670903049
  0.0968256596515618  0.9301732338627007  0.7887138326101284
  0.0920613612124431  0.1000953467879998  0.6819411072719492
  0.6691059343421465  0.5997831328879413  0.1888229240467330
  0.8584120410518439  0.3827437783738501  0.7069492642908621
  0.3820835514996042  0.9032049664721186  0.1943683954708511
  0.3753881498840699  0.1139870630732467  0.2886905325639313
  0.8338063066570299  0.5925908731623821  0.7975410432210160
  0.1686587150910375  0.0892465436064648  0.0390259521856751
  0.6589400474863366  0.5936845593265585  0.5376776821757868
  0.6585115141577657  0.4268568763971433  0.9376301523623243
  0.1466114909780285  0.9134173697733001  0.4467735181403904
  0.3468549976194490  0.0582606219455023  0.9324850618976860
  0.8811076254303598  0.5655341992356208  0.4603630986914152
  0.8442061342328185  0.4036544050987816  0.0523422740228095
  0.3437287284294033  0.9084605779170105  0.5398923159702507
  0.1937346273451638  0.1018432445817968  0.1974229930433521
  0.6202303244287951  0.5648267490077342  0.7063857780134073
  0.2078837787690934  0.9199608535706131  0.3017355817177863
  0.6613123249752968  0.3684364062591681  0.7948374150787565
  0.8162738170560984  0.6101425353559093  0.2880835619755587
  0.3103493672127320  0.0735215543251420  0.7816294100456114
  0.8495025961858811  0.4017476216561503  0.1983460510066653
  0.2817819657273868  0.9068821821191376  0.6910927649813131
  0.8431316280460806  0.8874802466362673  0.9623777502770854
  0.3302938046305274  0.3975244136494983  0.4441347904751260
  0.8332731200644335  0.0537738933628807  0.5492958953723169
  0.3628313414286126  0.5607328290822995  0.0431347191696164
  0.1621772780320875  0.3919513066088813  0.5422299192068145
  0.6281722224944831  0.9165037647903712  0.0536200207778644
  0.1568534454716634  0.5787210416091678  0.9475180191472136
  0.6521838358060704  0.0706813097092777  0.4526274550992642
  0.3403331674131501  0.4013525689439876  0.2993788223301505
  0.7887865952482963  0.8688185843019810  0.8090498476734672
  0.7922931964060841  0.0449872772870287  0.7011059918131418
  0.3320027271424720  0.5891131975849900  0.2006161382768427
  0.1560000149277131  0.4108319925656839  0.6963278295858274
  0.7031091921223809  0.8816896149744402  0.1902508797893334
  0.6846938615439532  0.1039697067024827  0.2862961686235155
  0.1385041766905893  0.5940013382719368  0.8034053666829981
  0.1053043852122536  0.1750017802697578  0.3403558250739123
  0.5618788592344910  0.8533148735625743  0.9224863854725692
  0.4917637858754336  0.2658425654667728  0.5464121391093976
  0.1560094811591830  0.6713482389328688  0.0897134258066335
  0.5681519303628927  0.3200598359726991  0.6685162608639365
  0.0721021333632803  0.6899708204666389  0.2017253819767093
  0.9326151161867995  0.3534873802641936  0.3415993104004085
  0.5678755439163097  0.6615677450195214  0.8394497153710151
  0.0638876480643575  0.1095769156413251  0.9027535270152024
  0.6169317439908978  0.6328788502119802  0.3968524391819485
  0.9232991767104237  0.8602264477674572  0.5950092474416891
  0.6068672277559735  0.3255296776183524  0.0723958625458690
  0.8684667975788660  0.6714114624475592  0.6800154455947555
  0.4286004810434895  0.1449579605612303  0.0651422408860179
  0.9006835785056181  0.2846494078079608  0.9364682772368567
  0.4702103393149647  0.8393429976568416  0.4229819202539902
  0.1166589772805667  0.7601257455425872  0.6663136164567552
  0.4130392157051148  0.3265575417664834  0.1485799788149354
  0.8638341957884269  0.1471453763247810  0.8376837182167663
  0.4414017150911942  0.6884068860784698  0.3216140690444722
  0.0668386327083892  0.3075850699842483  0.8349314513874444
  0.6307950835009292  0.8322563815155770  0.3162673768984692
  0.9955470047904766  0.6206472535232880  0.5671773989293595
  0.5802875562526307  0.1471130890058417  0.1747467126808553
  0.3495831734347300  0.2538461039059666  0.6460831372587952
  0.9940928310553876  0.8649783544632547  0.1140635498032623
  0.8886174571480261  0.1221048365085527  0.4033689295640691
  0.3862884291565570  0.6665431351454000  0.9300495645140255
  0.0612534109340314  0.2941474415460047  0.4512546084491311
  0.3811316051821677  0.8196817243984796  0.8345134831410074
  0.5383441074450512  0.0888842489166365  0.6254939140789569
  0.9268400781648068  0.6367440132200174  0.0996496993303314
 
 -0.72545557E-02 -0.90810759E-02 -0.10865903E-01
 -0.11788159E-02 -0.53888306E-02 -0.36054469E-02
  0.65408650E-02 -0.23771467E-02  0.96102264E-02
 -0.78683272E-02  0.46135766E-02 -0.87420737E-03
  0.61068536E-02  0.38107714E-02 -0.14467142E-02
  0.19398095E-02  0.54239366E-02  0.56781802E-02
  0.13767765E-01  0.61583484E-04 -0.24360369E-02
  0.47176046E-02  0.58823339E-02 -0.53633012E-02
 -0.76228842E-02  0.10034453E-01 -0.11470977E-02
  0.70721619E-02  0.46317852E-02  0.21060271E-02
  0.26319248E-02 -0.57281883E-02  0.99846490E-02
 -0.38956405E-02 -0.15328296E-02 -0.81537939E-02
  0.51362202E-02 -0.11115195E-02 -0.37783839E-02
  0.25040044E-02 -0.24889902E-02  0.34656046E-02
 -0.84239145E-02  0.11234009E-02  0.44886063E-02
 -0.17454593E-02  0.44856890E-02  0.78779004E-02
 -0.16698223E-03 -0.10726554E-01 -0.76724805E-02
  0.40975363E-02  0.79057032E-03  0.42854210E-02
  0.25066622E-02  0.55252929E-02 -0.36806253E-02
 -0.33453290E-02  0.70166144E-03 -0.15559270E-02
  0.59048575E-02  0.35733848E-02 -0.53910075E-02
  0.25061983E-02 -0.81110318E-02  0.23626665E-02
  0.67813326E-02 -0.13121072E-02 -0.33030197E-02
  0.55765981E-02  0.73433844E-02 -0.38023140E-02
 -0.52409158E-02 -0.10173605E-01  0.43133562E-02
  0.22434239E-02  0.48221002E-02 -0.24752445E-02
 -0.37023198E-02  0.19048366E-02  0.46331902E-02
 -0.62936754E-02 -0.11465968E-02 -0.11902847E-01
  0.47224402E-02  0.45962069E-02 -0.14840769E-01
 -0.15206240E-02 -0.51578878E-02  0.23815060E-02
 -0.51679961E-02  0.67408780E-02  0.64117850E-02
 -0.28393238E-02  0.21031885E-02 -0.11392698E-01
  0.50469037E-02 -0.17763600E-02  0.95965373E-02
  0.28974581E-02  0.17495813E-02  0.34747393E-02
  0.12690057E-01  0.12309395E-01  0.19360438E-02
  0.67127360E-02 -0.65679783E-02  0.86748589E-02
 -0.23451644E-02  0.97503929E-02 -0.34258834E-02
  0.66779335E-02  0.60857792E-02  0.36980759E-02
 -0.51391267E-03  0.35177174E-02  0.22961569E-03
  0.44242707E-02 -0.46550229E-02 -0.62289943E-02
  0.77601863E-02 -0.57325926E-02  0.19673926E-02
 -0.34100288E-02 -0.44723039E-02  0.22947041E-03
 -0.11680176E-03 -0.10296661E-01  0.42890898E-02
  0.52365337E-02  0.11711141E-01  0.15277692E-02
  0.61208385E-02 -0.39383846E-02 -0.47636760E-02
  0.44020218E-02 -0.75554197E-03  0.90652720E-02
  0.36292912E-02  0.39882070E-03  0.40076482E-03
  0.15670311E-02  0.40473581E-02 -0.41242792E-02
 -0.95282199E-02 -0.43043234E-02 -0.56704861E-02
  0.66645324E-03 -0.32231829E-02 -0.33115920E-02
  0.82844297E-02 -0.37558892E-02  0.29848281E-02
  0.72123059E-02  0.67036060E-02 -0.28563319E-02
  0.55472700E-02 -0.62219398E-02  0.12236866E-03
 -0.65983340E-02 -0.38211715E-02  0.99482724E-02
 -0.14365429E-01  0.55198549E-02 -0.28111803E-02
  0.17748569E-02 -0.11479872E-01 -0.23445923E-02
 -0.46894794E-02  0.20376275E-02  0.25240804E-02
 -0.60257205E-02  0.85487773E-02  0.66164000E-03
  0.42723706E-02  0.35331795E-02  0.46592444E-02
  0.97063201E-02 -0.10983673E-02 -0.14327588E-02
  0.11923274E-02  0.10521103E-02 -0.20384243E-02
  0.70432955E-03  0.73169859E-02  0.41544246E-02
  0.52802016E-02 -0.78316351E-02 -0.29151304E-02
  0.26870865E-02  0.63793777E-02  0.65763244E-02
  0.11781271E-01  0.76279891E-02  0.12860075E-01
 -0.91493768E-02  0.17740532E-02 -0.20285212E-02
  0.34994379E-02 -0.33640200E-02  0.83472337E-02
  0.10553919E-02 -0.14360337E-01  0.10957901E-01
  0.12566567E-02 -0.57772911E-02 -0.12167951E-02
 -0.51069167E-02  0.60159527E-02 -0.21740847E-03
  0.24836760E-02  0.43967488E-02 -0.15817012E-02
 -0.99539837E-02 -0.31102137E-02  0.15541491E-02
 -0.71046521E-02 -0.52855444E-02  0.15117450E-02
 -0.53523587E-02  0.27917810E-02 -0.67989339E-05
 -0.49196184E-02 -0.11963600E-01 -0.14152345E-02
  0.11403488E-02 -0.79156038E-04 -0.23502981E-03
 -0.91070469E-02 -0.28760136E-02 -0.16845668E-02
 -0.40049152E-03 -0.45443094E-03  0.21363347E-02
  0.64634123E-02  0.26411973E-02 -0.54763531E-02
 -0.19240258E-02  0.48717780E-03  0.72217449E-02
  0.86132980E-03 -0.13326257E-02 -0.50060841E-02
  0.90892452E-03 -0.20769372E-02  0.47116350E-03
 -0.35695864E-02  0.50057238E-02  0.24620930E-02
 -0.52924511E-02  0.57820618E-03 -0.63430016E-02
 -0.48429741E-02  0.57015151E-02  0.85429035E-02
  0.62517786E-02  0.27935970E-02 -0.47854563E-02
  0.18523838E-02 -0.37920749E-02 -0.85660951E-02
  0.80787311E-02  0.44537907E-03  0.19125642E-02
  0.25720499E-02  0.21775278E-02 -0.32490559E-02
 -0.29054081E-02  0.73449223E-03 -0.17944472E-02
 -0.28496673E-02 -0.97924425E-04  0.19483747E-02
 -0.70960821E-03  0.22967945E-02  0.11763123E-02
 -0.39661397E-02 -0.35903381E-02 -0.17621627E-02
  0.10102894E-02 -0.43061129E-02  0.14388607E-03
 -0.25231651E-02  0.62341162E-02  0.95083275E-04
 -0.12184467E-02 -0.18929331E-02 -0.13588162E-02
  0.36965808E-03 -0.35887547E-02  0.60777546E-02
  0.46491562E-02 -0.51795939E-02 -0.16104256E-02
 -0.67763761E-02 -0.37803550E-02  0.55900905E-02
  0.27030695E-02 -0.12371337E-03 -0.34029838E-02
  0.23273245E-03  0.44672008E-02  0.38975105E-02
  0.31317658E-02  0.90298119E-02 -0.72868444E-04
  0.27518874E-02  0.30282535E-02  0.82455274E-02
 -0.14025455E-02  0.53285276E-02 -0.26959778E-02
  0.13723455E-02  0.18327923E-04  0.51570083E-02
 -0.26651136E-02  0.50844055E-02 -0.49137935E-02
  0.73424246E-02  0.82534152E-02 -0.14753888E-02
 -0.65682863E-02 -0.21198982E-02  0.10626634E-03
  0.56446879E-02 -0.33906691E-02 -0.48734898E-02
  0.13157657E-03  0.32517192E-02  0.11500239E-01
 -0.19019673E-03  0.74262069E-02 -0.13681089E-02
  0.29972701E-04  0.49953749E-02 -0.91419733E-02
 -0.89210554E-03 -0.14137702E-02  0.43735130E-02
 -0.86417237E-02 -0.48819687E-02 -0.33556730E-02
 -0.63897940E-02 -0.10878194E-03  0.52264887E-02
  0.30972480E-02 -0.60096089E-02 -0.23320274E-02
 -0.43246074E-02 -0.81667344E-04 -0.94753647E-03
 -0.66174245E-02  0.63485518E-02  0.65755233E-02
 -0.23682333E-03 -0.34797205E-03  0.28507493E-02
 -0.11589855E-01 -0.23212176E-02 -0.56545564E-02
 -0.40043462E-02 -0.63233304E-02  0.21472791E-03
  0.13180935E-02  0.43402820E-02  0.99816304E-02
 -0.39051849E-02  0.30587272E-03  0.25585170E-02
 -0.75145185E-03 -0.10609152E-01  0.12051119E-02
 -0.27970861E-02 -0.11887266E-02 -0.44747567E-02
  0.48766541E-02 -0.36555432E-02 -0.67488750E-04
 -0.40538669E-02  0.36802011E-02 -0.21412988E-02
 -0.67695895E-02 -0.15826219E-01 -0.30712902E-02
 -0.44456529E-03  0.46764481E-02  0.22651472E-05
 -0.18579613E-02 -0.15626120E-02  0.30669871E-02
 -0.75900598E-02 -0.75374821E-03  0.62784616E-02
  0.74858831E-02  0.11867564E-02  0.58839083E-02
  0.22716708E-02  0.33235587E-02 -0.32617963E-02
  0.64081940E-02  0.36286540E-02 -0.63464729E-02
 -0.45761163E-02 -0.53860972E-02 -0.98150294E-03
 -0.65017827E-02 -0.40803981E-02  0.50186841E-02
  0.25814451E-02  0.25850881E-02 -0.25641615E-02
  0.25697500E-02 -0.14471978E-03  0.17946823E-02
 -0.20956617E-02 -0.23153510E-02  0.47611909E-02
  0.37628124E-02 -0.25257402E-02 -0.16663699E-02
  0.10476493E-01 -0.34648744E-02 -0.41135908E-02
  0.35129813E-02  0.46043433E-02 -0.35741554E-02
 -0.61768737E-02 -0.12665854E-02 -0.49399338E-02
  0.49008721E-02  0.32700569E-02 -0.10480415E-01
  0.41665572E-02  0.24297897E-03  0.75844164E-03
 -0.30732881E-02 -0.33022736E-02 -0.53525847E-02
 -0.40737462E-02  0.52762199E-02  0.39629940E-02
  0.26320007E-02  0.18449726E-02 -0.10982116E-01
 -0.45420327E-02 -0.45193450E-02 -0.98824876E-03
 -0.16672545E-02  0.26096938E-03 -0.37682319E-02
 -0.18480534E-03 -0.48655041E-02 -0.36377437E-02
  0.86157341E-02 -0.13794353E-02 -0.35205096E-02
  0.14186515E-02  0.29111539E-02 -0.13817754E-02
 -0.20390545E-02  0.93753139E-03 -0.90324900E-02
  0.85613899E-03 -0.18727345E-02  0.63937692E-02
  0.16325380E-02 -0.12372354E-02 -0.92972878E-02
  0.85494096E-03  0.11336600E-01 -0.94903971E-02
  0.35510954E-02 -0.78101659E-02  0.25896804E-02
 -0.10417152E-01 -0.59228085E-04 -0.31461441E-02
 -0.39431485E-02  0.12111253E-02 -0.81195052E-02
  0.56309257E-02 -0.30247106E-02 -0.20566643E-02
  0.24514064E-02 -0.58805596E-02 -0.60086917E-03
 -0.18916462E-02 -0.18091965E-02 -0.16233414E-03
 -0.68540763E-02 -0.26225412E-03 -0.35142414E-02
 -0.17401612E-02  0.50455797E-02  0.54553469E-02
 -0.12593803E-02 -0.85178870E-02 -0.35709841E-02
 -0.10469852E-01 -0.44060316E-02 -0.18683974E-02
 -0.88344459E-04 -0.32429775E-02 -0.14626149E-02
 -0.96345551E-02 -0.10891084E-01 -0.38559416E-02
 -0.20244670E-02 -0.43466998E-02 -0.47544629E-02
  0.29865306E-02  0.17389085E-01 -0.12864723E-04
 -0.72077095E-02  0.20217487E-02  0.14015661E-02
 -0.46506474E-02 -0.12537859E-02 -0.18648053E-02
  0.28237594E-02 -0.47699863E-02 -0.26909719E-03
 -0.17131532E-02 -0.22498333E-03  0.51777215E-02
 -0.77896981E-03  0.11554247E-01  0.58082038E-02
  0.58101707E-02  0.39180322E-02  0.71465190E-02
  0.87424155E-02  0.15327233E-02 -0.57771933E-02
  0.59695608E-02  0.25850662E-02 -0.11065579E-03
 -0.85377026E-03 -0.12491309E-01 -0.32842676E-03
 -0.45884136E-02 -0.90277536E-02 -0.22551139E-02
 -0.60837661E-02  0.14441328E-02  0.83731471E-02
 -0.11340180E-02 -0.80847036E-02  0.50220546E-02
 -0.10065000E-02  0.35571729E-02 -0.12623956E-03
  0.55617039E-02  0.43175326E-02  0.40539093E-02
 -0.47081311E-02 -0.51598448E-02  0.37070121E-02
  0.56652034E-02  0.16562974E-02  0.75049473E-02
  0.31742161E-02 -0.62068149E-02 -0.44631806E-02
  0.10567549E-01 -0.61839769E-02  0.42035895E-02
  0.12954739E-01  0.31915700E-02  0.24593107E-02
  0.81386589E-02  0.75302155E-02  0.53998328E-02
 -0.44037293E-02 -0.78635078E-03 -0.61770120E-02
 -0.78475485E-03  0.20883414E-02 -0.50085147E-02
 -0.26825623E-02  0.21598032E-02 -0.34085007E-02
  0.77162509E-02 -0.61723033E-03 -0.11253044E-02
 -0.12534714E-01  0.58840588E-03 -0.40166067E-02
 -0.13543766E-02  0.45744706E-02  0.41509926E-02
 -0.24725679E-02 -0.14154775E-02  0.42606535E-02
  0.82854221E-02 -0.52131124E-02  0.41138699E-02
 -0.12926796E-02  0.12798203E-02  0.11209367E-01
 -0.52272495E-02 -0.31327316E-02 -0.14949061E-02
  0.53653503E-02  0.58747052E-03 -0.43585477E-02
  0.10846663E-02  0.29708490E-02 -0.59570266E-02
  0.55904988E-02 -0.43337132E-02  0.78780077E-02
 -0.34700508E-02  0.90685032E-02 -0.11259381E-01
 -0.36587450E-02  0.43140319E-02 -0.43630102E-03
  0.18569333E-02 -0.20114110E-02  0.22513971E-02
 -0.24981112E-02  0.28107151E-02  0.23320700E-02
 
           1
   2.00000000000000     
  0.70807936E+00 -0.10894932E-03  0.00000000E+00  0.00000000E+00
  0.25171572E-01  0.97652555E+00  0.56277814E-02
  0.49971111E+00  0.41471424E+00  0.74345699E+00
  0.51202391E+00  0.50322848E+00  0.98262642E+00
  0.25631075E-01  0.93965841E+00  0.38246418E+00
  0.46588642E+00  0.16518531E-01  0.86132952E+00
  0.19340322E-01  0.50032270E+00  0.37901642E+00
  0.52410303E+00  0.46630831E+00  0.84535365E+00
  0.30347529E+00  0.26643950E+00  0.22708132E+00
  0.74678635E+00  0.21292750E+00  0.62074230E+00
  0.44927409E+00  0.95522815E+00  0.75866570E+00
  0.79224804E+00  0.76471305E+00  0.33879959E+00
  0.24072682E+00  0.22665587E+00  0.86981085E+00
  0.79665719E+00  0.26059746E+00  0.26376338E+00
  0.16663567E+00  0.60327807E+00  0.60508915E+00
  0.93467043E+00  0.95808573E+00  0.87916414E+00
  0.51229748E+00  0.43883716E+00  0.36681446E+00
  0.29518065E+00  0.25944962E+00  0.52016895E+00
  0.15422963E-02  0.44315773E+00  0.76949734E+00
  0.20607353E+00  0.93819372E+00  0.11214644E+00
  0.73965252E+00  0.22303310E+00  0.74091985E+00
  0.50295302E+00  0.48153385E-01  0.38474954E+00
  0.27097821E+00  0.44703927E-01  0.37011852E+00
  0.70061778E+00  0.67893805E+00  0.90293177E+00
  0.95423485E+00  0.46441608E+00  0.63240246E+00
  0.33393191E+00  0.75401716E+00  0.12245605E+00
  0.97175464E-01  0.26181756E+00  0.61795129E+00
  0.82740674E+00  0.94239676E+00  0.11626510E+00
  0.77489325E+00  0.21606225E+00  0.50290111E+00
  0.29354375E+00  0.75956270E+00  0.47526929E+00
  0.53148992E+00  0.99930688E+00  0.12127395E+00
  0.98422387E-04  0.48619033E-01  0.48399583E+00
  0.48973418E+00  0.70222942E+00  0.75095343E+00
  0.70404464E-01  0.94109184E+00  0.22297552E+00
  0.22114093E+00  0.25312381E+00  0.75444505E+00
  0.99589917E+00  0.18854649E+00  0.19245878E-01
  0.44138074E+00  0.86440948E+00  0.63530338E+00
  0.49161030E+00  0.99528343E+00  0.98681718E+00
  0.74339736E+00  0.23831202E+00  0.38119895E+00
  0.95211181E+00  0.81788675E+00  0.73378662E+00
  0.86894506E+00  0.73604489E+00  0.20130230E+00
  0.51619961E-01  0.24459570E+00  0.23756839E+00
  0.50829760E+00  0.75775641E+00  0.19072069E-02
  0.68851824E+00  0.98601106E+00  0.87080398E+00
  0.98793788E+00  0.50980074E+00  0.24486705E+00
  0.24324972E+00  0.48875987E+00  0.86462573E+00
  0.80588077E+00  0.70450594E+00  0.51533116E+00
  0.27771683E+00  0.79231144E+00  0.36630262E+00
  0.97753764E+00  0.44155789E+00  0.98538423E+00
  0.13296904E+00  0.92291767E+00  0.62853893E+00
  0.50673434E+00  0.49868147E+00  0.12272876E+00
  0.82697921E+00  0.45694030E+00  0.87980301E+00
  0.54129923E+00  0.60908442E-02  0.24072620E+00
  0.52390144E+00  0.23098308E-01  0.53190912E+00
  0.76719230E+00  0.72216083E+00  0.29843518E-01
  0.67585279E+00  0.46730436E+00  0.61765922E+00
  0.25121552E+00  0.72373116E+00  0.99852102E+00
  0.68000044E+00  0.24872374E+00  0.86605686E+00
  0.52392719E+00  0.47070596E+00  0.48338882E+00
  0.24251684E+00  0.47155965E+00  0.11536937E+00
  0.99425151E+00  0.42815566E+00  0.50756169E+00
  0.19749509E+00  0.99596566E+00  0.85569608E+00
  0.29650279E-01  0.74345356E+00  0.48633032E+00
  0.99819889E+00  0.69098292E+00  0.99300494E+00
  0.56292960E+00  0.72733874E+00  0.48571608E+00
  0.49239428E+00  0.50737089E+00  0.24851405E+00
  0.72392829E+00  0.71809204E+00  0.75108210E+00
  0.57037761E+00  0.74756435E+00  0.23817856E+00
  0.46464289E+00  0.14838520E+00  0.71168099E+00
  0.27629237E+00  0.72007264E+00  0.24133669E+00
  0.99600819E+00  0.97009570E-01  0.76752422E+00
  0.54326731E+00  0.24301255E+00  0.26601475E+00
  0.19131778E+00  0.76798237E+00  0.76495835E+00
  0.24384947E-01  0.46908402E+00  0.12220137E+00
  0.70960452E+00  0.97748343E+00  0.62378300E+00
  0.73508224E+00  0.26284282E+00  0.99400573E+00
  0.23589382E+00  0.26115283E+00  0.41000532E+00
  0.22432491E+00  0.74511645E+00  0.88621241E+00
  0.75137427E+00  0.98032907E+00  0.37030014E+00
  0.77588996E+00  0.23076225E+00  0.11986364E+00
  0.33146361E+00  0.43591948E+00  0.63217818E+00
  0.50275469E+00  0.27630780E+00  0.99221717E+00
  0.25688768E+00  0.52891769E+00  0.37776224E+00
  0.74609595E+00  0.75736175E+00  0.62418257E+00
  0.26318662E+00  0.21117215E+00  0.11040981E+00
  0.29298403E+00  0.70262846E-01  0.62017022E+00
  0.76576158E+00  0.53044579E+00  0.12072464E+00
  0.26961802E+00  0.21996984E+00  0.98874142E+00
  0.79478522E+00  0.49400611E+00  0.36907944E+00
  0.29529345E+00  0.91879639E-02  0.24643116E+00
  0.75773813E+00  0.49347208E+00  0.74827458E+00
  0.18244960E+00  0.86721809E-02  0.73008165E+00
  0.74339069E+00  0.49249775E+00  0.24084376E+00
  0.25989520E+00  0.97089730E+00  0.99143810E+00
  0.76054310E+00  0.48085471E+00  0.50521879E+00
  0.24203851E+00  0.24134519E-01  0.48943933E+00
  0.74315664E+00  0.50699658E+00  0.10747004E-01
  0.69882395E+00  0.96699860E+00  0.75391672E+00
  0.24252556E+00  0.49472939E+00  0.24835393E+00
  0.24516341E+00  0.52557123E+00  0.74631490E+00
  0.79617019E+00  0.97658731E+00  0.24135871E+00
  0.26133958E+00  0.50818719E+00  0.50466586E+00
  0.74348635E+00  0.98946336E+00  0.99969944E+00
  0.74926175E+00  0.95522316E+00  0.49146614E+00
  0.25436686E+00  0.48710357E+00  0.98984432E+00
  0.99571745E+00  0.23470517E+00  0.38376997E+00
  0.47274661E+00  0.74927704E+00  0.88475850E+00
  0.48919547E+00  0.23741872E+00  0.62212056E+00
  0.33636740E-01  0.72010680E+00  0.12570307E+00
  0.97369248E+00  0.21652247E+00  0.87309054E+00
  0.54699456E+00  0.75121833E+00  0.36749002E+00
  0.98075758E+00  0.72613126E+00  0.62691577E+00
  0.51082387E+00  0.22723053E+00  0.11320358E+00
  0.17127281E+00  0.35624276E+00  0.44848039E-01
  0.65474738E+00  0.85500913E+00  0.55020659E+00
  0.65395568E+00  0.10369938E+00  0.94977895E+00
  0.17380978E+00  0.60777693E+00  0.45832634E+00
  0.35221061E+00  0.36519665E+00  0.94299789E+00
  0.83282514E+00  0.84451841E+00  0.44582590E+00
  0.84626500E+00  0.85172905E-01  0.44709853E-01
  0.36341306E+00  0.58356802E+00  0.55682658E+00
  0.88277827E+00  0.10217562E+00  0.20261137E+00
  0.34042884E+00  0.61499924E+00  0.69359731E+00
  0.90586410E+00  0.90269688E+00  0.29418028E+00
  0.32494433E+00  0.41159090E+00  0.79454914E+00
  0.15436407E+00  0.57917969E+00  0.30620386E+00
  0.60584380E+00  0.70003015E-01  0.80112254E+00
  0.12885309E+00  0.40523968E+00  0.19526516E+00
  0.59911536E+00  0.85274532E+00  0.70879660E+00
  0.84912428E+00  0.58698314E+00  0.95985905E+00
  0.36658217E+00  0.10994100E+00  0.44849858E+00
  0.82586744E+00  0.37875739E+00  0.55979483E+00
  0.35871168E+00  0.87938009E+00  0.39657044E-01
  0.16407440E+00  0.11180487E+00  0.54612570E+00
  0.63388604E+00  0.60226380E+00  0.44092126E-01
  0.14404515E+00  0.86338266E+00  0.95226720E+00
  0.67842639E+00  0.38617808E+00  0.44164010E+00