Na88 Sn16 P8 S96                        
   1.00000000000000     
    13.4813327813000008    0.0000000000000000    0.0000000000000000
     0.0000000000000000   13.4813327813000008    0.0000000000000000
     0.0000000000000000    0.0000000000000000   26.9626655626000016
   Na   Sn   P    S 
    88    16     8    96
Direct
  0.9700009181771846  0.9529299575079978  0.5204180361707916
  0.4848755152146202  0.4585430194436472  0.8932712407650120
  0.2071405115449652  0.7363249948805228  0.7221829224377885
  0.6703570803910147  0.7834772795101237  0.2645273023820800
  0.0501886058060615  0.8589230131484787  0.0051477211653472
  0.0286920908280697  0.4880684824985381  0.7516275261929665
  0.0022567726548938  0.7799062200154525  0.2781313947591413
  0.2354089965850639  0.9063207388885727  0.1162159437029900
  0.9905879898650561  0.0231752095081158  0.7542002775143167
  0.7388774355397025  0.5318198324342691  0.8722692803885822
  0.4534463082521071  0.7315747248871453  0.5160316204877412
  0.2831227085112881  0.7447019001068466  0.9670020401710709
  0.4544266292753547  0.7675120147339786  0.2426833128457833
  0.2196752067509075  0.7470194314105278  0.5012049584336487
  0.4854673417733283  0.2129645517213364  0.4827023816332485
  0.4826243590439754  0.4729814750323859  0.3785912004476908
  0.7787263405924693  0.0586716846147213  0.8519235905618058
  0.2688125133155611  0.2489658563854468  0.7482107026613741
  0.5122658485035777  0.0286466656906962  0.0144018023073219
  0.0093143314296631  0.4821866896890756  0.1355879513473946
  0.9406588976493451  0.9750122095491943  0.3806033220936729
  0.2331427011548365  0.2678987019746888  0.2763784580743088
  0.2335295319835233  0.4439375235933938  0.8624950163558109
  0.2215774462573580  0.2811942936293144  0.6411406464983129
  0.0231783355252026  0.0483356146935052  0.9539334749239705
  0.1374879557206302  0.0959680434839771  0.8519809949644150
  0.5356435021128306  0.2725875465499606  0.9848872750759934
  0.7882032030383613  0.2949025896625111  0.1099433331935554
  0.5013794690787523  0.4477013394331052  0.4975088114539626
  0.5030484171768663  0.7513260088043912  0.9987698710865875
  0.7422710928657179  0.5283166682828595  0.6304616800917460
  0.4520626599500085  0.0055345561783330  0.5952367845979926
  0.6713004880953541  0.7866988391986631  0.1134810996142941
  0.3327317842545334  0.9254072343042293  0.8694167295692133
  0.8116675001852012  0.2519309177352645  0.9540397343671443
  0.8004804447641547  0.2617244225870223  0.4774817259398484
  0.7806703754754654  0.4356647572192368  0.3760355736841038
  0.2586279915653272  0.2409173656152482  0.3832352704681184
  0.5429938725980918  0.0272470730349019  0.8912071628820557
  0.9819927881639695  0.4980393698525238  0.6193721677751565
  0.7625308199776636  0.6952053781761425  0.3559857140485084
  0.5252706615947187  0.5125672571991985  0.7357342513398003
  0.5061996322675272  0.5200949011104657  0.2476789032417097
  0.0092097133251710  0.7622921750688066  0.4621049907601372
  0.5423854406153917  0.2539384549349285  0.7436895758696532
  0.4931698200010579  0.9557233585004368  0.4582550162334535
  0.1779020109027141  0.7461774235259124  0.3708188987656771
  0.2792073720542461  0.2424385691890830  0.0038411140550991
  0.3088713765691514  0.2336038806296117  0.8738322460320452
  0.5126274816369435  0.5433446155473221  0.1071369965542919
  0.0043899899810202  0.7523477986818287  0.7749054443413049
  0.4527435899182038  0.9876779029287178  0.3051027077689682
  0.1537293304964295  0.2205046215626146  0.4800432451321128
  0.5069022064327153  0.2497818446754468  0.2568845577059283
  0.9861196306864748  0.2556290704216770  0.2400484916729568
  0.7822321555940202  0.7328798363054048  0.0107883865165634
  0.9574771070048267  0.0085442309359449  0.2557063652072084
  0.4881099245529842  0.5300012327498542  0.6209977363621416
  0.7864267191398874  0.8392458771144568  0.8908929904414695
  0.7206740318005985  0.7356076395459280  0.4869866959119611
  0.7487736662443679  0.2299131899098324  0.2729179800350711
  0.9915589698062646  0.4575234178786140  0.4682363639306363
  0.0137034562588211  0.2782225581447029  0.0125686886842081
  0.8468404197778310  0.2835181958860754  0.7678655332505411
  0.7038204187490026  0.9901162806199704  0.3707737958439691
  0.4867953872291039  0.0169720124303599  0.7564003878619290
  0.2368577172025189  0.5803744757520833  0.1345600212056537
  0.7412749003123200  0.2547503543194141  0.6259714935116190
  0.2252212026600782  0.7776156971783759  0.2138791155562566
  0.2190294706281789  0.9869594762468784  0.6172306764772072
  0.8225007424072579  0.5858638169719899  0.1299958263640910
  0.7446441458694444  0.9462454979437941  0.6071099112250892
  0.9997374588564754  0.5191716329868081  0.9884863897907918
  0.7223539860977575  0.7243064663877391  0.6125593369271315
  0.0089974368852505  0.1068729584303919  0.1162775328743363
  0.2337843278948276  0.4921718684256653  0.3606365157152601
  0.0271621535114115  0.6148794466795379  0.8677784334518439
  0.4557989711992231  0.0670675039198384  0.1491144574964550
  0.7924817375114990  0.0439771072743801  0.1108210103258319
  0.2080646922304758  0.5355674862565494  0.6292342333784228
  0.7773697797502069  0.7501714923708501  0.7556493628955440
  0.2604304802242450  0.9503994054106353  0.3628015018826944
  0.4833090735523740  0.7369049236179717  0.7421480270743849
  0.2815716834315901  0.2813025738740493  0.1280575408017068
  0.9952274731109517  0.0461633589540265  0.6291659021047612
  0.5168858183720932  0.5413786441448690  0.9886869290955485
  0.3123467580834071  0.7445722652935405  0.6270645478558593
  0.0066332472670018  0.5002009899333036  0.2699641964485944
  0.2020996279132428  0.0313811151335963  0.2560013781907900
  0.7860415807466634  0.5137310611165442  0.7395582949787142
  0.2271176238436031  0.0075747119104452  0.7446789109000976
  0.7439664529614517  0.4923573011506401  0.2430906299189230
  0.2614152672333190  0.9847985398365927  0.9921255445259457
  0.7355110763524835  0.4846539946294025  0.4910978490778367
  0.2275497678249818  0.0024219962427804  0.4976383754811369
  0.7668717207884480  0.4989590027030820  0.9919511238383897
  0.7309619604851973  0.0284876765635668  0.7373251393659338
  0.2612584641415205  0.5003545868484991  0.2450943494273338
  0.2613021961114785  0.5162534849268829  0.7488233425777553
  0.7218639688243045  0.9907961763306137  0.2343453308441060
  0.2430295993473884  0.4821499284666729  0.4954529706862098
  0.7649356404682879  0.0214047993515618  0.9920325967782682
  0.7275304582078032  0.0271222961921806  0.4971882356390580
  0.2438935593586058  0.4932070527677171  0.0076903756637918
  0.0199441914939206  0.2426959197974589  0.3605035121304159
  0.5257264526585042  0.7583927835864499  0.8676680250017932
  0.4784280733078581  0.2507650484925059  0.6118100268562017
  0.0115604182549984  0.7685796001890539  0.1287412609712417
  0.0137795763928276  0.2945925188744247  0.8694820590654408
  0.5030377882399074  0.7349191038720730  0.3771925024757303
  0.9872116258793593  0.7646768155035318  0.6249591008917120
  0.5342643850110207  0.2828041824081284  0.1236678471224646
  0.1720916052854848  0.3829107198750093  0.0584936106419677
  0.6134891219223702  0.9216605805043671  0.5414428482762601
  0.6565121416250904  0.1086687933893657  0.9392653552123622
  0.1382107655061486  0.5977570219247778  0.4424124540211352
  0.3685447999648758  0.3867705514756822  0.9541314914237654
  0.8348688743187554  0.8990722635326865  0.4495642965010481
  0.8740724129128972  0.1425701376684356  0.0341030778623779
  0.3743293632899762  0.5670378999247138  0.5379025034226133
  0.8210920570809224  0.1172144154049494  0.2002835552818071
  0.3637719745837443  0.6163576155875421  0.6899855254724776
  0.8325298269442214  0.8746487637116511  0.2855745257793855
  0.3693883214120676  0.4064769248070463  0.7987739921058344
  0.1654300651851358  0.6067231368250841  0.3011812238157898
  0.6231012469717981  0.1208701522017775  0.7912873517972308
  0.1678983445694615  0.3959275023343559  0.1893800075192008
  0.6298071854865063  0.9104761898518424  0.6882301673567351
  0.8420268730483943  0.6302813605450001  0.9448514792880771
  0.3437779785813943  0.0677460138753300  0.4363338916378455
  0.8319229071459006  0.4146713173897482  0.5565965190966129
  0.3549792330030435  0.8608449584288824  0.0361028165265020
  0.1247778605550320  0.0961660798119658  0.5475429446585908
  0.6616724275551772  0.6057771352992647  0.0542603070930689
  0.1709748785211273  0.8975122570648872  0.9231575368233771
  0.6294039393395470  0.3693263288351587  0.4415794796664189
  0.6354994747544301  0.3754445730038092  0.2869135748664161
  0.1393335608739776  0.9186667368328306  0.8035177168053189
  0.1462344796024233  0.1139614898523941  0.6863434394841624
  0.6530266609095120  0.6072370095735110  0.1926309324784505
  0.8725892004214834  0.4116097894519712  0.6838286790930022
  0.3301164533985971  0.9375179090488266  0.2131691213371025
  0.3248698373760966  0.1244841269887540  0.3044869104548885
  0.8875784371951917  0.5959580412143869  0.8006845427124908
  0.1248415215443434  0.0457061867958390  0.0367052146929105
  0.6261602737406645  0.5952962901132114  0.5392156761482293
  0.6396786140350603  0.4230919146558098  0.9432212174121674
  0.1414621752031882  0.8965223559227595  0.4447850267888745
  0.3846419077763954  0.1217644025812362  0.9510593978713860
  0.8413871416924426  0.6059613894115364  0.4482616115069364
  0.8729872964451660  0.4247639118335275  0.0497636642598493
  0.3218105823238270  0.8724739659497552  0.5476680895143434
  0.1353744859825879  0.1454680871126625  0.1970345917822969
  0.6544324254589322  0.6224099035777675  0.6941582278778947
  0.1022318193558542  0.9331647382281870  0.3101258002943695
  0.6707776937079184  0.4190987260000972  0.7903150870366982
  0.8544254325167711  0.5814359209629599  0.2974878220367168
  0.3297573683908965  0.0900761959933872  0.8042936352259960
  0.8422742016321344  0.3798858756268781  0.1984828056188165
  0.3424112916268997  0.9234302788641103  0.6916737017789959
  0.8973185570504837  0.9065571647159680  0.9587193559765320
  0.3348250440036787  0.3829803351282922  0.4330073026816793
  0.8359012227267597  0.1064758288049284  0.5601398068795004
  0.3616920253132941  0.5986840144140685  0.0515609919003263
  0.1431665275069053  0.3780748233713134  0.5389112845368065
  0.6447828221284096  0.9333045458343457  0.0437235010379426
  0.1643075854994623  0.5816033598742770  0.9458640477284128
  0.6658557948093702  0.1295831761845759  0.4361466820571933
  0.3639167599016194  0.4109885548171324  0.2953764032882928
  0.8262608276570783  0.9183418762538195  0.8012374420944824
  0.8641164690507998  0.1270780783322568  0.7016942861821390
  0.3588202113547162  0.6216798058323320  0.1992420193875289
  0.1677138981103888  0.4079326272864330  0.6988483510765946
  0.5801103215485202  0.8790208539566357  0.1881866327030905
  0.6188850784628139  0.0679604634982588  0.2953935827936223
  0.1410309047069524  0.6202389591736962  0.7925694252400093
  0.1067381499439601  0.1277483181571850  0.3823842891413414
  0.6114508593405754  0.8282477587180154  0.9256883180447090
  0.4023377518608769  0.1699022187942893  0.6633691714028221
  0.0580460739946315  0.9111885438243452  0.1596361098900679
  0.5707492345341240  0.3639221190253464  0.6529512119044696
  0.0129137734853183  0.6499290014019319  0.1841319947525155
  0.1099391304536741  0.3579607141848592  0.3346544097139071
  0.4193122533688939  0.6712221263027103  0.9131452856925832
  0.1080195784095698  0.2308468895411885  0.9311515793749835
  0.5717311184350560  0.6416540036659951  0.3275701462334540
  0.8847623028176164  0.8312589649947243  0.5872745146168260
  0.4396960925541386  0.2158055273925859  0.0776964929411970
  0.9177059307276596  0.6715508898275442  0.6718371143856622
  0.4585776989747022  0.3664499972168791  0.1766832167612436
  0.9312031549665115  0.1601839344832783  0.8556387978896862
  0.4460246059826506  0.6453418035282400  0.4343488692926412
  0.0476365942014061  0.8751708015465141  0.6728120225377359
  0.6214867185729149  0.3722163859296888  0.0788860689746043
  0.1025024023987825  0.3287204484991252  0.8076358732196252
  0.3747430446176783  0.8090618944966190  0.3367421123993712
  0.9507841111869874  0.4098768111541385  0.9060634432415251
  0.5754794817552854  0.8528469015452403  0.3996704359764926
  0.0939261737602385  0.6845558525007822  0.5880317203719415
  0.6205215005248361  0.1944993934794352  0.1625985203683931
  0.5928853468169567  0.1503841989993389  0.5895851540852816
  0.8748763957862520  0.7927046267358100  0.0962347939314403
  0.9118068509039423  0.1641038917045216  0.3158570627414800
  0.4722435654444026  0.8780829804553612  0.8236468548824571
  0.9432340050011340  0.3078685529707488  0.4192970595766979
  0.5873573430837774  0.6448797200755420  0.8158876246733611
  0.3764482935363581  0.2941654673094670  0.5649493743342454
  0.1277026716817926  0.7394454998840393  0.0795387384491047
 
  0.49537339E-02 -0.28031700E-02  0.46922677E-02
  0.97637019E-02 -0.12138295E-02 -0.27217126E-02
  0.67429690E-02  0.16295916E-02  0.93248640E-02
 -0.17620723E-02  0.55156931E-03  0.79796295E-02
  0.21505375E-02  0.14760710E-01 -0.15033914E-02
  0.51236563E-02  0.96364417E-02 -0.46362449E-02
  0.16545535E-02  0.11429884E-01  0.57264379E-02
  0.13995616E-02  0.23378645E-02  0.13855489E-02
 -0.14898262E-01  0.49212016E-04 -0.19597688E-03
 -0.98722928E-02 -0.99392530E-02 -0.41978939E-03
 -0.10079280E-01 -0.98221748E-02 -0.47412487E-02
  0.54525795E-02 -0.86597154E-03  0.34519831E-02
 -0.52692886E-02  0.67454491E-02  0.95059477E-03
  0.15863677E-02 -0.37408407E-02 -0.51419074E-02
  0.25482002E-02  0.83653645E-04  0.49892884E-03
 -0.13442707E-02  0.18374595E-02  0.57704952E-02
  0.25929846E-02 -0.42759372E-02 -0.79810344E-02
 -0.75306889E-02 -0.76857939E-02  0.20179885E-02
 -0.24679152E-02  0.10431713E-01 -0.13010577E-01
 -0.14581300E-02 -0.28914715E-03  0.52874494E-02
  0.18744057E-02  0.18310063E-02 -0.65782813E-02
  0.27814969E-03  0.23777097E-02  0.16789261E-02
  0.99772729E-02 -0.25099601E-02  0.55208373E-02
 -0.47802929E-03 -0.21052093E-02  0.37451171E-02
 -0.37520968E-02  0.80980467E-02 -0.41695929E-02
 -0.23242570E-02 -0.37375570E-02  0.37058770E-02
  0.89370061E-03 -0.50001225E-03 -0.24526620E-02
 -0.14083877E-02  0.52886762E-02 -0.19674088E-02
  0.99111344E-02  0.98122996E-02 -0.14691528E-02
  0.45192970E-02  0.34883279E-02 -0.10540580E-01
  0.32606216E-02 -0.90893418E-02 -0.62034084E-02
  0.25256447E-02  0.16670328E-02  0.41641021E-02
  0.12902714E-02  0.56206702E-02  0.11743183E-01
  0.32171301E-02 -0.41013515E-02 -0.11271797E-01
  0.19823702E-02 -0.78004526E-02 -0.38449860E-03
 -0.51336817E-02  0.78964869E-02 -0.25596851E-02
 -0.39994921E-03  0.11058986E-01 -0.64239193E-02
 -0.46496062E-02 -0.52625969E-02 -0.93355728E-02
  0.82434246E-03 -0.88109527E-02 -0.39419536E-02
 -0.78378117E-02 -0.97512109E-02  0.85328032E-02
 -0.67499913E-02 -0.11300487E-02  0.46691202E-02
 -0.89078698E-03  0.38595406E-02  0.33390961E-02
 -0.48656988E-02 -0.20431941E-03 -0.14553318E-02
 -0.21794327E-02  0.58485422E-03 -0.12675727E-01
  0.74417848E-02 -0.27410631E-02  0.15326939E-03
  0.36594348E-02  0.92105768E-04  0.42148585E-02
 -0.46881863E-02 -0.14546756E-02 -0.23258927E-02
  0.66332886E-02  0.46066989E-02 -0.50702083E-02
 -0.85551819E-03 -0.72549312E-02  0.43218604E-02
 -0.38355830E-02 -0.66003184E-02  0.17629259E-02
 -0.35854285E-02  0.93384370E-03 -0.17666870E-02
 -0.39509190E-02 -0.15615807E-02 -0.49239675E-03
  0.68176808E-03 -0.64822406E-02 -0.36806646E-02
  0.22944245E-04 -0.12768166E-01 -0.17302376E-02
  0.53928890E-02 -0.48324800E-02  0.74353849E-02
 -0.43472520E-02  0.28863179E-02  0.81442433E-03
  0.84194897E-02 -0.33304622E-02  0.91882219E-02
  0.25700413E-02  0.13277241E-02 -0.66006071E-02
  0.37000258E-02  0.69236705E-02  0.15297093E-01
 -0.16022174E-03  0.72848349E-02 -0.15193308E-02
 -0.47526846E-02 -0.50957476E-02 -0.22959938E-02
 -0.55492377E-02  0.53488707E-02  0.76786497E-02
 -0.70276023E-03  0.11185306E-01 -0.66139553E-02
  0.69802041E-02 -0.29981076E-02 -0.57605780E-03
  0.57380087E-02 -0.10050901E-02  0.18131085E-02
  0.10290335E-01 -0.13612235E-01  0.31124615E-02
 -0.51416926E-02 -0.89721062E-03 -0.32941274E-02
 -0.55872502E-02  0.85259310E-03  0.54516955E-02
 -0.33657675E-03 -0.49105311E-02 -0.78462705E-02
  0.47033779E-02 -0.29644727E-02  0.45373650E-02
  0.51807467E-02 -0.95537432E-02  0.89532269E-02
 -0.13458571E-01  0.29068708E-02 -0.62670376E-02
 -0.66287402E-03  0.84988061E-02 -0.60618794E-02
  0.58226232E-02  0.24456943E-02 -0.94520192E-02
  0.29212621E-02  0.40451068E-02  0.36025143E-02
 -0.42581681E-02  0.26684590E-02 -0.60780271E-02
  0.43613732E-02 -0.57878649E-02  0.10554060E-01
  0.52697483E-03 -0.52794043E-02  0.13768324E-02
  0.68331913E-02 -0.15351236E-02  0.77362957E-02
 -0.92829724E-02  0.55111425E-02 -0.19589991E-01
 -0.54673142E-02 -0.30902983E-03 -0.48682350E-02
 -0.22584781E-02  0.14337461E-01  0.22672245E-02
 -0.72911374E-02  0.13374745E-02  0.26300805E-02
 -0.39337015E-02  0.33830413E-02 -0.13893469E-02
 -0.10096527E-01 -0.11433677E-02 -0.58494865E-02
  0.52303176E-02  0.33253855E-02  0.10075440E-01
  0.79990673E-04  0.15141897E-01 -0.35868437E-02
 -0.58128427E-02 -0.45969657E-02  0.11274329E-01
  0.86864626E-03  0.43862923E-03 -0.67706437E-03
  0.16901469E-02  0.14021641E-02 -0.74899291E-03
  0.12615379E-02  0.22859844E-02  0.19120429E-02
  0.29623061E-02 -0.45165120E-02  0.39952949E-02
  0.20880032E-02  0.36453784E-02  0.10879728E-02
 -0.30038155E-02 -0.37530546E-02  0.21689973E-02
  0.18673000E-02  0.20302453E-02  0.19371059E-02
 -0.33929708E-02 -0.35962979E-02 -0.50085776E-02
 -0.19221191E-03 -0.35485116E-02  0.30319608E-02
  0.30135736E-02 -0.17559879E-02 -0.70953008E-02
  0.18420634E-03 -0.95118885E-02 -0.26936448E-02
  0.35276873E-03 -0.52572729E-03  0.20195216E-02
 -0.17039917E-02  0.32252575E-02  0.70739100E-02
 -0.49496708E-03 -0.53253862E-02 -0.86622485E-03
 -0.46151811E-03  0.28102278E-03 -0.23914154E-02
  0.10412098E-02  0.23982064E-02 -0.79498451E-03
  0.18301787E-02  0.18666305E-01  0.27039118E-02
 -0.98333811E-03 -0.13970480E-02 -0.22520491E-02
  0.92411199E-03 -0.25329092E-03 -0.70434311E-02
  0.42684103E-02 -0.47364328E-03 -0.22356863E-02
  0.59676887E-02  0.15663138E-02  0.33485270E-02
 -0.94642064E-02  0.19018758E-02 -0.25730047E-02
 -0.38179462E-02  0.20542455E-02  0.92402714E-02
  0.24512474E-03  0.26284026E-02 -0.72669137E-03
  0.18163991E-02 -0.32844031E-02 -0.16201142E-03
  0.40242908E-02  0.59099555E-02 -0.34102834E-02
 -0.32240852E-02 -0.21398760E-02 -0.25652295E-02
  0.22381773E-02 -0.65852049E-02 -0.99584274E-03
 -0.49326537E-02 -0.75036292E-02 -0.45019267E-02
  0.38934607E-02  0.42319507E-02 -0.98076541E-02
 -0.19203513E-02  0.47147314E-02 -0.55226985E-02
  0.83131906E-03  0.72957813E-02  0.50241507E-02
  0.33526318E-02 -0.17617757E-03  0.35521636E-02
 -0.10994303E-02 -0.31521290E-03  0.20581073E-02
 -0.75402896E-02  0.11946358E-01 -0.81063482E-02
 -0.28496378E-02 -0.27111207E-02 -0.12184126E-03
 -0.50718519E-03  0.63119114E-02 -0.76684548E-02
  0.67050551E-02  0.36988508E-02 -0.28627608E-02
 -0.10642859E-02  0.41123841E-02  0.38136876E-02
 -0.71819484E-03 -0.37827546E-04 -0.12256645E-02
 -0.89693531E-03 -0.70557151E-02 -0.12186831E-03
 -0.69942902E-04  0.36490544E-02 -0.36603146E-02
  0.44990039E-02 -0.34175674E-02  0.13117949E-03
 -0.82182560E-02 -0.54455052E-02  0.11401987E-01
  0.11457494E-02 -0.54299932E-03 -0.79788530E-02
 -0.33489870E-02 -0.12398555E-02 -0.14029561E-02
  0.83875208E-03 -0.49264360E-02  0.65591781E-02
  0.21283291E-02 -0.21436057E-02  0.58966030E-02
  0.14120542E-02  0.52558358E-02 -0.44495581E-02
 -0.20711507E-02 -0.50907045E-02  0.29698031E-02
  0.36215366E-02  0.42602583E-02  0.93100430E-03
  0.76622085E-03  0.44084697E-02  0.39334181E-02
 -0.31802365E-03 -0.12214067E-01  0.37175459E-02
 -0.10537143E-01  0.28598397E-02  0.14514798E-01
  0.26357998E-02  0.33019407E-02  0.20021895E-02
  0.31195712E-02 -0.25437798E-02  0.96734452E-02
 -0.47974382E-02 -0.16250072E-03  0.31701380E-02
 -0.49283881E-02 -0.35095145E-02 -0.29129244E-02
  0.11500992E-01 -0.71843705E-02  0.34193884E-03
 -0.37799787E-02  0.16741233E-02 -0.60324166E-02
 -0.10577299E-01 -0.48792595E-02 -0.31942028E-02
  0.77554735E-03 -0.50173465E-02  0.36052326E-02
  0.48257139E-02 -0.80018243E-02  0.18273886E-02
 -0.85273013E-02  0.77897919E-02  0.69694339E-02
  0.56765234E-02 -0.92856366E-02  0.11438801E-01
  0.34944152E-02 -0.13570844E-02 -0.31982048E-02
 -0.12051134E-02  0.18626670E-03  0.21450121E-02
 -0.28718727E-03  0.77426374E-03 -0.57899980E-02
  0.31729564E-03  0.23859415E-02 -0.11991143E-02
  0.49615913E-02 -0.81428008E-02  0.12408023E-01
  0.33044536E-02  0.21652568E-02  0.52906723E-02
 -0.57241304E-02  0.79665538E-02  0.38892384E-02
  0.44637405E-02  0.34344313E-02  0.36503748E-02
  0.21774188E-02  0.42939932E-02  0.13211132E-02
 -0.17103622E-02  0.29203530E-02  0.12894774E-02
  0.34228124E-02 -0.58000839E-02  0.21573044E-02
 -0.22522331E-02  0.17593557E-02 -0.30894530E-02
 -0.34741080E-03  0.37602162E-02  0.16798758E-03
  0.50706956E-02  0.32914124E-02 -0.78392439E-02
 -0.25673079E-02  0.23652292E-03 -0.29069463E-02
  0.79611560E-02  0.59198227E-02  0.11959015E-02
 -0.58678340E-02  0.29317655E-02  0.49454681E-02
 -0.36931800E-02  0.19292640E-02 -0.30976894E-02
 -0.27617743E-02  0.21658368E-02 -0.20623305E-02
 -0.54195901E-03  0.28370173E-02  0.38798939E-02
 -0.67019028E-02 -0.70776259E-02  0.37764930E-02
 -0.56432562E-04 -0.26607890E-02 -0.10356697E-01
 -0.10499031E-02 -0.15118715E-03 -0.80442106E-02
 -0.11513447E-02  0.34474988E-02  0.34139611E-02
 -0.55192102E-02  0.17848682E-02  0.42702117E-03
  0.15828025E-02  0.56806876E-02 -0.40765888E-02
 -0.66805894E-03 -0.30944873E-02  0.92089869E-02
  0.39586250E-02  0.61546228E-02 -0.37551917E-02
  0.56745121E-02 -0.56834788E-02 -0.60244745E-02
 -0.70845496E-02  0.53829057E-02  0.19715070E-02
  0.16698046E-02 -0.35607352E-03  0.25098171E-02
 -0.47609959E-02 -0.18045148E-02  0.12493001E-02
  0.15294596E-03 -0.13817631E-02  0.15741019E-02
  0.15960335E-02 -0.25284756E-02  0.25282725E-02
  0.38948728E-02 -0.21702546E-02 -0.49783461E-02
 -0.62905633E-03 -0.36395701E-02  0.11598509E-02
  0.30176228E-03  0.80259459E-02 -0.12224099E-02
  0.20349680E-03  0.17492898E-02 -0.28426729E-02
  0.12707261E-02 -0.16882855E-02 -0.54486657E-02
  0.74957543E-02  0.14124341E-02 -0.12265310E-01
 -0.38264212E-03 -0.90457160E-02 -0.33851259E-03
 -0.48439791E-02  0.16390381E-02  0.42570777E-02
  0.68231489E-02  0.47041483E-03  0.45466101E-02
  0.20957081E-02  0.21752201E-02  0.64798241E-03
 -0.10287589E-02  0.55056645E-02 -0.14618635E-02
 -0.58127498E-02  0.43481882E-02 -0.26736701E-02
 -0.19396507E-02  0.27318544E-02  0.32313304E-02
 -0.23061430E-02 -0.33044987E-02 -0.43605271E-02
  0.66508006E-02  0.88368825E-02 -0.49694413E-02
  0.68912721E-02 -0.34075752E-02  0.37483114E-03
 -0.20061981E-02  0.69740908E-03 -0.48298259E-02
 -0.66973380E-02 -0.19515714E-02 -0.28760675E-02
  0.39343721E-02  0.74107350E-02 -0.34826547E-03
  0.48968275E-02 -0.76733349E-02  0.27463013E-03
 -0.59726955E-02  0.19007655E-02 -0.42494947E-02
 
           1
   2.00000000000000     
  0.82733100E+00  0.12290077E-02  0.00000000E+00  0.00000000E+00
  0.97073582E+00  0.95251410E+00  0.52076609E+00
  0.48632399E+00  0.45836294E+00  0.89306935E+00
  0.20814085E+00  0.73656675E+00  0.72287461E+00
  0.67009567E+00  0.78355911E+00  0.26511920E+00
  0.50507645E-01  0.86111281E+00  0.50362046E-02
  0.29452202E-01  0.48949808E+00  0.75128363E+00
  0.25022311E-02  0.78160188E+00  0.27855616E+00
  0.23561663E+00  0.90666757E+00  0.11631872E+00
  0.98837778E+00  0.23182510E-01  0.75418574E+00
  0.73741285E+00  0.53034531E+00  0.87223814E+00
  0.45195101E+00  0.73011757E+00  0.51567993E+00
  0.28393162E+00  0.74457343E+00  0.96725810E+00
  0.45364491E+00  0.76851272E+00  0.24275382E+00
  0.21991055E+00  0.74646447E+00  0.50082355E+00
  0.48584538E+00  0.21297696E+00  0.48273939E+00
  0.48242493E+00  0.47325407E+00  0.37901924E+00
  0.77911102E+00  0.58037335E-01  0.85133158E+00
  0.26769531E+00  0.24782564E+00  0.74836039E+00
  0.51189973E+00  0.30194245E-01  0.13436721E-01
  0.90980131E-02  0.48214379E+00  0.13598016E+00
  0.94093697E+00  0.97528385E+00  0.38011537E+00
  0.23318397E+00  0.26825144E+00  0.27650300E+00
  0.23500969E+00  0.44356516E+00  0.86290453E+00
  0.22150653E+00  0.28088198E+00  0.64141845E+00
  0.22621700E-01  0.49536987E-01  0.95362419E+00
  0.13714314E+00  0.95413565E-01  0.85225588E+00
  0.53577609E+00  0.27251337E+00  0.98470534E+00
  0.78799426E+00  0.29568718E+00  0.10979740E+00
  0.50284982E+00  0.44915703E+00  0.49739983E+00
  0.50371887E+00  0.75184351E+00  0.99798801E+00
  0.74275482E+00  0.52696823E+00  0.63000153E+00
  0.45243735E+00  0.57818660E-02  0.59554566E+00
  0.67149190E+00  0.78753268E+00  0.11435217E+00
  0.33320906E+00  0.92479879E+00  0.86858063E+00
  0.81196159E+00  0.25077369E+00  0.95401121E+00
  0.79971885E+00  0.26289589E+00  0.47729186E+00
  0.78061104E+00  0.43730539E+00  0.37555907E+00
  0.25793821E+00  0.24013664E+00  0.38254279E+00
  0.54311617E+00  0.25939939E-01  0.89091476E+00
  0.98083002E+00  0.49659275E+00  0.62000510E+00
  0.76152944E+00  0.69503773E+00  0.35633205E+00
  0.52513851E+00  0.51313983E+00  0.73598193E+00
  0.50547779E+00  0.52006459E+00  0.24757095E+00
  0.88863873E-02  0.76237894E+00  0.46116475E+00
  0.54348945E+00  0.25353181E+00  0.74370094E+00
  0.49371271E+00  0.95573702E+00  0.45856766E+00
  0.17720650E+00  0.74596162E+00  0.37064637E+00
  0.28019144E+00  0.24312199E+00  0.34650230E-02
  0.30874446E+00  0.23252759E+00  0.87415283E+00
  0.51205846E+00  0.54236544E+00  0.10726776E+00
  0.38580799E-02  0.75248634E+00  0.77477440E+00
  0.45215746E+00  0.98744624E+00  0.30506618E+00
  0.15383047E+00  0.21954296E+00  0.47977023E+00
  0.50690561E+00  0.24788765E+00  0.25675621E+00
  0.98691968E+00  0.25491216E+00  0.24060002E+00
  0.78158723E+00  0.73330803E+00  0.10848798E-01
  0.95872617E+00  0.80501459E-02  0.25638792E+00
  0.48849120E+00  0.53019820E+00  0.62050813E+00
  0.78697563E+00  0.84027303E+00  0.89202768E+00
  0.72065026E+00  0.73668837E+00  0.48687400E+00
  0.74806859E+00  0.22915722E+00  0.27274767E+00
  0.99073572E+00  0.45831694E+00  0.46880594E+00
  0.13599199E-01  0.27988194E+00  0.12078088E-01
  0.84787596E+00  0.28307342E+00  0.76782280E+00
  0.70467167E+00  0.98996717E+00  0.37090829E+00
  0.48832199E+00  0.14952593E-01  0.75663126E+00
  0.23609493E+00  0.58024137E+00  0.13431567E+00
  0.74044601E+00  0.25487684E+00  0.62637588E+00
  0.22517127E+00  0.77688720E+00  0.21329711E+00
  0.21972723E+00  0.98651969E+00  0.61756724E+00
  0.82326932E+00  0.58444649E+00  0.13065995E+00
  0.74264752E+00  0.94667674E+00  0.60664504E+00
  0.99963912E+00  0.52043246E+00  0.98803674E+00
  0.72321779E+00  0.72466929E+00  0.61185822E+00
  0.94308157E-02  0.10747306E+00  0.11654476E+00
  0.23315261E+00  0.49256774E+00  0.36018567E+00
  0.27809178E-01  0.61402080E+00  0.86856130E+00
  0.45587715E+00  0.66284287E-01  0.14921659E+00
  0.79349546E+00  0.43749367E-01  0.11139486E+00
  0.20668753E+00  0.53638508E+00  0.62778111E+00
  0.77655869E+00  0.75012565E+00  0.75528825E+00
  0.26009543E+00  0.95252641E+00  0.36296968E+00
  0.48222741E+00  0.73710334E+00  0.74234312E+00
  0.28098811E+00  0.28180446E+00  0.12795448E+00
  0.99372962E+00  0.45993737E-01  0.62873201E+00
  0.51766175E+00  0.54187198E+00  0.98943429E+00
  0.31235862E+00  0.74681862E+00  0.62679849E+00
  0.57708930E-02  0.49951901E+00  0.27080049E+00
  0.20222849E+00  0.31446187E-01  0.25595116E+00
  0.78629232E+00  0.51393908E+00  0.73950274E+00
  0.22730478E+00  0.79138452E-02  0.74482074E+00
  0.74440592E+00  0.49168726E+00  0.24338699E+00
  0.26172503E+00  0.98533934E+00  0.99220625E+00
  0.73506545E+00  0.48409722E+00  0.49125874E+00
  0.22782679E+00  0.27231898E-02  0.49778206E+00
  0.76636836E+00  0.49842548E+00  0.99157960E+00
  0.73093345E+00  0.27961243E-01  0.73755004E+00
  0.26170554E+00  0.50009408E+00  0.24456804E+00
  0.26132952E+00  0.51484237E+00  0.74862354E+00
  0.72191630E+00  0.99071818E+00  0.23449513E+00
  0.24277681E+00  0.48262841E+00  0.49597769E+00
  0.76486221E+00  0.20614761E-01  0.99196834E+00
  0.72746199E+00  0.27163987E-01  0.49701085E+00
  0.24404803E+00  0.49356283E+00  0.76314064E-02
  0.20215705E-01  0.24546513E+00  0.36070408E+00
  0.52558057E+00  0.75818553E+00  0.86750098E+00
  0.47856517E+00  0.25072747E+00  0.61128757E+00
  0.12193651E-01  0.76850933E+00  0.12857543E+00
  0.14664903E-01  0.29482489E+00  0.86973044E+00
  0.50163374E+00  0.73520125E+00  0.37700165E+00
  0.98664522E+00  0.76498157E+00  0.62564451E+00
  0.53430075E+00  0.28319411E+00  0.12361394E+00
  0.17236107E+00  0.38242347E+00  0.58481593E-01
  0.61408614E+00  0.92253734E+00  0.54118988E+00
  0.65603384E+00  0.10835134E+00  0.93907508E+00
  0.13854281E+00  0.59678009E+00  0.44233859E+00
  0.36781302E+00  0.38565736E+00  0.95379755E+00
  0.83544648E+00  0.89970009E+00  0.44883680E+00
  0.87378752E+00  0.14326958E+00  0.33693423E-01
  0.37445269E+00  0.56812025E+00  0.53827518E+00
  0.82158943E+00  0.11718828E+00  0.20054704E+00
  0.36360887E+00  0.61631085E+00  0.69013819E+00
  0.83141120E+00  0.87642105E+00  0.28497322E+00
  0.36896557E+00  0.40607472E+00  0.79876495E+00
  0.16535482E+00  0.60765953E+00  0.30061240E+00
  0.62409596E+00  0.12141889E+00  0.79107500E+00
  0.16774045E+00  0.39653759E+00  0.18966289E+00
  0.62970064E+00  0.91047058E+00  0.68813925E+00
  0.84189381E+00  0.62923462E+00  0.94484244E+00
  0.34376760E+00  0.68287363E-01  0.43606238E+00
  0.83259035E+00  0.41416431E+00  0.55660625E+00
  0.35376003E+00  0.86003710E+00  0.36948578E-01
  0.12494784E+00  0.96085524E-01  0.54695110E+00
  0.66117559E+00  0.60559320E+00  0.54156241E-01
  0.17109931E+00  0.89678140E+00  0.92364407E+00
  0.62971968E+00  0.36900832E+00  0.44201687E+00