Na88 Ge16 P8 S96                        
   1.00000000000000     
    13.3422163233000006    0.0000000000000000    0.0000000000000000
     0.0000000000000000   13.3422163233000006    0.0000000000000000
     0.0000000000000000    0.0000000000000000   26.6844326466999995
   Na   Ge   P    S 
    88    16     8    96
Direct
  0.0004494316237830  0.9933160756721457  0.1222364878721350
  0.4479291388258947  0.4630319849600000  0.7343833240692632
  0.5029534509074360  0.5717853355435338  0.9811048693620092
  0.9679894082592845  0.0226543796828194  0.3609719267191243
  0.4974289049098121  0.9343429658364513  0.0140418467848924
  0.0063292904031625  0.4644782314481428  0.2671973467514139
  0.4970814140286882  0.6947451272914117  0.7571721296758637
  0.2163834079331581  0.2417944976830741  0.2687600434747252
  0.7494313036842351  0.2216915741376712  0.6256984142286283
  0.4846834648087751  0.9110286804889306  0.4747600611982912
  0.7622734432858460  0.7362882729518266  0.3728019884737805
  0.1972193059879157  0.1957843774108655  0.8275248682322732
  0.7513363060476157  0.2731521818769888  0.1619070372278411
  0.2723937194380833  0.4541243878572331  0.6135355378087549
  0.0117971074863884  0.9844311846985588  0.8837832895306494
  0.8146565267605971  0.4056644710684969  0.3915817056267467
  0.2560355003066396  0.2313527073403044  0.4920112178524046
  0.9628289522622545  0.4973407688071970  0.7485744640565610
  0.4963819739475755  0.2530060581432585  0.2638479502024989
  0.6573816464882212  0.2393236557866430  0.7543239674625173
  0.2297731676719288  0.0012436500632503  0.3889467848788584
  0.0023972514226594  0.2733106523276242  0.4899747443717942
  0.7045140388061690  0.4580881804736049  0.8804753484403862
  0.0126608313808220  0.4872345032544945  0.6229830881342167
  0.2523726805353388  0.7298127374014689  0.0045723692292414
  0.2406414844704670  0.2125897492144825  0.6113576449026282
  0.1945415132134635  0.8974008962587203  0.1350069226052715
  0.7116187694446026  0.2307447233463755  0.4949513142459135
  0.2835859083509279  0.7193844254894102  0.4892709529480661
  0.7487870770521631  0.9950297441070536  0.1251863509745915
  0.0068347054990551  0.4903999392067446  0.4922377016490532
  0.4963549130980051  0.9844536212906204  0.7519188311723496
  0.9707919972017680  0.7796273793931836  0.2606861188535286
  0.3308851798359319  0.2597117517061845  0.7286755090994598
  0.0432770085039175  0.9959927828920520  0.9981494754308102
  0.2545411874353542  0.7215140038946637  0.6349821941707594
  0.4990295894757139  0.9893442345654061  0.1357399367125133
  0.6444561162494761  0.2054217512470872  0.3671595232430812
  0.0348988824108820  0.0036918469236469  0.7462723104173600
  0.7418779900631594  0.7270995726152182  0.1131460780892980
  0.0004345260286700  0.0268741274903346  0.2535694696721547
  0.6375637988944013  0.7341797216507252  0.9742516970626810
  0.6871274443712700  0.9075621423012423  0.8640396472967637
  0.2633688494958334  0.6814763728802550  0.1038597106024529
  0.2282664402234620  0.4636357605105658  0.8643186449200106
  0.7418556640534696  0.7380696171901897  0.4942657903404507
  0.5125614701732519  0.5027867415971303  0.2386886432363558
  0.9484320359675279  0.2286145678178099  0.9886099645800722
  0.9950415055495007  0.9967794167836714  0.6122339351409871
  0.7907726162665828  0.5042825932055672  0.1265289118452732
  0.0094387724699908  0.4920751043490374  0.8868488435755486
  0.4694155824664697  0.9630941622794680  0.2621727358516095
  0.4731023720408981  0.1671996528540483  0.5107941045515783
  0.8708219441205062  0.7671378223290948  0.0166344876857085
  0.7600227571721616  0.4962876498185543  0.6357947617502937
  0.2214343280134422  0.7594447914583442  0.8884441511288483
  0.4663687968936139  0.4842909501313162  0.8565670898123083
  0.6459979049798236  0.5267051680885161  0.3698692754524124
  0.2841683349393512  0.4350110241751431  0.1150794667845894
  0.9867241290825697  0.7504616286526355  0.4918399450781570
  0.3232492097230123  0.0114202600865297  0.8898177644265516
  0.9757247231809253  0.0039482247037531  0.4845652590327441
  0.9777765905591785  0.4959760329874366  0.0189855131724571
  0.4984172245374391  0.5436327465385760  0.4741277314377361
  0.5069304152242440  0.7276185843491764  0.2326956682283516
  0.7019072430193536  0.7566434634689990  0.7936774229122657
  0.7732241454482700  0.7363082845213701  0.2350591575773514
  0.5192887407098778  0.9414525028414998  0.6307058671364024
  0.2824875528726900  0.7400257692188779  0.2786359869752461
  0.9369349252709744  0.2650112064807613  0.7459004925440422
  0.2511138695069972  0.1802032361072609  0.1356422696810869
  0.9514845453103707  0.7088029607340948  0.7634554185280711
  0.8221908872543734  0.2382167668318462  0.2757843342477577
  0.7645802606077591  0.9828034275667971  0.6230978302937750
  0.7590536905088207  0.1322163458711374  0.8765607684180113
  0.2886212711610138  0.2396620687212616  0.3760974932197376
  0.2084449387494044  0.7691083354767413  0.7613816079008444
  0.6964381476866888  0.9687053740130430  0.3648636133558286
  0.7212411264503402  0.2242900375750204  0.0193709024003347
  0.5355751671533163  0.4693898873597934  0.6128319176192319
  0.4880821200291695  0.2610637094389604  0.9888983226780071
  0.1735787122379837  0.7737285289158448  0.3815973691337404
  0.7088809995238643  0.7354704160556632  0.6180906932071617
  0.4889362320172246  0.4638634350043915  0.1073363919334705
  0.2434132405917237  0.9613959381817345  0.6434977667291355
  0.0312522436220610  0.4215428394615691  0.1259801746913045
  0.2496458402539505  0.2474065138282006  0.9833501340431920
  0.2565877836243304  0.4833759535677322  0.3496894331236991
  0.2231992716277506  0.9737411229604499  0.2597438179698872
  0.6820967347334859  0.4810453963547603  0.7553778722273502
  0.2745037093936338  0.0094630074273397  0.7665514477783499
  0.7520241875152436  0.4817713395620558  0.2592712265466850
  0.2776718385705932  0.9787705106710967  0.0200146541751660
  0.7619361964113796  0.4750699095062660  0.5054986479711213
  0.2462875777341715  0.9768012222485887  0.5161430989967971
  0.7385300737207373  0.4743814033022707  0.0125616680336749
  0.7816283900324351  0.9719509032819731  0.7475929491706528
  0.2611255344465825  0.4889085295334896  0.2311697852642268
  0.2113677924831201  0.5100331793700272  0.7526136701448948
  0.7170772683014918  0.9953088475305752  0.2464545513853116
  0.2568402468526890  0.4809086587019112  0.4945952134633864
  0.7549243376103056  0.9990071634179333  0.0015555325125430
  0.7147103832089985  0.9947087783806424  0.4889389041689315
  0.2360057209463277  0.4826286348343553  0.9919377010449070
  0.0098236147944486  0.2331780772846398  0.3800323395605998
  0.4744323358469389  0.7405980728480273  0.8776217844190785
  0.4988250063183212  0.2183536139894968  0.6208682063941819
  0.0010760149152000  0.7290320772897015  0.1286302093856343
  0.9965957820280437  0.2286602399464873  0.8769070640690166
  0.4800178980316422  0.7491221153823668  0.3733580889551095
  0.9734751176584867  0.7428605161101203  0.6146016974179670
  0.5010108857450247  0.2215537922502559  0.1354055718299866
  0.1370991331367448  0.3721654029670066  0.0465440147853781
  0.6324372931342612  0.9066989020650591  0.5469125821234017
  0.6273235907614412  0.0512047489617006  0.9575543626015059
  0.1599642209470578  0.5820616702586962  0.4410713225255873
  0.3307374866697016  0.3865484806295754  0.9479914798214812
  0.8172186811239482  0.9041599735584164  0.4384526891340765
  0.8654177305640023  0.0816227764829323  0.0521536319402175
  0.3608963014356070  0.5655843290861462  0.5390738380830817
  0.8178547218904596  0.0913138775210344  0.2060684177323761
  0.3113773393047332  0.6100040943786158  0.7073411315171991
  0.8165142559026746  0.9234003927657708  0.2969585026066908
  0.3056019975328020  0.3942089331992233  0.7921096910494110
  0.1463119423449606  0.5848432750476126  0.2811470842663001
  0.6645239588581138  0.0550604032714203  0.7935335407885306
  0.1605290855140528  0.3827767581301228  0.1914213597899589
  0.6659136787905299  0.8851549283765889  0.6915722809932822
  0.8207882840624096  0.5679778060430904  0.9646324044812842
  0.3339778572009089  0.0717446298702534  0.4668675681079180
  0.8559969211931182  0.3853206397000869  0.5508857231760480
  0.3581755187897567  0.8804501341958637  0.0762665332633500
  0.1570965603386072  0.0734882741667363  0.5643464090691663
  0.6377787559762281  0.5788339785448111  0.0602662376727553
  0.1924988291040428  0.8949959496522437  0.9576069108231126
  0.6498111812129336  0.3963054024464097  0.4600916091046836
  0.6517081255607370  0.4025090948616447  0.3055400630224435
  0.1654594952554688  0.9612893761287431  0.8287859561589483
  0.1853543201589112  0.1027190014088656  0.7183352745031006
  0.6772904259417685  0.5877831914472247  0.2086898800767320
  0.7868251021393600  0.3656501312285550  0.7038186848218168
  0.3209173189032046  0.8667658674540860  0.2202948094810952
  0.3134647168073634  0.0804076510179564  0.3069357477736397
  0.7640750522869788  0.5772380349564102  0.8048884115529062
  0.1581235774713836  0.0654962551779372  0.0615970226208461
  0.6677108640766167  0.5625083396738039  0.5502954128476429
  0.6182912962983409  0.3851274511592586  0.9663474864961928
  0.1399729977423795  0.8904715176751531  0.4706673905591975
  0.3762885490361305  0.0805089522758712  0.9805048824003283
  0.8567923340460346  0.5874298269172590  0.4512468362037485
  0.8263039107892330  0.3680035386190704  0.0666017382308032
  0.3451680828726415  0.8797493758422282  0.5591165879910858
  0.1486974401159399  0.0493590158247548  0.1981119209933989
  0.5855992737224897  0.5598253220591339  0.6997221408372428
  0.1009299434797256  0.8960206935456864  0.3048381769946418
  0.5975848488128683  0.3789066143984512  0.8048498571637381
  0.8325618003985322  0.5912552016716198  0.3112449214723368
  0.3738800057684433  0.1095593870863082  0.8086717247427286
  0.8562544401743559  0.3847578232982911  0.2137064151257887
  0.3395975208008162  0.8910545542774309  0.7162032543646356
  0.8876764394402975  0.9133005022574261  0.9544216438317430
  0.3461891903233713  0.3735251486600422  0.4483977664566995
  0.8378477004421987  0.0811914987692273  0.5423142272817212
  0.3490239163391672  0.5554933235599698  0.0474668488573895
  0.1500152875405218  0.3844816229635128  0.5436571861771695
  0.6925450102552900  0.8602725163174363  0.0450776205355574
  0.1381587998207646  0.5873946716250210  0.9504291349105704
  0.6118204525786721  0.0837112144420758  0.4438156221718047
  0.3608076701106960  0.3892419884611077  0.2768688287882141
  0.8909579469058214  0.8889872595046554  0.7938045958857749
  0.8548838333241364  0.0785058751039747  0.7006243916752515
  0.3500862619244350  0.5797784901408151  0.1762659769877820
  0.1366416011467196  0.4222654191838909  0.6987500881254231
  0.6456198551017770  0.8770106671985917  0.1968688226878476
  0.6079701178174629  0.0825472181130903  0.2900935308675237
  0.1069850287969678  0.5896453251059705  0.8140350472561788
  0.1074933818745396  0.1464082255044396  0.4248558656969211
  0.4213013483193816  0.7722072722913615  0.9443279479048955
  0.4217156548045528  0.3248732331607925  0.6639017418409794
  0.9298314782800301  0.6092457412897103  0.1004671363380439
  0.5668276550131709  0.3017586385090829  0.5672467593304030
  0.1080734472295892  0.6992707318859928  0.1746014192774057
  0.0413797125809801  0.3776831829228758  0.3952041302205810
  0.5177148375978218  0.8619628137045127  0.8381038540396318
  0.1083675600344609  0.1744793583923568  0.9184928332502749
  0.5749866282412452  0.7234432211240069  0.4309156540666277
  0.8823338126505715  0.8323766469799591  0.5709123907986962
  0.5518257679674793  0.3521310613081958  0.1802072127556524
  0.9017389685898189  0.6444360590153876  0.6651358657116929
  0.3830586929497085  0.2718462314347731  0.0872101379243735
  0.8801593009819199  0.3065195369384485  0.9078360266259961
  0.3606287573732260  0.8354746678675186  0.4013473296523837
  0.0458559116366389  0.8220402359953423  0.6723477624439436
  0.4167921963417198  0.1317591518054919  0.1861074454304943
  0.9263360086382216  0.1240927813819390  0.8340271888685484
  0.4156849028683192  0.6134020663452940  0.3424563412931348
  0.0447945068573826  0.3339770623377074  0.8278100419779394
  0.5805291982364567  0.8173654365099841  0.3223618614330424
  0.0583558482612222  0.6507020018030988  0.5700344669982546
  0.6093654497879997  0.1463113261055165  0.0975789353887178
  0.5857070954791046  0.1268740700989840  0.6666667698931817
  0.0623214605661035  0.7976283447005800  0.0674511045743599
  0.0137259502650333  0.2149472075417856  0.3035302131624397
  0.5992447190632902  0.6411045766884989  0.9016299770892531
  0.8803181322277818  0.1818876375823740  0.4097572200071163
  0.3660382575584757  0.6736476637756511  0.8334200914203262
  0.4092414449269455  0.1102454592844200  0.5991063003272414
  0.8871985890274161  0.8304567513993223  0.1556786651486059
 
 -0.74117389E-02 -0.38938725E-02  0.13698315E-01
 -0.67549653E-02 -0.30741870E-02 -0.76330866E-02
 -0.61708310E-02 -0.77387825E-02 -0.71454315E-02
  0.20291631E-02 -0.20069209E-03  0.65836989E-02
 -0.14845091E-02 -0.51606821E-03 -0.10423937E-01
  0.98429768E-02 -0.14612306E-01  0.55022775E-02
 -0.34276642E-02  0.41744812E-02  0.83471103E-02
 -0.46920873E-02  0.58058786E-02 -0.10805967E-01
  0.37210064E-02  0.84406823E-02 -0.80052211E-02
 -0.39181835E-02  0.47643790E-02  0.52389250E-02
 -0.47285560E-02 -0.75139290E-02 -0.58442086E-02
 -0.41543267E-02 -0.66138891E-02  0.62987677E-02
 -0.89099839E-02  0.73821317E-02 -0.13606335E-03
 -0.56419812E-03  0.72607880E-02  0.18903134E-02
  0.32362537E-02 -0.31118747E-02 -0.66167126E-02
 -0.73619554E-02 -0.70729312E-02 -0.11887391E-02
  0.25673944E-03  0.37551645E-02 -0.92689545E-03
 -0.10657744E-01  0.25900476E-02  0.39515120E-02
  0.64370953E-02 -0.74595757E-03  0.27616517E-02
  0.19838589E-02  0.13217568E-01 -0.52615765E-02
 -0.38224226E-02  0.98703050E-03  0.17891783E-02
 -0.27256671E-03  0.10745556E-03  0.14733627E-01
 -0.13039470E-02 -0.16221228E-02  0.87355414E-02
  0.74351004E-03  0.28658800E-03 -0.98850802E-02
  0.17667941E-02  0.71750553E-02  0.36801783E-02
  0.10341003E-01  0.43522934E-02 -0.11383438E-02
  0.16646398E-02  0.14216234E-03 -0.22129435E-02
  0.52161561E-02  0.30768629E-02 -0.27401801E-02
  0.31614392E-02 -0.38338238E-02  0.20489366E-02
  0.98454495E-02  0.27880797E-02  0.51314796E-02
 -0.18356494E-02  0.15445669E-02 -0.54677140E-02
  0.95125046E-02  0.24980480E-03 -0.40790508E-02
  0.53483422E-02  0.11484484E-01  0.27979250E-02
 -0.95990048E-02 -0.67753767E-02 -0.95268190E-03
 -0.11038625E-01 -0.19499338E-02 -0.15620951E-01
  0.47698690E-02 -0.63492842E-02 -0.87371368E-02
  0.99622116E-03 -0.59844264E-02  0.12706129E-02
  0.17910788E-02 -0.26995549E-02 -0.87066073E-02
 -0.12248200E-02  0.81017510E-02  0.39667301E-02
  0.27357882E-02 -0.25698686E-02  0.75542538E-02
  0.85872948E-02  0.45836852E-02 -0.44804212E-02
 -0.61274557E-02  0.62349088E-03 -0.51882151E-02
  0.20236310E-02  0.94880385E-02  0.69953687E-02
 -0.22574861E-02  0.25605382E-02 -0.29050497E-02
 -0.10024590E-01  0.34905579E-02 -0.20002455E-02
  0.64664230E-02  0.92441561E-02  0.20989347E-02
 -0.42896315E-02 -0.59243974E-02  0.83062009E-02
  0.10250367E-02 -0.92943402E-03 -0.73348580E-02
 -0.31214886E-02  0.35771667E-02  0.65494192E-03
  0.24693100E-02  0.62883673E-03 -0.27002575E-02
 -0.13746454E-02  0.45494827E-02  0.11768160E-02
 -0.28451303E-02 -0.66862406E-03  0.36754703E-02
 -0.89108643E-03 -0.12731238E-02  0.97091214E-03
  0.14261348E-03 -0.72862611E-02 -0.14803193E-02
 -0.12346913E-01 -0.50198413E-04 -0.71646312E-02
  0.11160708E-01  0.14029812E-01 -0.25929057E-02
 -0.27415776E-03  0.11554568E-01 -0.74206570E-03
  0.89810302E-02  0.13917431E-01 -0.68131813E-02
  0.43527426E-02 -0.17798559E-03  0.27940458E-04
 -0.83089235E-02  0.25751029E-03  0.49014149E-02
 -0.93657688E-02  0.21793268E-02  0.28377203E-02
 -0.11277099E-01 -0.34894109E-02 -0.30267716E-02
  0.26885091E-02  0.54516283E-02  0.52819101E-02
 -0.17417592E-01 -0.41712864E-03 -0.12343917E-02
  0.16273716E-02 -0.36243379E-02  0.10148725E-02
 -0.54030802E-02 -0.12185607E-01 -0.23807124E-02
  0.72869022E-02  0.60496993E-02  0.83770378E-02
  0.36843101E-02 -0.89900039E-03  0.58028427E-02
 -0.36205635E-02 -0.96642837E-03  0.35083243E-02
  0.66728419E-02 -0.13495597E-01 -0.31777225E-02
 -0.27380274E-02 -0.52603839E-02 -0.40373403E-02
 -0.10696999E-02 -0.49921902E-02  0.22725501E-02
  0.38771617E-02  0.49653937E-02  0.23607142E-02
 -0.99599024E-02  0.13659289E-02  0.46793539E-02
  0.86799378E-02 -0.10476344E-01  0.46641344E-02
 -0.12039036E-03 -0.42494260E-02 -0.42833321E-02
  0.14835743E-02 -0.10337976E-03 -0.87897285E-02
  0.43019334E-03 -0.13368641E-01  0.59919348E-02
 -0.48403121E-02  0.77927510E-02 -0.58652215E-03
 -0.21406606E-02 -0.44366708E-02  0.17713165E-02
 -0.91147829E-02 -0.37495154E-02 -0.24993712E-02
  0.28673493E-02 -0.11934802E-01 -0.59265792E-03
  0.55513812E-02  0.82916169E-02 -0.35591014E-02
  0.34515874E-02  0.31261801E-02  0.31516259E-02
  0.81153485E-02  0.75139316E-02  0.67583681E-02
 -0.66528980E-02 -0.69746226E-02 -0.59369683E-02
 -0.15416107E-02  0.27069899E-02 -0.16640098E-02
 -0.18292873E-02  0.11045554E-02 -0.12094987E-02
  0.68605588E-02 -0.94611673E-03  0.19836023E-02
  0.53563564E-03  0.26438198E-03 -0.53318475E-02
  0.46339567E-03  0.33816527E-02 -0.77740746E-03
  0.27026109E-02  0.88977987E-03 -0.57028317E-02
  0.57372887E-03 -0.38865017E-03 -0.12420548E-02
 -0.97772421E-03 -0.92655468E-03  0.20775510E-02
 -0.17026352E-02  0.12498127E-02 -0.69275160E-02
 -0.16021033E-02  0.44339785E-02 -0.14081404E-02
  0.29571516E-03 -0.24631255E-02  0.18602213E-02
 -0.10038335E-02  0.37627779E-03  0.24441878E-02
  0.24313972E-02  0.52182057E-02 -0.25178867E-02
 -0.55533781E-02  0.84179232E-02  0.73827022E-02
  0.34037009E-02  0.45750731E-02 -0.20097849E-02
  0.60928338E-02 -0.37177880E-02  0.56278787E-02
 -0.78128657E-02  0.52562010E-03  0.39561165E-02
  0.26551861E-02 -0.32581546E-02  0.18474751E-03
  0.39997286E-02 -0.18424903E-02 -0.59885901E-03
  0.56150232E-03 -0.73330872E-02  0.46694251E-02
 -0.47205872E-02 -0.20267254E-02 -0.27341943E-02
 -0.17241614E-02  0.33116355E-03 -0.23835243E-02
 -0.57622095E-02  0.15555948E-02  0.36186169E-03
  0.17513647E-02 -0.60877025E-02 -0.56521030E-03
  0.15381613E-02 -0.69473929E-02  0.73842841E-04
 -0.38775688E-02 -0.59100872E-02 -0.26867153E-02
 -0.34799430E-02  0.11260405E-01 -0.48503001E-02
  0.33360428E-02 -0.36942085E-02  0.16666355E-02
  0.19829839E-03  0.67797330E-02 -0.29768065E-02
 -0.70047011E-02  0.22984005E-02 -0.51005039E-03
 -0.80434010E-02  0.11525149E-01  0.15055973E-02
  0.10009006E-01  0.36698980E-02 -0.35973424E-02
  0.38857059E-02 -0.50079009E-02 -0.27477242E-02
 -0.68718647E-03 -0.77175941E-02  0.68572575E-03
  0.29812064E-02  0.87599817E-02 -0.64805095E-03
 -0.11530992E-02 -0.49641955E-02  0.39638439E-02
  0.12193454E-02 -0.21233333E-02 -0.17552932E-03
 -0.18049149E-02 -0.53352362E-02  0.30668260E-02
  0.13468521E-01  0.40445762E-02  0.36384306E-03
  0.75390485E-02 -0.23012073E-02  0.13953817E-02
  0.61766731E-02 -0.87566744E-02 -0.69632546E-02
  0.30328363E-02 -0.13811663E-02  0.52281903E-02
 -0.84496374E-02  0.22154891E-02  0.26018844E-02
  0.78856910E-02 -0.36350811E-02  0.96607839E-02
 -0.42158185E-02 -0.32869379E-02 -0.22615008E-02
  0.64309640E-02  0.48140018E-02 -0.91193857E-02
 -0.12778757E-02  0.23925586E-02  0.28753976E-02
  0.22519164E-02  0.27451049E-02 -0.48880822E-03
 -0.46875223E-02  0.81556681E-02 -0.12507199E-02
  0.17346407E-02  0.19196830E-02  0.57488601E-03
 -0.76102306E-03 -0.78088068E-02  0.10115110E-01
 -0.78078738E-02 -0.33486122E-03 -0.27625773E-03
  0.20026233E-02 -0.34380717E-02 -0.55469513E-03
 -0.24950945E-02 -0.23812695E-02  0.50005074E-02
  0.20757874E-02  0.17393131E-02  0.89346900E-03
 -0.45231733E-03 -0.41875080E-02  0.38275834E-02
  0.21084814E-02  0.10313669E-01 -0.36940860E-03
 -0.39258093E-02 -0.51389986E-03 -0.63685197E-02
  0.32778701E-02  0.25791060E-02  0.28516187E-02
  0.20914933E-02 -0.18639433E-02 -0.28069097E-02
  0.56669643E-03 -0.58533703E-02  0.20877580E-03
  0.22707031E-03  0.21566579E-02  0.45404356E-02
  0.13930180E-02  0.42347225E-03 -0.46840752E-02
  0.60032175E-02 -0.14508055E-02  0.59634163E-03
  0.53152903E-02 -0.29361512E-02 -0.26551533E-02
  0.44967497E-02 -0.99889039E-03  0.34842803E-02
 -0.27137428E-02  0.88485891E-02  0.33074536E-02
  0.94556138E-02 -0.10495223E-02  0.17634860E-02
  0.23781945E-02  0.47977836E-02  0.22004129E-02
  0.33898636E-02 -0.24261539E-02  0.71182290E-02
 -0.31377085E-02  0.25410303E-03  0.54857598E-02
  0.53246572E-02  0.15030930E-02  0.21121946E-02
  0.18967113E-02 -0.14316108E-02 -0.26517861E-02
  0.21500943E-02  0.68100054E-02 -0.22230817E-02
  0.49010170E-02  0.81992616E-03 -0.20427445E-02
 -0.19661868E-02 -0.55209549E-02 -0.51546859E-02
  0.38449903E-02 -0.10017827E-01 -0.72135026E-02
  0.30242889E-02 -0.55740525E-02 -0.80015526E-04
  0.26861887E-03 -0.38761816E-02 -0.54864860E-02
 -0.19546359E-02  0.20901906E-02  0.94528462E-02
 -0.56551813E-02  0.50213457E-02 -0.23435960E-02
 -0.63664713E-02 -0.11530897E-02 -0.11094175E-01
 -0.88959044E-03 -0.43622762E-02 -0.19420806E-02
 -0.39358441E-02 -0.45179244E-02  0.48409265E-02
  0.43765990E-02 -0.18822884E-02  0.12376031E-02
 -0.52003049E-02 -0.83081131E-02 -0.25299926E-02
  0.86139394E-03  0.15113584E-02 -0.89245273E-03
  0.21699803E-02  0.14290799E-02 -0.47796430E-02
 -0.36380909E-03 -0.51653717E-02  0.83640489E-02
  0.11584602E-03 -0.31255103E-02  0.11534089E-01
 -0.35164890E-02  0.33435263E-02  0.31813841E-02
 -0.70013064E-02  0.11729706E-02 -0.60577109E-02
  0.38458014E-02 -0.26280996E-02  0.28538298E-02
  0.32583168E-02 -0.33779767E-03 -0.52966669E-02
 -0.34117471E-03  0.10517777E-01  0.24037776E-02
  0.83462225E-03  0.46763773E-02 -0.71144907E-02
  0.90369641E-04  0.25178218E-03  0.87164519E-02
 -0.19558866E-02 -0.51644034E-03 -0.41548822E-02
  0.17177487E-02  0.14056340E-03 -0.42551813E-02
 -0.11815394E-02  0.37974569E-02 -0.98484225E-03
  0.17293869E-02 -0.46187457E-02  0.14683004E-02
 -0.33781685E-03 -0.30915539E-02  0.19393096E-02
  0.42029723E-03  0.53554825E-03 -0.63172372E-02
  0.56980683E-03  0.23639060E-02 -0.11084152E-02
 -0.11752730E-02 -0.44421317E-02 -0.12132584E-02
  0.57720518E-02 -0.31072243E-02 -0.23082606E-02
  0.11978007E-02 -0.77217941E-02  0.57817927E-02
 -0.30943378E-02  0.23810737E-02  0.67846382E-02
 -0.11615336E-02  0.62975611E-02 -0.28476063E-02
 -0.13976601E-01  0.38132714E-03 -0.15012243E-02
 -0.39566042E-02  0.22006785E-02  0.62349911E-02
  0.18535815E-02  0.66643129E-02  0.13268457E-01
 -0.92440250E-03 -0.69151306E-02 -0.24836669E-02
 -0.42382924E-02 -0.16105017E-02  0.58279391E-02
 -0.65840032E-02 -0.27383785E-02  0.15407451E-02
 -0.80588022E-02 -0.85827321E-02 -0.34704288E-03
 -0.33444459E-02 -0.17867186E-02 -0.10711848E-01
  0.38069911E-02  0.29785455E-03  0.43028571E-02
  0.46202710E-02 -0.70795633E-03 -0.16046562E-02
 -0.35918541E-02 -0.26463003E-02 -0.10384832E-01
  0.10314216E-02 -0.21777489E-03  0.40021803E-02
  0.62905419E-02 -0.49164811E-02 -0.38263948E-02
 
           1
   2.00000000000000     
  0.82557202E+00 -0.99309241E-03  0.00000000E+00  0.00000000E+00
  0.99933841E+00  0.99273238E+00  0.12326318E+00
  0.44691657E+00  0.46257116E+00  0.73381122E+00
  0.50202844E+00  0.57062529E+00  0.98056932E+00
  0.96829358E+00  0.22624296E-01  0.36146538E+00
  0.49720638E+00  0.93426561E+00  0.13260572E-01
  0.78047539E-02  0.46228784E+00  0.26760974E+00
  0.49656761E+00  0.69537088E+00  0.75779775E+00
  0.21568006E+00  0.24266480E+00  0.26795014E+00
  0.74998908E+00  0.22295683E+00  0.62509842E+00
  0.48409613E+00  0.91174286E+00  0.47515272E+00
  0.76156463E+00  0.73516193E+00  0.37236396E+00
  0.19659657E+00  0.19479295E+00  0.82799696E+00
  0.75000070E+00  0.27425876E+00  0.16189684E+00
  0.27230915E+00  0.45521278E+00  0.61367722E+00
  0.12282222E-01  0.98396471E+00  0.88328737E+00
  0.81355297E+00  0.40460424E+00  0.39149261E+00
  0.25607399E+00  0.23191561E+00  0.49194175E+00
  0.96123135E+00  0.49772902E+00  0.74887063E+00
  0.49734690E+00  0.25289424E+00  0.26405494E+00
  0.65767903E+00  0.24130497E+00  0.75392961E+00
  0.22920019E+00  0.13916061E-02  0.38908088E+00
  0.23563936E-02  0.27332676E+00  0.49107903E+00
  0.70431858E+00  0.45784502E+00  0.88113008E+00
  0.12772284E-01  0.48727746E+00  0.62224220E+00
  0.25263752E+00  0.73088828E+00  0.48481988E-02
  0.24219160E+00  0.21324216E+00  0.61127233E+00
  0.19479104E+00  0.89742221E+00  0.13484106E+00
  0.71240067E+00  0.23120595E+00  0.49474594E+00
  0.28405981E+00  0.71880973E+00  0.48942452E+00
  0.75026291E+00  0.99544768E+00  0.12557096E+00
  0.65595414E-02  0.49063147E+00  0.49182790E+00
  0.49778084E+00  0.98449107E+00  0.75161311E+00
  0.97159371E+00  0.78134891E+00  0.26089582E+00
  0.32944629E+00  0.25869612E+00  0.72860411E+00
  0.41622317E-01  0.99570049E+00  0.99697868E+00
  0.25525619E+00  0.72056225E+00  0.63432735E+00
  0.49917892E+00  0.98844717E+00  0.13583517E+00
  0.64472460E+00  0.20501709E+00  0.36650696E+00
  0.34715282E-01  0.49063005E-02  0.74656962E+00
  0.74228809E+00  0.72671435E+00  0.11371227E+00
  0.17217627E-02  0.27561223E-01  0.25323366E+00
  0.63664529E+00  0.73427318E+00  0.97386284E+00
  0.68743079E+00  0.90898440E+00  0.86456395E+00
  0.26303045E+00  0.68186020E+00  0.10364198E+00
  0.22676375E+00  0.46415900E+00  0.86416873E+00
  0.74282498E+00  0.73945532E+00  0.49442311E+00
  0.51191845E+00  0.50189867E+00  0.23931119E+00
  0.94858569E+00  0.22847525E+00  0.98806022E+00
  0.99457359E+00  0.99731563E+00  0.61228302E+00
  0.79114277E+00  0.50437686E+00  0.12632653E+00
  0.92327129E-02  0.49275707E+00  0.88693705E+00
  0.46898910E+00  0.96299394E+00  0.26244821E+00
  0.47296880E+00  0.16700881E+00  0.51086687E+00
  0.87084332E+00  0.76604561E+00  0.16523538E-01
  0.75817195E+00  0.49628013E+00  0.63525777E+00
  0.22310732E+00  0.76154786E+00  0.88824981E+00
  0.46632770E+00  0.48602298E+00  0.85651147E+00
  0.64734416E+00  0.52879139E+00  0.36935863E+00
  0.28482081E+00  0.43498434E+00  0.11508156E+00
  0.98547862E+00  0.75050023E+00  0.49220731E+00
  0.32184528E+00  0.11746941E-01  0.89003045E+00
  0.97403428E+00  0.34251615E-02  0.48433840E+00
  0.97817960E+00  0.49679323E+00  0.19381393E-01
  0.49580633E+00  0.54357022E+00  0.47403521E+00
  0.50717436E+00  0.72707530E+00  0.23277173E+00
  0.70109732E+00  0.75481684E+00  0.79349899E+00
  0.77431645E+00  0.73721514E+00  0.23568702E+00
  0.51984102E+00  0.94131774E+00  0.63114079E+00
  0.28194483E+00  0.73988090E+00  0.27889894E+00
  0.93793519E+00  0.26298821E+00  0.74566232E+00
  0.25070344E+00  0.17941470E+00  0.13533967E+00
  0.95132420E+00  0.70805463E+00  0.76362575E+00
  0.82277207E+00  0.23896108E+00  0.27596127E+00
  0.76308727E+00  0.98300818E+00  0.62344855E+00
  0.76035481E+00  0.13064594E+00  0.87691035E+00
  0.28860322E+00  0.23902508E+00  0.37577646E+00
  0.20866733E+00  0.76909284E+00  0.76072282E+00
  0.69650263E+00  0.96670141E+00  0.36531271E+00
  0.72051556E+00  0.22545817E+00  0.19326943E-01
  0.53525428E+00  0.46872483E+00  0.61296468E+00
  0.48671581E+00  0.26050166E+00  0.98871099E+00
  0.17400853E+00  0.77193950E+00  0.38155295E+00
  0.70971315E+00  0.73671333E+00  0.61782394E+00
  0.48945363E+00  0.46433205E+00  0.10757261E+00
  0.24462973E+00  0.96252228E+00  0.64400431E+00
  0.30254973E-01  0.42049734E+00  0.12553520E+00
  0.24941475E+00  0.24781229E+00  0.98322542E+00
  0.25631357E+00  0.48354153E+00  0.34959878E+00
  0.22422767E+00  0.97359930E+00  0.25989249E+00
  0.68217703E+00  0.48108503E+00  0.75497825E+00
  0.27457317E+00  0.99699176E-02  0.76649318E+00
  0.75242931E+00  0.48190472E+00  0.25884380E+00
  0.27775784E+00  0.97871225E+00  0.19921562E-01
  0.76178964E+00  0.47493102E+00  0.50565436E+00
  0.24603235E+00  0.97698857E+00  0.51562388E+00
  0.73828992E+00  0.47504606E+00  0.12456128E-01
  0.78167272E+00  0.97158168E+00  0.74773237E+00
  0.26097506E+00  0.48896493E+00  0.23135298E+00
  0.21173226E+00  0.51081539E+00  0.75242495E+00
  0.71624482E+00  0.99657070E+00  0.24700789E+00
  0.25735046E+00  0.48159446E+00  0.49444458E+00
  0.75583765E+00  0.99844987E+00  0.19773424E-02
  0.71353923E+00  0.99478757E+00  0.48923542E+00
  0.23640373E+00  0.48214024E+00  0.99195155E+00
  0.10423175E-01  0.23290189E+00  0.37998746E+00
  0.47451651E+00  0.73949884E+00  0.87797176E+00
  0.49811739E+00  0.21804981E+00  0.62066328E+00
  0.81756289E-03  0.72908172E+00  0.12845156E+00
  0.99573203E+00  0.22889342E+00  0.87693419E+00
  0.48028043E+00  0.74820957E+00  0.37331573E+00
  0.97370569E+00  0.74181910E+00  0.61460723E+00
  0.50042964E+00  0.22066787E+00  0.13520420E+00
  0.13657749E+00  0.37385334E+00  0.46180484E-01
  0.63293737E+00  0.90614514E+00  0.54703750E+00
  0.62735332E+00  0.52221032E-01  0.95733125E+00
  0.15891422E+00  0.58240620E+00  0.44103309E+00
  0.32953178E+00  0.38827610E+00  0.94810432E+00
  0.81871903E+00  0.90471009E+00  0.43818307E+00
  0.86600020E+00  0.80872091E-01  0.51947690E-01
  0.36079329E+00  0.56442746E+00  0.53912523E+00
  0.81830161E+00  0.92627000E-01  0.20601985E+00
  0.31120449E+00  0.60925996E+00  0.70763822E+00
  0.81669704E+00  0.92308210E+00  0.29694535E+00
  0.30533144E+00  0.39340918E+00  0.79233955E+00
  0.14833088E+00  0.58544956E+00  0.28117435E+00
  0.66565406E+00  0.54715452E-01  0.79363812E+00
  0.16145497E+00  0.38146413E+00  0.19089946E+00
  0.66636830E+00  0.88494789E+00  0.69196413E+00
  0.81952168E+00  0.56830991E+00  0.96482742E+00
  0.33515992E+00  0.71199731E-01  0.46759164E+00
  0.85536497E+00  0.38482793E+00  0.55071622E+00
  0.35913952E+00  0.88117175E+00  0.75583035E-01
  0.15690501E+00  0.73846919E-01  0.56456192E+00
  0.63811632E+00  0.57924547E+00  0.60229601E-01
  0.19179617E+00  0.89621849E+00  0.95751317E+00
  0.65007120E+00  0.39659316E+00  0.46013470E+00