Na88 Sn16 P8 Se96                       
   1.00000000000000     
    14.0793397336999995    0.0000000000000000    0.0000000000000000
     0.0000000000000000   14.0793397336999995    0.0000000000000000
     0.0000000000000000    0.0000000000000000   28.1586794673000007
   Na   Sn   P    Se
    88    16     8    96
Direct
  0.0166210978448672  0.0575299564427634  0.1305537496899373
  0.5052051612057615  0.5273744531074029  0.6113375342309137
  0.5239629957194999  0.4650306843826489  0.8737765416357843
  0.9780306845149821  0.0086327268596519  0.3720777095515476
  0.2506361808931335  0.0032042973644719  0.8734453668091886
  0.9889984447638870  0.5858722446578095  0.3699146950072361
  0.2600444681318263  0.4344341941437171  0.1222355175792335
  0.1932204621995978  0.2079880371920519  0.1067997574104023
  0.7646110084717944  0.9408793733540298  0.6301867272476822
  0.7992826823399042  0.2315380802174090  0.7782999945830306
  0.7211798528008064  0.7543280435865835  0.3686172586616661
  0.2455426838406530  0.2308717312038909  0.9860560419999003
  0.7373040205240733  0.2690454547626238  0.1154167930468570
  0.2570177127455630  0.7385330467498689  0.7380740140808723
  0.0321344306445599  0.0031767271618131  0.8711862395288866
  0.4873423864418661  0.5055176066689616  0.3648810172316784
  0.0014047161771693  0.9900657966979571  0.6234821342890251
  0.0315809981699724  0.4761199805194548  0.6324313380899850
  0.4987738980317222  0.0165546776663618  0.0834038750810455
  0.0293150028202292  0.5261966455722717  0.8784164947594830
  0.4742498027723570  0.0249676378672925  0.3702138585413502
  0.2560044752395162  0.2690696980424827  0.3821440995656505
  0.7816538329914047  0.7738372099445712  0.8753704061725120
  0.7955182207590071  0.2210759661133894  0.6161157889401025
  0.2272951570156775  0.7401915115397406  0.2432004058609758
  0.2657343551894651  0.0220036863644732  0.6321485321440514
  0.8104535897588059  0.7982668999506516  0.0025795150902717
  0.7257396070597149  0.2397797154904027  0.3694787758721213
  0.5068284802249707  0.7696177819409633  0.5025773101233006
  0.4859949086270077  0.4908705106775556  0.0014031136818809
  0.0428384283160274  0.5201297178515799  0.4840465321974387
  0.5279441835141445  0.7274142787476751  0.7448086038347774
  0.9648393966606587  0.7462780748127666  0.2546082504707010
  0.0414252674455177  0.2799762351163625  0.7399870764373404
  0.9981850425052500  0.1789960099134209  0.9953623165485437
  0.4824471189476126  0.2871738703810843  0.4941537673536615
  0.5147272431160728  0.7427768845049398  0.0070716908516821
  0.2666538399214353  0.2283383745279911  0.2532274993537968
  0.8285763426053142  0.7307394407138782  0.7407708899200205
  0.5175955413049370  0.7461126870690586  0.2482077401146209
  0.0075509375410454  0.0104833705685976  0.2637953219284148
  0.5285752864401544  0.5049789651237715  0.7463116993813562
  0.5056915885409028  0.9513623340622462  0.7650132379443774
  0.9618454824474969  0.4894390913237635  0.2598494662303979
  0.5275421554807596  0.2599522136688134  0.9957795704662235
  0.7978176726045556  0.7441564929752130  0.5140904704167445
  0.2571415938032875  0.7827177596333752  0.5131603361349116
  0.7816536595951875  0.2835121025064072  0.9658581037288116
  0.9941428348802551  0.0031712330243229  0.7412889642117964
  0.4787106337744242  0.4855679922095292  0.2349614816679654
  0.0128097849514347  0.5228906569765869  0.7459567412856088
  0.5057572518037974  0.0328034664360390  0.2308262867959483
  0.2582446629258665  0.2584153205358034  0.6126342791415961
  0.0463278614839112  0.8764157115672863  0.9971315822206333
  0.7806800185388575  0.2164309819587258  0.5099382980573568
  0.2680907987892289  0.7203914755091151  0.9937074789945874
  0.0010003354530006  0.5451685203162012  0.0141850575266914
  0.5069579638112161  0.5276139945352075  0.4778308820127921
  0.4603949119349941  0.5196034336131392  0.1271251604797659
  0.0101226024872547  0.9804522866190495  0.5092645839642905
  0.5429616094478893  0.0084688730992130  0.9066269098366934
  0.0544163945715932  0.2657075174421943  0.4977751055571303
  0.9856562469152663  0.4751804582190841  0.1338225818494596
  0.4990708421461683  0.9849801119877269  0.4907577175737188
  0.9468577339160895  0.2654650786004126  0.2388381080641957
  0.7080036880028587  0.7065080686357507  0.6274867325803384
  0.2467041432305337  0.7910953348924366  0.3774825321018521
  0.2552674732138752  0.2484491479272439  0.7449966939290991
  0.7356873547396122  0.7525017618545073  0.1650186255084285
  0.5236043472597877  0.2539693949139529  0.7551501114585925
  0.6986013410959429  0.2203750334018495  0.2351170446373952
  0.2529992268416035  0.7413693377469577  0.8602053388640235
  0.2296323328521167  0.7108602237013866  0.1216185006571084
  0.5349727062518823  0.0302313437639321  0.6364557281015006
  0.7775842319572790  0.0171735503603666  0.8660353308040489
  0.2323746674327563  0.5190964213491073  0.3632037368166226
  0.3094084347920706  0.5052730378501306  0.8771425040083610
  0.7298034730142057  0.9852691206035247  0.3909378654813735
  0.7639377683581403  0.0036058525115332  0.1232417031137078
  0.2499706234961460  0.5006106392427402  0.6227670332267239
  0.7681863748904253  0.4683160034221663  0.8763111012037365
  0.2446564312916351  0.0136664178238027  0.3737060898509765
  0.7610287958497999  0.4644809099070531  0.6245322979530739
  0.2225710039656221  0.9671718482776398  0.1315822641638003
  0.2796526329707520  0.7441596998850618  0.6292310605795172
  0.7714984400727842  0.5333197599021493  0.1232978425650702
  0.3161289039974501  0.2425332249544259  0.8612151164093249
  0.7496109028629812  0.4705943271768491  0.3724427312504163
  0.2641569423563569  0.9876630093692065  0.2519444193615317
  0.7708980103809197  0.4691949360364100  0.7547781787198156
  0.2324680135312010  0.9876022270054677  0.7461157578359578
  0.7144791602328114  0.5116822568295323  0.2485867375095201
  0.2757307813563618  0.9713372481495931  0.9938868848262753
  0.7839745949122499  0.4668849629309380  0.4986271443908783
  0.2623869616341330  0.0256237000679175  0.4981833746976773
  0.7460376362324862  0.5234391726838777  0.0025104525365191
  0.7175976864252787  0.9912805509622289  0.7498643756357390
  0.2220008674603677  0.4720543798469768  0.2427381384617824
  0.2878422595109973  0.4919779967091153  0.7491466785015267
  0.7585679942244318  0.9980933099027762  0.2570673621419617
  0.2735059834357061  0.5221094955575474  0.4982803750473374
  0.7662723537193368  0.0278247287973914  0.9992234746345237
  0.7458090651010215  0.9789780532252692  0.5028441509357449
  0.2506768528900829  0.4673259976421569  0.9952580988928483
  0.9988356331292143  0.2619507258206111  0.3748786616555805
  0.5212936075171467  0.7384856675847075  0.8817999723737393
  0.4983337405641020  0.2732045925949697  0.6257829488192996
  0.9896501528448669  0.7640529241531170  0.1250614608559112
  0.0200747855199684  0.2586674152794908  0.8747473869375701
  0.4907465892912536  0.7593096051513948  0.3696236516368194
  0.0094560631126008  0.7340569688597914  0.6211028504544395
  0.4831075726559620  0.2626823758920576  0.1225569750944977
  0.1514451959031224  0.3672109113425507  0.0501095426358248
  0.6496168394246119  0.8604214077715335  0.5526843472717208
  0.6817773237231767  0.1278814441768984  0.9376291584078903
  0.1692892631872868  0.6240590597258867  0.4386991456610033
  0.3537065141479571  0.3766859287881850  0.9393710781801068
  0.8438541535948297  0.8825335831031200  0.4444245641455400
  0.8593350120772930  0.1196528230207022  0.0608325540948276
  0.3595177595049482  0.6325376768117815  0.5516893871951490
  0.8619839007110940  0.1051758625535313  0.2002496767288289
  0.3909008693621780  0.6071889753726232  0.6968313622425358
  0.8616978387485462  0.9033355114391086  0.3141376720069289
  0.3942392058817983  0.3817068787661438  0.7993689928213352
  0.1319999218761543  0.5948126004709403  0.2950057665294533
  0.6217662723071280  0.0886267318090855  0.8019506035331317
  0.1080710403623468  0.3674601620194662  0.1981387875806256
  0.6396012145901436  0.8626147242452257  0.6976784131101237
  0.8512140942485003  0.6227726357529288  0.9539957478652887
  0.3750046867392678  0.1098653173822395  0.4454998588030317
  0.8885557763286149  0.3596036587343314  0.5508680332214959
  0.3653415488279571  0.8900622208498785  0.0545824242261249
  0.1483600054243853  0.1212610859607338  0.5569361179086666
  0.6276407359796047  0.6001636118760382  0.0543789481426531
  0.1939923857687101  0.8640309311164059  0.9284192893062282
  0.6507521770162465  0.3778577355653843  0.4561677405362725
  0.6321887919084552  0.3883617458738849  0.2935669413601603
  0.1246973978073063  0.8855664220120077  0.7940346296038520
  0.1385427150416127  0.1038647502156541  0.6934763584383722
  0.6128525586583889  0.5997920491985557  0.1941211690186977
  0.8790849351177088  0.3801243224360580  0.7032965292294190
  0.3540395149141978  0.8834648863059992  0.1985061339665758
  0.3553892944204437  0.1114453319713826  0.3050751811686337
  0.8763614267174024  0.5825148919794297  0.8090097679620141
  0.1298560229085071  0.0657982605463192  0.0424700480605430
  0.6625157914460215  0.5557255678349439  0.5476334485578587
  0.6419593475714668  0.4030427243064236  0.9467524056368959
  0.1549449542612085  0.9181709679018076  0.4505977625460099
  0.3742319706391780  0.0891042047392859  0.9475806946058399
  0.8617542356183009  0.5866393303792284  0.4472243304948333
  0.8481963377019645  0.4057348461252543  0.0442741549203633
  0.3589621594362408  0.9285813694959598  0.5573979902763896
  0.1600590892374704  0.0983679380298662  0.2004886121140647
  0.6859216492068846  0.6001249832388870  0.7073964433495391
  0.1415825169422387  0.8912020362496095  0.3038162949725920
  0.6697835968330510  0.3699729988210612  0.8079411228643950
  0.8032765887636845  0.6268264676824249  0.3029194713650942
  0.3436258895328282  0.0913943467084803  0.7921675208255105
  0.8317627747964257  0.4127995942589140  0.1984284398671632
  0.3508499455173662  0.8971859702908723  0.6939607035333253
  0.8898208115491629  0.9315352678364326  0.9497258929803131
  0.3765660341538160  0.4217035804395234  0.4367696767190051
  0.8576627151416396  0.0606172061202179  0.5620345166165712
  0.3428144187520003  0.5735936140135595  0.0544533397470033
  0.1539372903363629  0.4162609079950902  0.5427481238926221
  0.6601301540657617  0.9029756782404900  0.0399324844645284
  0.1607319195460430  0.5814791039197292  0.9507647687160378
  0.6376682149096944  0.0928289058566543  0.4553989319534657
  0.3361394289936461  0.3846663108273199  0.2985929803564707
  0.8312173913579399  0.8950804336059823  0.7964824744181702
  0.8305403939001277  0.0928541671586295  0.7018786289618052
  0.3108624582566077  0.5857865745531278  0.1905057473489025
  0.1775314365366840  0.3945927042733615  0.6881557834016526
  0.6494806394105350  0.9069374429311267  0.2035504414335221
  0.6484560219101120  0.1003335297374262  0.3042628679213588
  0.1842477209892014  0.5999393448901860  0.7999472802644281
  0.1071347845831317  0.1770539860974815  0.3357404630130612
  0.5883541044143833  0.6357073170959872  0.8306801484057311
  0.5826962547005089  0.3626389672028953  0.6760175765112975
  0.0710225172412646  0.8339898643868487  0.1849150036800166
  0.4095916089198824  0.1727603967557604  0.6737634584610454
  0.9217224122380665  0.6472487268962340  0.1618502546867148
  0.8855257538086718  0.3273690985507474  0.3368239033677272
  0.4234516736448779  0.8346272254063900  0.8445772612021558
  0.1409802563090752  0.1739269576256064  0.9057325753445318
  0.5756760966999220  0.6495094893787530  0.4094830356924535
  0.1164401966349056  0.8338866262922555  0.5829981912964303
  0.5668463618974910  0.3608404856541789  0.0822843959545018
  0.9415067487660964  0.6352897740220416  0.5717307689160273
  0.3901844987525945  0.1851169699593715  0.0757891712667019
  0.9512829375775812  0.3481604865829186  0.9293012618341479
  0.4091526357183257  0.8582026192791365  0.4203704660176369
  0.9067487726965120  0.8253102911070892  0.6640463881264060
  0.3899848647756746  0.3202111651514402  0.1788315870266302
  0.9409638720232876  0.1462499132436375  0.8255632175404031
  0.3834693116976012  0.6770606131230307  0.3237075948143159
  0.0916111145214278  0.3729231110121564  0.8269143977211094
  0.5767477170526580  0.8595752611655436  0.3299025058746510
  0.0975940533202803  0.6526420039038838  0.6735136839381015
  0.5798153665288485  0.1444488505687317  0.1537054019319587
  0.4042120246197171  0.3675843650324885  0.5826847161330232
  0.8924700562027407  0.8566083368095107  0.0870020346409834
  0.9213589067340315  0.1661853103242635  0.4257522939817748
  0.4271634517119536  0.6481722682046984  0.9279953963150310
  0.0896940470551767  0.3649731495550789  0.4108808773449362
  0.6081262235255578  0.8160348366225514  0.9319920451628093
  0.5850413423799929  0.1935260827891918  0.5726844451153879
  0.0812439514077547  0.7027796444823692  0.0678441821588943
 
 -0.44228886E-02 -0.25460342E-02  0.22875541E-02
  0.45253885E-03  0.15807828E-02 -0.13993246E-02
  0.34635310E-02 -0.70695674E-02  0.11280618E-02
 -0.12137840E-02  0.38441609E-02  0.33135550E-02
 -0.42754517E-02 -0.66083152E-02 -0.16221677E-02
 -0.41274679E-02  0.31481102E-02  0.43180658E-02
 -0.11720553E-02 -0.42876691E-03  0.83696800E-02
  0.55025351E-03  0.37742657E-02 -0.59085089E-02
 -0.22212650E-03 -0.17824494E-02 -0.14840217E-02
  0.36132046E-02 -0.76341856E-03 -0.95549802E-03
  0.25048986E-02  0.91433056E-03  0.38128660E-02
 -0.27124845E-02 -0.74113240E-03  0.40779060E-02
  0.25779525E-02  0.23167808E-04 -0.11720713E-02
 -0.37208374E-02  0.30088970E-02  0.51308731E-02
  0.58572745E-02  0.29020857E-02  0.52124973E-02
 -0.21997052E-02 -0.13159330E-01  0.34701411E-02
  0.57576852E-02 -0.38011969E-02 -0.60967910E-03
 -0.31871367E-02  0.45310545E-02  0.34341830E-02
 -0.32647663E-02 -0.43751899E-02  0.40624552E-02
 -0.50506647E-02  0.56629643E-02  0.28377138E-02
  0.22924445E-02  0.10091859E-02  0.24309176E-02
  0.53189801E-03 -0.33535914E-02 -0.50851126E-02
  0.14556214E-02  0.24631709E-02 -0.11643299E-02
 -0.29798199E-02 -0.60340641E-02 -0.29322581E-03
 -0.15623425E-02  0.60325511E-02  0.73096335E-03
  0.24581669E-02 -0.41169951E-02 -0.55035753E-02
  0.54157448E-02 -0.22461761E-02 -0.30875215E-02
 -0.21426860E-02 -0.87035458E-02 -0.91720583E-03
 -0.85449417E-04  0.22019206E-02 -0.38777986E-02
  0.51995511E-04  0.32570924E-02 -0.20635699E-02
  0.44450890E-02  0.45548257E-02  0.57967664E-02
 -0.84461366E-04 -0.50496404E-02  0.30021599E-02
 -0.98281988E-03  0.35747604E-02  0.53064671E-02
  0.19934119E-02 -0.26130996E-02 -0.39746834E-02
  0.21499957E-02 -0.72486396E-03  0.54827043E-02
  0.18316753E-02  0.68262207E-02 -0.19091537E-02
 -0.76046181E-02 -0.77898330E-02 -0.11642924E-02
 -0.38251923E-02  0.22776396E-02  0.25714403E-02
 -0.58186649E-02 -0.46313366E-02  0.19283139E-02
 -0.34348611E-02  0.16348932E-05 -0.85224675E-02
  0.19597213E-02 -0.34861149E-02  0.12179455E-02
 -0.78345829E-02 -0.40365091E-04 -0.50753595E-02
  0.13152974E-02  0.19481589E-02 -0.74658522E-03
 -0.23215827E-02 -0.13954948E-02  0.56025004E-02
 -0.21576078E-02  0.32731439E-02 -0.14582171E-03
 -0.10339204E-02  0.31237508E-02 -0.55434479E-02
 -0.86265649E-03 -0.45295586E-02 -0.28002196E-03
  0.35266183E-03 -0.44228363E-02 -0.19625323E-02
  0.18432419E-02  0.71652777E-02 -0.19222000E-02
  0.37509370E-02  0.77511259E-03 -0.56802249E-02
 -0.41054203E-02 -0.38378586E-02  0.72610955E-03
  0.10200807E-01 -0.36275727E-02  0.68519897E-02
 -0.42450930E-02  0.14219794E-02 -0.19367348E-02
  0.51784092E-03 -0.88625922E-02  0.66302434E-02
 -0.44663165E-02  0.26212491E-02  0.62879617E-02
  0.12459033E-03 -0.21697704E-02 -0.10549248E-02
  0.52369645E-02 -0.52691703E-02  0.28773670E-02
 -0.17895586E-02 -0.77916713E-02 -0.88361871E-02
 -0.22512476E-02 -0.86505014E-02  0.63694304E-02
 -0.56969479E-03 -0.62841683E-02  0.64325174E-02
 -0.52656949E-02 -0.12048787E-02 -0.68776019E-02
  0.19329817E-02 -0.26435374E-02  0.66564636E-02
 -0.10540209E-02  0.23319492E-02 -0.24409221E-03
  0.95769440E-03 -0.33714618E-02 -0.15987914E-02
 -0.79306570E-02 -0.41774331E-03  0.38947376E-02
 -0.22720526E-02  0.94345952E-02 -0.10028277E-01
 -0.24478611E-02  0.93415999E-02 -0.46454795E-02
  0.33223231E-03  0.60490310E-02  0.80242862E-02
  0.45724555E-02  0.56972530E-02  0.62232765E-02
  0.98052328E-03  0.27438405E-03 -0.56224383E-02
 -0.82936330E-02 -0.27699888E-02  0.48080729E-03
  0.22183239E-02 -0.45173830E-02  0.55485672E-02
  0.19478284E-02 -0.49977472E-02 -0.82053375E-04
 -0.38913900E-02 -0.44654388E-02 -0.77356659E-02
  0.10127896E-02 -0.49192229E-02  0.11923009E-02
  0.68566589E-02  0.57665324E-03 -0.62798495E-03
  0.25758934E-02 -0.18016139E-02  0.39129666E-02
 -0.74243467E-03  0.50006946E-02 -0.16211601E-02
  0.54031162E-03  0.57162270E-02  0.49093302E-02
 -0.73876438E-05  0.20589101E-02 -0.59300118E-02
 -0.41098899E-02 -0.25771276E-02  0.46377187E-02
 -0.36160740E-02  0.53304575E-02  0.24167230E-02
  0.80362717E-05 -0.16534635E-03  0.46372819E-02
 -0.43325751E-02  0.27600474E-02 -0.23767635E-02
  0.96105471E-03 -0.14821050E-02  0.46458188E-02
 -0.47467752E-02  0.59699134E-02 -0.75388509E-03
  0.49800145E-02  0.18707986E-02 -0.77024140E-02
 -0.93243917E-03  0.19936734E-02 -0.32906249E-02
  0.67653391E-03 -0.15446469E-03 -0.44246290E-03
 -0.77553109E-03  0.34698735E-03 -0.18186522E-02
 -0.18168770E-02 -0.81959555E-03  0.20566059E-02
 -0.26738539E-02  0.13108844E-02 -0.15871685E-02
  0.39362634E-02 -0.12067842E-02  0.20128905E-02
 -0.13924033E-02  0.16897928E-02 -0.11454004E-02
 -0.31998461E-02 -0.15978132E-02 -0.23745733E-02
 -0.88940464E-03  0.91774749E-03  0.20160238E-02
 -0.28286278E-02  0.16364783E-02  0.17988186E-02
  0.21725256E-03  0.47771000E-03 -0.32896625E-03
  0.43218722E-02 -0.67254823E-02  0.45184522E-03
  0.36504540E-03  0.89303417E-03 -0.51229672E-03
 -0.11410708E-02 -0.15275714E-02 -0.29681224E-02
 -0.21792953E-03 -0.15774617E-02  0.32690808E-03
  0.37408535E-04 -0.34736507E-03  0.38395749E-02
 -0.76624684E-03  0.56115932E-03  0.11249261E-02
  0.22417781E-02 -0.28255969E-02 -0.58908059E-02
  0.47358115E-02 -0.49306082E-02 -0.48428922E-03
  0.60355383E-03 -0.18681561E-02  0.24538165E-02
  0.13372958E-02 -0.12504439E-02 -0.24125798E-03
  0.39120854E-02  0.41746045E-02 -0.55365305E-02
 -0.31948514E-02  0.24986570E-02  0.24524000E-03
 -0.13762294E-02 -0.23446861E-02  0.12311466E-02
  0.67253670E-02  0.29006823E-03 -0.37704393E-02
 -0.41382709E-03  0.17789371E-02 -0.65701781E-03
  0.21905448E-02 -0.19200383E-02 -0.29954120E-02
  0.13804142E-02  0.28203408E-03 -0.41183175E-02
  0.81089825E-03 -0.27849818E-02  0.25296065E-03
  0.25056785E-02 -0.27376228E-02  0.18084142E-02
 -0.50624528E-03  0.14733809E-02 -0.34281123E-02
  0.24849763E-03  0.61387378E-03 -0.61035590E-03
 -0.31174316E-02  0.41509156E-02 -0.16456068E-02
 -0.98615454E-03 -0.33711886E-02  0.98025492E-03
 -0.17628048E-02 -0.26374628E-03 -0.25641782E-02
 -0.22207723E-02  0.10610585E-02 -0.13614110E-02
 -0.57450794E-03 -0.14510110E-02 -0.30137878E-02
 -0.77616604E-03 -0.32408107E-03  0.21134129E-02
 -0.13918539E-02  0.34374297E-03 -0.10237590E-02
  0.77400953E-03 -0.34812384E-03  0.89382724E-03
  0.29152905E-02  0.21485643E-02 -0.70323906E-03
  0.83184147E-03  0.11324764E-02  0.11782366E-02
 -0.20903284E-02 -0.35618912E-02 -0.53358412E-03
 -0.13801100E-02  0.57077951E-02 -0.10275874E-02
 -0.81491821E-03 -0.16193175E-02 -0.23342289E-02
 -0.11460299E-02 -0.14815379E-02  0.32146879E-03
  0.53026344E-02 -0.63600559E-03  0.14611895E-02
 -0.90150040E-03 -0.26596074E-02  0.14985943E-03
  0.39315667E-02  0.60675719E-03  0.12890507E-02
  0.27590039E-02  0.65586482E-03  0.10397350E-02
  0.49401695E-02  0.23921768E-02  0.27240901E-02
 -0.27953574E-02  0.30799948E-02 -0.15005620E-04
  0.14700535E-02  0.94258424E-03  0.36414893E-02
 -0.92212233E-03  0.18583953E-02  0.41226003E-02
  0.47526811E-03  0.34307168E-03  0.47851098E-02
 -0.29318216E-02 -0.13251480E-02  0.21419407E-02
 -0.25442214E-04 -0.25509731E-02 -0.45285176E-03
  0.82888005E-03  0.29556875E-02 -0.86388996E-03
  0.56459017E-03  0.70771151E-02  0.91910199E-03
  0.27765673E-02  0.29849512E-03 -0.47568229E-03
  0.17270983E-02  0.89760791E-03 -0.40082945E-02
 -0.21143425E-03  0.58087124E-03  0.99661784E-04
  0.10601151E-03  0.39613394E-03  0.13480647E-02
 -0.15096760E-02 -0.22098638E-02 -0.16157581E-02
 -0.12402987E-02 -0.87336734E-03  0.19804486E-02
  0.32954230E-03  0.16093813E-02  0.11652061E-02
  0.13392543E-02  0.26047576E-02 -0.20580907E-02
 -0.38619369E-03  0.27250939E-02  0.15841759E-02
  0.23711106E-02 -0.14974024E-03  0.88340292E-03
 -0.18643913E-02  0.21760698E-02  0.52132701E-02
  0.48327045E-02 -0.10317069E-02  0.12409080E-02
  0.25136305E-02  0.28967674E-02 -0.33619052E-02
 -0.75088498E-03  0.11208047E-02  0.26736833E-02
 -0.49459316E-02  0.15080146E-02 -0.20164321E-02
 -0.21549474E-02 -0.42942456E-02  0.51913711E-02
 -0.18040593E-02  0.34112367E-03 -0.33068464E-02
 -0.20420318E-02  0.52393443E-03 -0.30384212E-02
 -0.36415715E-04  0.19088813E-02 -0.94421934E-03
 -0.37451634E-03 -0.23839215E-02 -0.27080146E-02
 -0.20715879E-02 -0.37040196E-02  0.14667430E-02
 -0.31207841E-02 -0.45840137E-02 -0.13423611E-03
 -0.30080066E-02  0.11135091E-02  0.13411739E-02
 -0.22839673E-02  0.13574676E-02 -0.94248680E-03
  0.10520559E-02  0.38656863E-03 -0.16027118E-02
  0.39165581E-03 -0.13788247E-02 -0.11709721E-02
  0.42129770E-02  0.36302360E-02  0.13233000E-02
  0.12163677E-02  0.22994955E-02 -0.20919478E-02
  0.20858166E-03 -0.16876049E-02 -0.23608728E-02
  0.17929680E-02 -0.76804418E-03 -0.72221478E-03
  0.58814291E-03 -0.56785823E-04  0.37139039E-02
 -0.57488108E-03  0.22319232E-02 -0.24432349E-02
  0.18244151E-04 -0.85774308E-03 -0.81495710E-03
  0.19545206E-02  0.24985777E-02 -0.62895749E-03
  0.32551522E-02  0.11772979E-02 -0.15827888E-02
  0.14153007E-02 -0.72547396E-02 -0.11178824E-02
  0.10018512E-02  0.22846813E-02  0.17795279E-03
 -0.19790875E-04  0.58589713E-03  0.11642286E-03
 -0.25174173E-02  0.22912760E-02  0.16049934E-02
  0.17797100E-03  0.38140617E-02 -0.27755102E-02
  0.31022471E-02  0.10323845E-02  0.27728991E-02
  0.70733367E-03 -0.12442951E-02  0.10542416E-02
 -0.12281975E-02  0.15009037E-02  0.11701334E-02
 -0.13753541E-02  0.24377538E-02  0.98560110E-03
 -0.15419503E-02 -0.35542703E-03 -0.16364708E-02
  0.30682470E-02  0.36427661E-02 -0.95805969E-03
  0.25274400E-02 -0.46587951E-02  0.17317550E-02
  0.73840679E-03 -0.24033422E-02 -0.38208075E-02
 -0.43793228E-03 -0.11833462E-02  0.16900869E-02
  0.16130883E-02 -0.23781408E-02 -0.51920960E-03
  0.26216413E-02  0.52993454E-02 -0.18147497E-02
  0.70246931E-03 -0.19829704E-02 -0.35122427E-02
 -0.12779294E-03  0.33538479E-02 -0.37965375E-02
  0.10991055E-02 -0.53324721E-03  0.22728192E-02
 -0.29469989E-02 -0.21492102E-02  0.95965382E-03
  0.32032359E-02  0.92009481E-03  0.24976821E-02
  0.30765861E-02 -0.88634693E-03 -0.69774641E-04
 -0.61391044E-03 -0.58974335E-03  0.28743475E-02
 -0.12477186E-02 -0.75449606E-03  0.11344156E-02
 -0.44910478E-02  0.19441634E-03 -0.11743943E-04
  0.15917719E-03 -0.10302611E-02 -0.32024808E-02
 -0.23221972E-02  0.29117967E-03 -0.89387010E-03
 
           1
   2.00000000000000     
  0.58580574E+00  0.19036042E-02  0.00000000E+00  0.00000000E+00
  0.15992817E-01  0.57168287E-01  0.13071623E+00
  0.50526945E+00  0.52759901E+00  0.61123815E+00
  0.52445500E+00  0.46402644E+00  0.87385666E+00
  0.97785826E+00  0.91787981E-02  0.37231306E+00
  0.25002884E+00  0.22655722E-02  0.87333015E+00
  0.98841213E+00  0.58631944E+00  0.37022139E+00
  0.25987798E+00  0.43437329E+00  0.12282998E+00
  0.19329863E+00  0.20852418E+00  0.10638010E+00
  0.76457945E+00  0.94062617E+00  0.63008132E+00
  0.79979595E+00  0.23142963E+00  0.77823213E+00
  0.72153568E+00  0.75445793E+00  0.36888807E+00
  0.24515737E+00  0.23076645E+00  0.98634568E+00
  0.73767022E+00  0.26904875E+00  0.11533355E+00
  0.25648916E+00  0.73896047E+00  0.73843844E+00
  0.32966469E-01  0.35889746E-02  0.87155646E+00
  0.48702991E+00  0.50364830E+00  0.36512749E+00
  0.22226075E-02  0.98952583E+00  0.62343883E+00
  0.31128259E-01  0.47676363E+00  0.63267525E+00
  0.49831013E+00  0.15933173E-01  0.83692415E-01
  0.28597545E-01  0.52700108E+00  0.87861805E+00
  0.47457545E+00  0.25110995E-01  0.37038652E+00
  0.25608003E+00  0.26859331E+00  0.38178292E+00
  0.78186061E+00  0.77418711E+00  0.87528771E+00
  0.79509493E+00  0.22021881E+00  0.61609496E+00
  0.22707322E+00  0.74104845E+00  0.24325232E+00
  0.26608354E+00  0.21418859E-01  0.63175763E+00
  0.81122291E+00  0.79794783E+00  0.23602206E-02
  0.72543523E+00  0.23854336E+00  0.36941363E+00
  0.50681634E+00  0.76993057E+00  0.50230189E+00
  0.48600229E+00  0.49133319E+00  0.12565464E-02
  0.43469863E-01  0.52077674E+00  0.48445825E+00
  0.52793219E+00  0.72669697E+00  0.74502184E+00
  0.96469979E+00  0.74678588E+00  0.25498515E+00
  0.41708436E-01  0.27960504E+00  0.73970477E+00
  0.99849045E+00  0.17889304E+00  0.99575173E+00
  0.48270731E+00  0.28814355E+00  0.49401817E+00
  0.51364699E+00  0.74167032E+00  0.69889958E-02
  0.26611046E+00  0.22866192E+00  0.25341014E+00
  0.82774979E+00  0.73008155E+00  0.74090785E+00
  0.51710761E+00  0.74611292E+00  0.24760242E+00
  0.78293201E-02  0.99881606E-02  0.26388183E+00
  0.52746237E+00  0.50497323E+00  0.74595122E+00
  0.50587843E+00  0.95163907E+00  0.76496021E+00
  0.96151570E+00  0.48924086E+00  0.26024739E+00
  0.52723566E+00  0.26041717E+00  0.99576921E+00
  0.79767080E+00  0.74460023E+00  0.51369674E+00
  0.25701905E+00  0.78207433E+00  0.51314045E+00
  0.78170376E+00  0.28288383E+00  0.96571871E+00
  0.99440467E+00  0.41890759E-02  0.74115244E+00
  0.47924346E+00  0.48567810E+00  0.23455804E+00
  0.12226601E-01  0.52234548E+00  0.74600831E+00
  0.50720630E+00  0.32288162E-01  0.23131296E+00
  0.25764164E+00  0.25861732E+00  0.61249672E+00
  0.46401422E-01  0.87515676E+00  0.99760250E+00
  0.78004557E+00  0.21680334E+00  0.51038491E+00
  0.26810850E+00  0.72008326E+00  0.99363255E+00
  0.17442573E-02  0.54442002E+00  0.14389426E-01
  0.50670375E+00  0.52650717E+00  0.47720328E+00
  0.46007512E+00  0.51837461E+00  0.12757756E+00
  0.10041676E-01  0.97955961E+00  0.50972146E+00
  0.54221361E+00  0.82977175E-02  0.90613842E+00
  0.54690979E-01  0.26533200E+00  0.49824789E+00
  0.98550652E+00  0.47551172E+00  0.13380524E+00
  0.49920688E+00  0.98450119E+00  0.49064416E+00
  0.94573117E+00  0.26540574E+00  0.23911474E+00
  0.70768094E+00  0.70784827E+00  0.62677446E+00
  0.24635642E+00  0.79242233E+00  0.37715258E+00
  0.25531467E+00  0.24930843E+00  0.74556663E+00
  0.73633688E+00  0.75331107E+00  0.16546064E+00
  0.52374363E+00  0.25400837E+00  0.75475077E+00
  0.69742321E+00  0.21998155E+00  0.23515119E+00
  0.25331434E+00  0.74072763E+00  0.86059943E+00
  0.22990903E+00  0.71015028E+00  0.12161267E+00
  0.53441993E+00  0.29597019E-01  0.63590629E+00
  0.77772810E+00  0.16474764E-01  0.86612002E+00
  0.23334867E+00  0.51917834E+00  0.36315913E+00
  0.30977435E+00  0.50501711E+00  0.87742043E+00
  0.72969801E+00  0.98597948E+00  0.39082272E+00
  0.76401452E+00  0.44178547E-02  0.12359039E+00
  0.24996957E+00  0.50090311E+00  0.62234585E+00
  0.76760256E+00  0.46794992E+00  0.87664050E+00
  0.24414276E+00  0.14423621E-01  0.37387774E+00
  0.76102994E+00  0.46445742E+00  0.62486167E+00
  0.22195555E+00  0.96756392E+00  0.13141345E+00
  0.27978915E+00  0.74394916E+00  0.62956103E+00
  0.77082415E+00  0.53416780E+00  0.12324430E+00
  0.31683633E+00  0.24279898E+00  0.86066804E+00
  0.74947845E+00  0.47087753E+00  0.37220901E+00
  0.26425305E+00  0.98764107E+00  0.25191299E+00
  0.77078784E+00  0.46924423E+00  0.75464901E+00
  0.23220992E+00  0.98748580E+00  0.74626183E+00
  0.71409933E+00  0.51186847E+00  0.24847401E+00
  0.27628994E+00  0.97116582E+00  0.99402985E+00
  0.78377680E+00  0.46712500E+00  0.49854579E+00
  0.26193242E+00  0.25396727E-01  0.49801472E+00
  0.74591129E+00  0.52356954E+00  0.26536428E-02
  0.71719587E+00  0.99151302E+00  0.74999214E+00
  0.22203173E+00  0.47212224E+00  0.24271477E+00
  0.28845619E+00  0.49102263E+00  0.74917877E+00
  0.75861985E+00  0.99822017E+00  0.25703098E+00
  0.27334389E+00  0.52189250E+00  0.49806956E+00
  0.76624140E+00  0.27600647E-01  0.99924669E+00
  0.74581438E+00  0.97892871E+00  0.50311686E+00
  0.25056801E+00  0.46740571E+00  0.99533800E+00
  0.99915408E+00  0.26154934E+00  0.37446026E+00
  0.52196634E+00  0.73778526E+00  0.88176558E+00
  0.49841948E+00  0.27293922E+00  0.62595723E+00
  0.98984012E+00  0.76387530E+00  0.12504433E+00
  0.20630506E-01  0.25926043E+00  0.87435415E+00
  0.49029275E+00  0.75966454E+00  0.36964107E+00
  0.92605668E-02  0.73372390E+00  0.62119029E+00
  0.48406293E+00  0.26272358E+00  0.12228918E+00
  0.15138641E+00  0.36746361E+00  0.50062877E-01
  0.64992801E+00  0.86014866E+00  0.55247159E+00
  0.68197341E+00  0.12792151E+00  0.93733665E+00
  0.16940445E+00  0.62366345E+00  0.43871711E+00
  0.35406245E+00  0.37629704E+00  0.93949952E+00
  0.84378224E+00  0.88274288E+00  0.44418108E+00
  0.85937031E+00  0.11974003E+00  0.60789203E-01
  0.35907492E+00  0.63312732E+00  0.55157251E+00
  0.86184382E+00  0.10469698E+00  0.20031930E+00
  0.39065046E+00  0.60715151E+00  0.69664924E+00
  0.86138237E+00  0.90348624E+00  0.31404098E+00
  0.39415760E+00  0.38150076E+00  0.79915494E+00
  0.13188967E+00  0.59476656E+00  0.29515587E+00
  0.62156856E+00  0.88675561E-01  0.80187789E+00
  0.10818099E+00  0.36741071E+00  0.19820227E+00
  0.64001534E+00  0.86291993E+00  0.69762846E+00
  0.85133226E+00  0.62293351E+00  0.95407943E+00
  0.37470775E+00  0.10935934E+00  0.44546196E+00
  0.88835973E+00  0.36041446E+00  0.55079505E+00
  0.36522579E+00  0.88983219E+00  0.54416633E-01
  0.14819721E+00  0.12105063E+00  0.55695895E+00
  0.62839399E+00  0.60007327E+00  0.54482731E-01
  0.19386433E+00  0.86365313E+00  0.92842993E+00
  0.65131066E+00  0.37794393E+00  0.45625930E+00