Na88 Sn16 P8 S96                        
   1.00000000000000     
    13.4813327813000008    0.0000000000000000    0.0000000000000000
     0.0000000000000000   13.4813327813000008    0.0000000000000000
     0.0000000000000000    0.0000000000000000   26.9626655626000016
   Na   Sn   P    S 
    88    16     8    96
Direct
  0.0695013143954239  0.0616835611067273  0.1147854987108272
  0.4876994886499605  0.4964078670563782  0.5879847839841803
  0.4900584035802524  0.3410922971723490  0.7384368273205977
  0.0010846105835406  0.9846521781398236  0.3573034071932830
  0.3106279796979227  0.0092571858527230  0.8592873644392548
  0.0129863720900543  0.5905977387363970  0.3787514055885707
  0.0620536390859693  0.4642621422951939  0.0974145878151327
  0.2731416307398868  0.2821531330769376  0.2297910250629022
  0.9588272903058884  0.0153478256883451  0.6282304058478428
  0.6984771485103936  0.2636485246886602  0.8669205560869303
  0.7361801368487614  0.7416011566356594  0.4960866677074829
  0.2735825667948371  0.2550951571440101  0.9646727194992446
  0.7843353880972058  0.0583910859883600  0.1163352778556519
  0.2967749018464831  0.7483613334957537  0.6379716687951111
  0.0417433749691236  0.9285593974711901  0.8883178866194243
  0.4982337242204387  0.4470769039114688  0.3585261692629826
  0.9906634387104061  0.0205094154882765  0.7616773072668725
  0.0424271025247142  0.5424184386035705  0.7058377430595508
  0.2790723076709400  0.7884546906957182  0.1431798411978027
  0.7704070941400644  0.5388124232887924  0.8714334379714015
  0.4638835671416195  0.9911449370509586  0.3918803814561626
  0.2754183444715486  0.2380653683114447  0.3799066766493293
  0.7468728142349234  0.7986277568378390  0.8764560562845681
  0.7727302808213847  0.5344333302476655  0.6149005582902657
  0.2809305513413832  0.7498450580092310  0.0127452361355828
  0.2555544680519638  0.2070804310565250  0.6553638830287870
  0.8088014266718740  0.5451105507972478  0.1241551241137166
  0.7268067420107613  0.2345876199236092  0.3565040170082176
  0.1918351627967131  0.7940448871257477  0.5258818913162147
  0.5540638224801242  0.0181715123219442  0.9917945398647761
  0.9910401296977878  0.5228314133161541  0.4962721965307139
  0.4847598427746946  0.9815727410039302  0.7417960744562239
  0.7881276471148951  0.7490737732397075  0.2462210128045149
  0.1678256652432973  0.2712869879889794  0.7855094432484803
  0.0333623481483048  0.9863438636306238  0.9991392986515195
  0.5068794111822184  0.2283924346175255  0.4887644485491275
  0.0366256627260126  0.7680315054918920  0.2344347724144236
  0.4957590302358658  0.2550033314331369  0.2398591947432785
  0.0114547892251900  0.7362714266003433  0.7632561575509492
  0.5065081506386477  0.7269524957561940  0.2149981525425135
  0.0367837171224821  0.0177174774745719  0.2409202240986478
  0.5173610108526668  0.7062035862646429  0.7401426369271700
  0.5524073223499003  0.0039001261236970  0.8801990336747255
  0.9951858591811488  0.4633735407998738  0.2589171565363692
  0.5250146168372549  0.2547536765807562  0.9676601608760428
  0.4893476154377873  0.7849008169372933  0.4981450378045391
  0.9805050082732296  0.7602572049617512  0.4902246237797806
  0.7904370267173862  0.2663921406875369  0.9886840312241144
  0.7499091525726420  0.2669748818333953  0.7347426362026331
  0.5274722900779109  0.5086840118680237  0.2280666283231327
  0.0000571642589380  0.4109845472615318  0.8181791160182533
  0.5178412152390331  0.0195553583935085  0.2622968367650025
  0.2351904815091284  0.2538725234660069  0.4907151919119772
  0.7506468930774237  0.7500527430463304  0.9917515856569127
  0.7499444527960210  0.2321424937215830  0.4998066472063034
  0.0419372305917259  0.7295204751671720  0.9710776747240120
  0.0289628121743986  0.2607812619810085  0.0093812560964632
  0.5085268997163220  0.5184733903767509  0.4812289321903538
  0.5543011965132666  0.5658599752903020  0.9870037425081885
  0.9772491292293809  0.0158291388924049  0.4918771419173196
  0.5195823050438524  0.0087885485457380  0.1237142836514398
  0.0016489775418271  0.2570482172231996  0.5105116941533303
  0.0727052190011391  0.4427215876704392  0.9578725559014166
  0.4472349151808681  0.0652095121710843  0.5738513172884495
  0.0299311522381680  0.2416725305724771  0.2355005611388123
  0.7834714395772984  0.7623263415179103  0.7478562170149832
  0.2812644228463573  0.7650776312740420  0.2779559113136656
  0.7537012872118874  0.2448016182894459  0.6153711054882188
  0.7744495562571855  0.7254176208752990  0.3679599229657203
  0.9613883673786592  0.2489172154166545  0.7010244127425067
  0.7453988797642180  0.2600434493024935  0.2231785999646325
  0.2749797911864704  0.7521896976429655  0.7516379266450194
  0.3217173402512550  0.1896676546280007  0.1182590848452493
  0.7096942434109550  0.0229613235710240  0.6380065905668038
  0.8265147436206416  0.0833436414439851  0.8673813756617796
  0.2716589377565535  0.5419917045408613  0.3809448430335769
  0.2482602918105439  0.4870828646543396  0.8828179279300424
  0.7216267369729154  0.9561980344179367  0.3782612702853089
  0.7388118789915916  0.7801501913341931  0.1157458438011516
  0.2548962486741098  0.4757341162801768  0.6170207540344131
  0.5061148524559055  0.4594424869895063  0.8615447707030318
  0.2541586112203358  0.9654887580026795  0.3676252645271567
  0.6366747422580428  0.7658207389630572  0.6437598185334383
  0.2966781896485373  0.4690237350305466  0.1285897183241201
  0.1472709620039679  0.9362038300577777  0.6366297701152241
  0.5702691560976635  0.5200685710752675  0.1171901781431997
  0.2580842764215249  0.7472530103623790  0.8742462431072530
  0.8511241619295267  0.4515945856591407  0.3570523801405662
  0.2742804560953733  0.0234706044106072  0.2428893595322054
  0.7688760276124518  0.4953200404828583  0.7465454365163759
  0.2433772774729102  0.9961047784416224  0.7422897210617829
  0.7432995101200207  0.5139897600232440  0.2539745865552912
  0.3094922488905048  0.9977568091633643  0.0088996100984002
  0.7336698492658859  0.4847358466343096  0.4926914659393649
  0.2533822583001307  0.9954294481623670  0.4984717780384239
  0.7972366991165072  0.5247895928493168  0.9947631184920879
  0.7377170444784583  0.9827138433703035  0.7755947393971332
  0.2443145999083266  0.5155347048662642  0.2536889448513443
  0.2546912441080739  0.4837908056713896  0.7488165397957284
  0.7781282274216642  0.0004502673469041  0.2352322241163244
  0.2305083237989540  0.4836490803054694  0.4991222831887188
  0.7902849160085428  0.0260975575807394  0.9901804120048481
  0.6918608457524814  0.9968255999145349  0.5078092591817122
  0.3126782351531212  0.4972220507445755  0.0070798077697665
  0.9888654399342387  0.2258849644416278  0.3821536378082858
  0.5108571721136219  0.7514348371409143  0.8691962398801353
  0.5236531891384533  0.2574914238635661  0.6235660450773411
  0.0492810409358899  0.7395686728263368  0.0995839191871882
  0.9950305333558971  0.2558130678989038  0.8840698224356653
  0.4906228806337382  0.7495053028736554  0.3639929450783383
  0.0019419067752633  0.7688740073507357  0.6222517261025419
  0.5392132604431698  0.2617824028537283  0.1000675925239969
  0.2354142759034679  0.3544583144705033  0.0533216487186470
  0.5982529103788259  0.9082641962973501  0.5645768971773171
  0.6864243799412416  0.1423444037972379  0.9452823647397102
  0.1280865773398471  0.6083672585566295  0.4509126861236802
  0.3914416914034484  0.3975796528050050  0.9299975855210006
  0.8182936228115542  0.9001237995512814  0.4610879936681501
  0.8998781282961171  0.1029263113609226  0.0407437515456098
  0.3204475520677379  0.6133525031098845  0.5551991752941426
  0.8881902627155364  0.1084238775713974  0.1970210718041811
  0.3845377635084266  0.5889914354098063  0.6960648782591553
  0.8704237971296107  0.8771890310543983  0.3068798826216421
  0.3677064726091484  0.4056076198446877  0.8093360735853365
  0.1417840778415909  0.6203387821929074  0.2989320892505016
  0.6376538170714513  0.1117840584938155  0.8125339289867015
  0.1492256336688147  0.4290857309914918  0.1868194227335334
  0.6449922212170550  0.8892711640717412  0.7154949987351482
  0.8856932111594408  0.6341095288015972  0.9342550984980703
  0.3592183812589301  0.1089820658732252  0.4445734296282829
  0.8372413245562366  0.4024754781953554  0.5455182928054449
  0.4007992499013803  0.9011594923634020  0.0648143948801875
  0.1321070981160659  0.1018124252550429  0.5521124347871917
  0.6969231556316816  0.6287321631364027  0.0534083795400948
  0.1846500681071996  0.8891699510998624  0.9574791886945296
  0.6388273786323173  0.4001085027877032  0.4251906490683502
  0.6315131751422262  0.3972782725182940  0.2848506661240939
  0.1435189646074299  0.8779800195221448  0.8003688257282057
  0.1157331469031259  0.0895186284757857  0.7015602172815998
  0.6787612108215316  0.6182930764434241  0.1954525311355614
  0.8706662994307095  0.4123760914125768  0.6830098780265104
  0.4010328847178958  0.9092324794276659  0.2150316099277134
  0.3694898428099962  0.1530913072590217  0.2893175972317383
  0.8732336684241130  0.6040651744317685  0.7896809160196487
  0.1963924629965212  0.0892379700230796  0.0510251094894264
  0.6359890844722331  0.6007860207168026  0.5489112436013223
  0.6854455101469642  0.4298589362688670  0.9442149038746079
  0.1485550075859306  0.9059414198945265  0.4421675080199751
  0.3935737218517590  0.0823438614567791  0.9379786983139359
  0.8349790272084417  0.6107620934830671  0.4447712463417737
  0.9106172577594093  0.4256353897902771  0.0451190527613826
  0.3623477591452918  0.9134524029934501  0.5526089065247026
  0.1778030822948705  0.1278231519120374  0.1936550983893618
  0.6605721939181296  0.5989836975149505  0.6920196182458591
  0.1580922341387452  0.8931368119225049  0.2778487945933088
  0.6841854261739948  0.4089095936010163  0.8026462165227269
  0.8742476465368815  0.6123141462665691  0.3023995908719509
  0.3255762849300064  0.1105550213667170  0.7841444057493159
  0.8447839611370624  0.4165222746471792  0.2021396277054442
  0.3335682880297100  0.8997912659720237  0.6901462779295020
  0.8514036094916566  0.9107110298543060  0.9383973576909479
  0.3388682019118558  0.3912578324785538  0.4352670514802043
  0.8240081946667339  0.0740500898772086  0.5564150402904076
  0.4076680889420836  0.5942851281466074  0.0583991849853641
  0.1312138467977217  0.3917239720301903  0.5481840792015215
  0.6939337105138542  0.9428539395720675  0.0546987074664129
  0.2005789411222609  0.6045466448501412  0.9525177188880743
  0.6142722418069846  0.0796510132796419  0.4375999307417441
  0.3344563727854480  0.4049091529917925  0.3054821397133224
  0.8665021173421257  0.8960350408003293  0.8124460296352718
  0.8267045212650259  0.0720120826974633  0.7036838262258689
  0.3538642622683867  0.6287753084491698  0.2065045903894991
  0.1320932443657675  0.3819849904252320  0.7122411577453946
  0.6846840374991868  0.8970341140226967  0.1856982701615296
  0.6871691023611064  0.1076343098186649  0.2892274256411322
  0.1437167346385436  0.5841660419896525  0.8006824585382986
  0.1053804222269463  0.1810558656925573  0.3450791589475837
  0.6290829058888344  0.6994727968272428  0.8258194628865789
  0.6045520022769786  0.3648874910436035  0.6535482086298869
  0.0934003351311842  0.8660993305621296  0.1401451907949910
  0.4967341190584246  0.1354661571605128  0.6696355368383980
  0.9620433548182066  0.6593867275924694  0.1476770715506022
  0.9037439561652640  0.2831414074321752  0.3247990716389700
  0.4219892822465835  0.8478313746905833  0.8329052224223210
  0.1288983016006827  0.3230449640953127  0.8733031955278948
  0.5783542133137736  0.6933540911332940  0.4254939629450197
  0.0495538564167886  0.8767848978063909  0.5709604552405704
  0.6066015906553024  0.3704792963814155  0.0575315467707440
  0.9516536646410270  0.6511147218466861  0.5822142844484927
  0.4693516294123949  0.1829843655345629  0.0454938614694981
  0.9098505290451482  0.3415707282508764  0.9238929211431000
  0.3818634327794926  0.8345353367221633  0.3938281885666027
  0.9038942612553607  0.8365263448053679  0.6635887726126352
  0.4441192049907891  0.3434025794718847  0.1499442258067267
  0.0197809257890288  0.1426033640262151  0.9292854466331012
  0.4177972146972360  0.6443638224199421  0.3244303452048481
  0.9240621774269453  0.2126597829882249  0.8163749602311902
  0.5877578341211804  0.8292112272389732  0.3207875705146613
  0.1064523404265699  0.7195501569864701  0.6680910111991398
  0.6285221272379813  0.1811885902355719  0.1461428080629645
  0.3946769215841938  0.3230497193509952  0.5970779062741723
  0.9517447718623069  0.7939764544174178  0.0453165024672866
  0.8928097794763747  0.1276606573343277  0.4150692719165756
  0.4415309787908573  0.6309897833022735  0.8925512194272877
  0.0418441575017164  0.3500313303841524  0.4262633853455277
  0.5424901834396731  0.8324655036032264  0.9320703652624934
  0.6051911899368924  0.1835716026077780  0.5660959818579464
  0.1691795619726635  0.6662949788417815  0.0792812298699403
 
  0.88097633E-03 -0.11479136E-01  0.41549893E-02
 -0.53900059E-02  0.65730127E-02  0.49136668E-02
 -0.14708400E-01 -0.49568725E-02 -0.13170556E-01
  0.60572229E-02 -0.33271024E-02 -0.13997094E-01
 -0.33907528E-03 -0.66985622E-02  0.15140594E-02
 -0.67586007E-02 -0.58294479E-02  0.47251532E-02
 -0.18917114E-02  0.46941894E-02 -0.43489687E-02
 -0.49749247E-02 -0.11682398E-02 -0.42006202E-02
 -0.10847345E-01  0.51149324E-02  0.22878000E-02
 -0.53401455E-02  0.27133086E-02 -0.93758684E-03
  0.32632043E-02 -0.54602789E-02  0.73383367E-02
  0.21251148E-02  0.39432423E-04 -0.85164566E-02
 -0.20584589E-02 -0.28259018E-02  0.95416164E-02
  0.33972672E-02  0.21604236E-02 -0.54926198E-02
 -0.67692151E-02 -0.16495709E-02  0.24543192E-03
  0.15263265E-03  0.40102553E-02 -0.83488724E-02
  0.29770794E-02  0.17341003E-02  0.15670390E-02
 -0.22860416E-02 -0.90415270E-03  0.52046194E-02
  0.56215008E-02 -0.30727914E-02  0.11990883E-01
 -0.15165415E-02 -0.15847507E-02 -0.34485981E-02
  0.97910636E-02  0.56348963E-02  0.59379248E-02
 -0.16755298E-02  0.95798625E-02  0.25775253E-02
  0.48330344E-02  0.52538271E-02  0.78023672E-02
  0.71369238E-02  0.27695443E-02  0.51363914E-02
  0.11059481E-01  0.45694107E-03  0.47605554E-03
  0.13347796E-02 -0.52027030E-02  0.61584615E-02
  0.22908868E-04 -0.73441628E-02 -0.68877580E-02
  0.37467743E-02 -0.57183622E-02  0.18319287E-02
 -0.41835611E-02  0.15275691E-02  0.56238194E-02
  0.97562233E-02 -0.83206095E-02  0.24601107E-03
 -0.53623560E-02  0.48864969E-02 -0.40416004E-02
 -0.36033924E-02 -0.11429887E-01  0.61935145E-02
 -0.51149825E-04 -0.53013723E-02  0.10161285E-02
 -0.46287702E-02  0.31986710E-02  0.29820279E-02
 -0.76650843E-03  0.37795547E-03 -0.84374507E-03
 -0.39077487E-02 -0.44044224E-02 -0.44786139E-02
 -0.46733886E-02  0.94303485E-02 -0.40105282E-02
 -0.19965519E-02 -0.21642994E-02 -0.66057303E-02
 -0.22336618E-02 -0.74958772E-02  0.68153255E-02
 -0.41715595E-02  0.76463700E-03 -0.47039333E-02
  0.33333634E-02 -0.39134858E-02  0.22257904E-02
 -0.27077730E-02 -0.82903147E-02 -0.12372024E-01
 -0.23670931E-02  0.40393689E-02 -0.22603305E-02
  0.14841152E-02 -0.13648852E-02  0.13643851E-02
 -0.39297364E-02 -0.48791198E-03 -0.77234267E-02
  0.45572443E-02 -0.20055815E-02 -0.53706984E-02
 -0.98650293E-02  0.16063502E-02 -0.15239652E-01
  0.14046044E-02 -0.44269007E-02  0.19270801E-02
  0.22944841E-02 -0.64233193E-02 -0.70328052E-02
 -0.55402500E-02  0.52213182E-02 -0.51238229E-02
 -0.53183035E-02  0.27287596E-02  0.17013840E-02
 -0.92586037E-02  0.72921734E-03  0.40893984E-02
  0.22395173E-02 -0.39662086E-02  0.10507422E-01
  0.50492916E-02 -0.12429190E-01 -0.54651452E-02
 -0.86374652E-02 -0.37680138E-02 -0.34247128E-04
  0.12124869E-02 -0.50219218E-02 -0.26942864E-02
 -0.17382868E-02  0.76336796E-02 -0.59416558E-03
  0.24553942E-02  0.32096401E-02 -0.33054072E-02
 -0.42211572E-02  0.80277198E-02  0.42236918E-03
  0.11414716E-01  0.10634835E-01  0.40774116E-02
  0.17276452E-02 -0.37452841E-02 -0.30334765E-02
  0.54447267E-02 -0.70876398E-02  0.47291024E-03
  0.47868667E-02 -0.62892098E-02  0.10136550E-01
 -0.10845533E-01  0.19957044E-02  0.90215212E-02
 -0.83485441E-02  0.94397339E-02 -0.13147658E-02
 -0.22419991E-02  0.10219324E-02  0.66474011E-02
 -0.89565512E-02  0.29901131E-02 -0.73525513E-02
 -0.10399951E-02  0.13090663E-01 -0.34214995E-02
  0.71910259E-02 -0.19876413E-02  0.90560846E-02
  0.30173433E-02 -0.30326995E-02  0.90283095E-02
  0.80750699E-02  0.37401867E-02 -0.31550160E-02
 -0.13036246E-01  0.52073787E-02 -0.88812347E-02
  0.50643849E-02 -0.46485493E-02 -0.10468333E-01
 -0.74320724E-02 -0.18081735E-02 -0.10533022E-02
 -0.42345782E-02 -0.14318466E-02  0.21528726E-03
  0.69607600E-02  0.44396243E-02  0.10692451E-01
 -0.46714393E-03  0.23918653E-02 -0.16982712E-02
  0.75090280E-02  0.30680708E-02  0.32778273E-02
  0.55180123E-02 -0.22788101E-03 -0.10370035E-01
  0.14343744E-02  0.83241078E-02  0.70112215E-02
  0.48637813E-03 -0.59555167E-02  0.30221140E-02
  0.20061342E-02 -0.14549905E-02  0.47980777E-02
  0.62597093E-02 -0.34945209E-03 -0.63393357E-03
 -0.61117227E-02  0.14415250E-01 -0.19352275E-02
 -0.38985451E-02 -0.17010333E-02  0.65697136E-02
  0.18621708E-02 -0.60059114E-02 -0.10520284E-01
  0.15334153E-02 -0.34796853E-02 -0.14324883E-02
  0.25929284E-02  0.10810856E-02 -0.22160359E-02
  0.86187538E-03  0.87060426E-03 -0.39994391E-03
 -0.14209121E-03 -0.75125885E-04 -0.87663668E-03
 -0.34895181E-02 -0.38228947E-02 -0.17433914E-02
  0.26499262E-02 -0.35396397E-02  0.71116314E-04
 -0.23473190E-02 -0.32469851E-03  0.16875931E-02
 -0.15283739E-02  0.39965304E-02  0.69018936E-03
  0.79767303E-03  0.34164517E-03  0.35742228E-03
  0.37945055E-02  0.22839290E-02  0.61362431E-03
 -0.38506435E-02  0.28830046E-02  0.18308054E-02
  0.14675887E-02  0.20202877E-02 -0.26185218E-02
  0.23231323E-02  0.13326432E-02 -0.24215861E-02
  0.32646952E-02 -0.25362191E-02  0.42199242E-02
  0.34664087E-02 -0.31009148E-02 -0.48226889E-03
 -0.52885494E-04  0.25221199E-02 -0.35488166E-02
  0.14759724E-02 -0.61941187E-03  0.21105974E-04
 -0.21260804E-02 -0.11789860E-02  0.15974741E-02
  0.12249318E-01  0.72699126E-03 -0.13918739E-02
  0.22210184E-02 -0.41086190E-02 -0.26390187E-02
  0.17520694E-03 -0.14937991E-02  0.22775789E-02
 -0.12585493E-02  0.86553730E-02  0.12809334E-01
 -0.10465075E-01  0.35359751E-02 -0.43781425E-02
 -0.36964400E-02  0.45472471E-02  0.22408063E-02
 -0.15727910E-03 -0.35385804E-02  0.12573680E-01
  0.14440685E-02  0.53678592E-02 -0.83513717E-02
 -0.32265211E-02  0.57233112E-02  0.64992481E-02
 -0.18262363E-02  0.41230288E-02  0.48386739E-02
  0.60687204E-02 -0.69795114E-02  0.61782599E-02
  0.19559618E-02 -0.52977009E-02  0.31110109E-02
 -0.30740859E-02 -0.18663740E-03  0.10216309E-01
  0.92868734E-02 -0.46305353E-02  0.13076791E-01
  0.19460409E-02  0.29793298E-04  0.31047052E-02
  0.68610446E-02  0.41954627E-02 -0.80138988E-02
 -0.49847716E-03 -0.54810024E-02  0.56306100E-03
  0.15663685E-03  0.23923003E-02 -0.38896231E-02
  0.66704976E-02 -0.13452636E-01 -0.17361008E-02
 -0.84464374E-02  0.12737535E-02 -0.51735140E-02
 -0.19708959E-02 -0.59929248E-03 -0.34298428E-02
  0.26063220E-02 -0.57764702E-02  0.18752627E-02
  0.30745628E-02  0.90077450E-03  0.33353834E-02
 -0.13072323E-01 -0.76667847E-03 -0.19953709E-02
 -0.11648228E-01  0.82732052E-02  0.12835932E-02
 -0.88111239E-02 -0.20739868E-02 -0.15243429E-02
  0.23520702E-03  0.49407226E-02 -0.25884335E-02
 -0.31969487E-02  0.32781639E-02 -0.11570639E-02
  0.90290542E-02  0.62457926E-02 -0.61538634E-02
 -0.64020950E-02  0.16557659E-02 -0.31687586E-02
  0.20420928E-02 -0.28496432E-02  0.75239743E-02
  0.21973419E-02 -0.37455757E-02  0.90240188E-03
  0.46478191E-02  0.57293879E-02  0.18913738E-02
 -0.67924867E-02 -0.16005516E-02 -0.32971091E-02
 -0.38976763E-02 -0.46052216E-02 -0.61062009E-02
  0.63749867E-03  0.94608923E-02 -0.39337187E-02
  0.33482636E-02 -0.47040469E-02  0.87871018E-02
  0.49321940E-02  0.58049956E-02 -0.22130958E-02
  0.43912361E-02 -0.71582935E-02 -0.55392307E-02
 -0.82821149E-03 -0.94133161E-02  0.87182607E-03
 -0.82123004E-02 -0.74587095E-02  0.94771606E-03
 -0.83618409E-02 -0.13719857E-02  0.38324727E-02
 -0.29761327E-02 -0.21919902E-02  0.28328763E-02
  0.16030779E-02 -0.65053718E-02  0.52992315E-03
 -0.61283351E-02  0.11494411E-01  0.19409661E-02
  0.11609300E-02 -0.14719283E-02 -0.14046039E-02
 -0.56076071E-02  0.55825354E-02 -0.78853034E-02
  0.21876984E-02  0.28656928E-02  0.31485892E-03
 -0.45732087E-02  0.93796482E-02 -0.41523426E-02
  0.52060117E-03 -0.21548115E-02  0.36503572E-03
 -0.59802337E-02 -0.79420077E-03  0.11246968E-01
 -0.90164239E-02  0.72493257E-03  0.87139390E-02
  0.16966224E-02  0.34401901E-02 -0.62278955E-02
  0.37050565E-02  0.14113657E-02 -0.33178004E-02
 -0.10736404E-02 -0.53344993E-02 -0.38863677E-02
  0.29637252E-04  0.49382664E-03 -0.44194557E-03
 -0.77859010E-02 -0.28509124E-02  0.64256098E-02
  0.13245650E-01  0.49979081E-02  0.29640340E-02
 -0.33881807E-02 -0.58303517E-02  0.17398495E-02
 -0.87266763E-03  0.22069737E-02 -0.19986585E-02
 -0.14629851E-02  0.10314360E-01  0.35527397E-02
  0.11742922E-02  0.46170811E-02  0.23739531E-02
 -0.51635276E-02  0.27417357E-02 -0.91792716E-03
  0.27402331E-02  0.34575757E-02  0.14629957E-02
 -0.34094463E-02  0.53862627E-03 -0.45516844E-02
  0.88418039E-02 -0.56875058E-02 -0.40754113E-02
  0.30772531E-02 -0.10183785E-01  0.36771693E-03
 -0.27553267E-02  0.29689946E-02 -0.50004335E-02
  0.12766663E-02  0.67689399E-02 -0.12875364E-02
  0.22300641E-02  0.34391775E-02 -0.20672567E-02
  0.84399178E-02 -0.18601357E-02 -0.13185009E-02
 -0.31945161E-02  0.42418093E-02 -0.29358872E-02
  0.17197293E-02 -0.33670777E-02  0.10600931E-02
 -0.44150237E-02 -0.11370097E-01  0.79066280E-02
 -0.22334817E-02  0.51442970E-02  0.11366415E-02
  0.30644623E-02 -0.31905801E-02 -0.14806836E-02
  0.92375595E-02  0.13777093E-02 -0.55123137E-02
 -0.33267157E-02 -0.64303427E-02 -0.52208281E-03
  0.14104133E-01  0.35300222E-02 -0.36859322E-02
 -0.69775157E-02  0.37719249E-02  0.17988397E-02
 -0.54031648E-02  0.75100995E-02 -0.46202190E-02
  0.55997000E-02  0.60664702E-02  0.52311943E-03
  0.10744346E-01 -0.72535425E-02 -0.44880091E-02
  0.46443601E-02 -0.20958442E-02  0.19166763E-02
  0.58142112E-02  0.59882409E-02  0.47439274E-02
  0.43853009E-02 -0.23223249E-02  0.20034158E-02
  0.42933269E-02  0.70175350E-02  0.64629588E-03
  0.19138138E-02 -0.67700732E-02  0.76220632E-03
  0.30099923E-02 -0.24473427E-02  0.49929541E-02
  0.35151521E-02  0.64891079E-02 -0.79038051E-02
  0.42905086E-02 -0.83518580E-02 -0.86707314E-03
 -0.41246013E-02 -0.96764828E-02 -0.33519117E-02
 -0.53756668E-02 -0.40265222E-02  0.50116361E-03
 -0.23015234E-02  0.67397001E-02 -0.11078790E-02
 -0.16412185E-02  0.40640856E-04  0.64401287E-02
 -0.65401135E-02  0.43833398E-03 -0.28919763E-02
  0.11015308E-01 -0.53399280E-02  0.58627961E-02
 -0.46733915E-02 -0.15433435E-03 -0.12349818E-02
  0.38272783E-02 -0.74475622E-02  0.18510388E-02
  0.67018896E-02 -0.58599281E-02 -0.11225667E-01
  0.75897210E-02  0.88825812E-02 -0.21284831E-02
 -0.16449023E-02  0.91994206E-02 -0.61253153E-02
 -0.78781411E-02  0.36568923E-02  0.20269191E-02
 -0.12514837E-01 -0.40218611E-02  0.33157640E-02
 
           1
   2.00000000000000     
  0.65016054E+00  0.10532806E-02  0.00000000E+00  0.00000000E+00
  0.69632010E-01  0.59980594E-01  0.11509370E+00
  0.48689986E+00  0.49738300E+00  0.58834926E+00
  0.48787636E+00  0.34035693E+00  0.73745988E+00
  0.19832195E-02  0.98415859E+00  0.35626515E+00
  0.31057768E+00  0.82634321E-02  0.85939967E+00
  0.11983711E-01  0.58973292E+00  0.37910190E+00
  0.61772997E-01  0.46495854E+00  0.97091996E-01
  0.27240358E+00  0.28197982E+00  0.22947944E+00
  0.95721805E+00  0.16106643E-01  0.62840011E+00
  0.69768492E+00  0.26405105E+00  0.86685101E+00
  0.73666424E+00  0.74079111E+00  0.49663100E+00
  0.27389783E+00  0.25510101E+00  0.96404100E+00
  0.78403001E+00  0.57971854E-01  0.11704304E+00
  0.29727890E+00  0.74868184E+00  0.63756424E+00
  0.40739140E-01  0.92831468E+00  0.88833609E+00
  0.49825637E+00  0.44767184E+00  0.35790688E+00
  0.99110510E+00  0.20766675E-01  0.76179354E+00
  0.42087961E-01  0.54228430E+00  0.70622380E+00
  0.27990628E+00  0.78799883E+00  0.14406928E+00
  0.77018211E+00  0.53857732E+00  0.87117763E+00
  0.46533610E+00  0.99198089E+00  0.39232084E+00
  0.27516977E+00  0.23948657E+00  0.38009787E+00
  0.74758981E+00  0.79940718E+00  0.87703481E+00
  0.77378907E+00  0.53484420E+00  0.61528156E+00
  0.28257126E+00  0.74991285E+00  0.12780548E-01
  0.25575249E+00  0.20630859E+00  0.65582070E+00
  0.80880483E+00  0.54402102E+00  0.12364421E+00
  0.72736259E+00  0.23373928E+00  0.35663990E+00
  0.19121452E+00  0.79427151E+00  0.52629905E+00
  0.55551119E+00  0.16937123E-01  0.99181279E+00
  0.99024461E+00  0.52355634E+00  0.49597240E+00
  0.48422527E+00  0.97987708E+00  0.74225549E+00
  0.78812006E+00  0.74828730E+00  0.24629639E+00
  0.16713897E+00  0.27176152E+00  0.78573064E+00
  0.33248634E-01  0.98639993E+00  0.99907671E+00
  0.50629968E+00  0.22773902E+00  0.48843224E+00
  0.35932350E-01  0.76943053E+00  0.23413728E+00
  0.49546284E+00  0.25468225E+00  0.23936920E+00
  0.11123418E-01  0.73515939E+00  0.76376170E+00
  0.50588929E+00  0.72706593E+00  0.21464923E+00
  0.37278233E-01  0.17136899E-01  0.24108533E+00
  0.51695930E+00  0.70497369E+00  0.73922492E+00
  0.55205616E+00  0.44993798E-02  0.88003137E+00
  0.99540603E+00  0.46317106E+00  0.25901836E+00
  0.52443163E+00  0.25468129E+00  0.96708726E+00
  0.49002370E+00  0.78460328E+00  0.49774666E+00
  0.97904150E+00  0.76049551E+00  0.48909420E+00
  0.79064540E+00  0.26573540E+00  0.98882698E+00
  0.75024955E+00  0.26602196E+00  0.73422097E+00
  0.52665038E+00  0.50945861E+00  0.22768656E+00
  0.99926818E+00  0.41138937E+00  0.81830532E+00
  0.51646767E+00  0.19663540E-01  0.26260017E+00
  0.23552272E+00  0.25328412E+00  0.49149460E+00
  0.75139597E+00  0.74820883E+00  0.99134620E+00
  0.74866306E+00  0.23158350E+00  0.49980411E+00
  0.42117107E-01  0.72877546E+00  0.97087782E+00
  0.28704932E-01  0.26191374E+00  0.93371829E-02
  0.50889117E+00  0.51894955E+00  0.48098375E+00
  0.55367497E+00  0.56705091E+00  0.98703507E+00
  0.97894254E+00  0.17406852E-01  0.49217959E+00
  0.51983861E+00  0.82329234E-02  0.12348927E+00
  0.24567206E-02  0.25599674E+00  0.51054677E+00
  0.73415366E-01  0.44178856E+00  0.95862445E+00
  0.44562594E+00  0.65505581E-01  0.57452050E+00
  0.28692618E-01  0.24307295E+00  0.23540304E+00
  0.78313883E+00  0.76247795E+00  0.74834930E+00
  0.27993569E+00  0.76552122E+00  0.27741052E+00
  0.75354700E+00  0.24674366E+00  0.61511731E+00
  0.77551637E+00  0.72512275E+00  0.36863167E+00
  0.96183600E+00  0.24846730E+00  0.70169410E+00
  0.74659684E+00  0.26059832E+00  0.22294457E+00
  0.27304582E+00  0.75296223E+00  0.75097915E+00
  0.32246866E+00  0.18897803E+00  0.11748258E+00
  0.70859167E+00  0.22693075E-01  0.63792846E+00
  0.82588653E+00  0.83131222E-01  0.86739734E+00
  0.27269159E+00  0.54265034E+00  0.38173797E+00
  0.24819099E+00  0.48743771E+00  0.88269196E+00
  0.72274073E+00  0.95665319E+00  0.37850441E+00
  0.73963049E+00  0.78011638E+00  0.11497663E+00
  0.25510904E+00  0.47696903E+00  0.61754082E+00
  0.50618701E+00  0.45855897E+00  0.86176894E+00
  0.25445623E+00  0.96527291E+00  0.36798117E+00
  0.63760339E+00  0.76576890E+00  0.64371280E+00
  0.29577150E+00  0.47116228E+00  0.12844617E+00
  0.14669260E+00  0.93595148E+00  0.63711709E+00
  0.57054542E+00  0.51917757E+00  0.11640982E+00
  0.25831176E+00  0.74673679E+00  0.87413999E+00
  0.85150883E+00  0.45175497E+00  0.35688800E+00
  0.27440832E+00  0.23599761E-01  0.24285969E+00
  0.76885495E+00  0.49530890E+00  0.74648041E+00
  0.24285960E+00  0.99553764E+00  0.74216040E+00
  0.74369264E+00  0.51346464E+00  0.25397986E+00
  0.30914402E+00  0.99770864E+00  0.90247901E-02
  0.73344311E+00  0.48532875E+00  0.49274266E+00
  0.25350060E+00  0.99548013E+00  0.49849829E+00
  0.79779963E+00  0.52512842E+00  0.99480864E+00
  0.73714579E+00  0.98314155E+00  0.77573054E+00
  0.24453232E+00  0.51583442E+00  0.25349471E+00
  0.25503589E+00  0.48398851E+00  0.74863691E+00
  0.77861256E+00  0.74010917E-04  0.23554524E+00
  0.23102258E+00  0.48318905E+00  0.49908651E+00
  0.79027707E+00  0.26471722E-01  0.98991717E+00
  0.69207981E+00  0.99673371E+00  0.50781082E+00
  0.31236282E+00  0.49704714E+00  0.71983030E-02
  0.99068267E+00  0.22599282E+00  0.38205039E+00
  0.51118667E+00  0.75082531E+00  0.86900049E+00
  0.52367918E+00  0.25726981E+00  0.62373499E+00
  0.49094331E-01  0.74085273E+00  0.10053407E+00
  0.99347801E+00  0.25633764E+00  0.88374507E+00
  0.49007450E+00  0.75017990E+00  0.36415916E+00
  0.19185739E-02  0.76834905E+00  0.62318440E+00
  0.53942749E+00  0.26257874E+00  0.99448116E-01
  0.23493561E+00  0.35530739E+00  0.53803741E-01
  0.59798198E+00  0.90887586E+00  0.56493581E+00
  0.68732469E+00  0.14130897E+00  0.94574065E+00
  0.12837675E+00  0.60758133E+00  0.45114345E+00
  0.39098564E+00  0.39755196E+00  0.93075540E+00
  0.81967136E+00  0.89943684E+00  0.46205799E+00
  0.90016683E+00  0.10293073E+00  0.40974048E-01
  0.32146541E+00  0.61397491E+00  0.55460473E+00
  0.88811631E+00  0.10761075E+00  0.19706284E+00
  0.38456100E+00  0.58934634E+00  0.69577636E+00
  0.87141339E+00  0.87519329E+00  0.30675110E+00
  0.36645342E+00  0.40579659E+00  0.80895232E+00
  0.14149169E+00  0.62024988E+00  0.29867768E+00
  0.63804047E+00  0.11092710E+00  0.81267303E+00
  0.14968176E+00  0.42921936E+00  0.18706683E+00
  0.64305290E+00  0.88915742E+00  0.71534699E+00
  0.88396516E+00  0.63533689E+00  0.93435031E+00
  0.35791122E+00  0.10867438E+00  0.44446036E+00
  0.83727622E+00  0.40320845E+00  0.54532629E+00
  0.40032497E+00  0.90164582E+00  0.64728568E-01
  0.13344659E+00  0.10273901E+00  0.55165596E+00
  0.69597338E+00  0.62897780E+00  0.53173332E-01
  0.18495302E+00  0.88874720E+00  0.95803729E+00
  0.63915336E+00  0.39955283E+00  0.42525759E+00