Na88 Sn16 P8 S96                        
   1.00000000000000     
    13.4813327813000008    0.0000000000000000    0.0000000000000000
     0.0000000000000000   13.4813327813000008    0.0000000000000000
     0.0000000000000000    0.0000000000000000   26.9626655626000016
   Na   Sn   P    S 
    88    16     8    96
Direct
  0.0165389770741638  0.0103386647028220  0.1293148500844027
  0.5465623663749041  0.5112272067291137  0.6040858120892558
  0.4944981814176098  0.4835159865001432  0.8734233017743427
  0.9920487092524890  0.9968910477717157  0.3919301076157627
  0.2887524690310064  0.9483327780475244  0.8765492734745653
  0.9973811238998058  0.5059874001592354  0.3745956068692101
  0.9888213090587753  0.4560357649219411  0.1143677821892158
  0.2477397019124446  0.2660699481124719  0.1360763339093820
  0.7657368415832113  0.9682617836010818  0.6292833054253395
  0.7286167500574207  0.2732871300948396  0.8718434169244822
  0.7918652373394761  0.7672037123270046  0.3722111336877731
  0.2808095343461339  0.2192412865627657  0.8838918107161324
  0.7526900512095078  0.2809052602215324  0.1212360979546199
  0.2531237405812783  0.7485194581621378  0.6235706057505389
  0.0046863780096668  0.0074353698683418  0.8634077409397485
  0.2715518381842361  0.5219926330878211  0.3658465332658969
  0.0089414415867332  0.9750536506910513  0.6787003359087932
  0.9673917459355519  0.4945931978353659  0.6118829760700336
  0.5422548047266293  0.9793934272024033  0.1190414747703408
  0.0023104169629942  0.5245720686533276  0.8783700811580758
  0.5044061023747638  0.0192555083458054  0.3824364371839352
  0.2627011255738448  0.2495691465937815  0.3605424290279071
  0.7143690416483751  0.7635498806986776  0.9098264572317748
  0.7434555486454024  0.2336199972842191  0.6268468991332887
  0.2666630858979563  0.7484321804470897  0.1214498630536097
  0.2239680725471001  0.2531778437209434  0.6177205176794587
  0.7732619464970061  0.5355874942073297  0.1240525988909987
  0.7327221015193738  0.2804601150158330  0.3752853819454485
  0.4978231537985884  0.7614293669899713  0.5097992393023943
  0.5009029199372032  0.2297816466397392  0.9876733656877626
  0.0173667792979004  0.5070580854450171  0.4892142261290741
  0.5116074889700193  0.7637655815132161  0.7412978255237966
  0.0300038792386015  0.7712995241845140  0.2660772090749475
  0.5214761862540668  0.2507736475917523  0.7561293565891128
  0.0283548886172904  0.7081597437093737  0.0084187964676482
  0.5353234900973999  0.2502705519347029  0.4922223912452864
  0.5155886592048903  0.7476054885993234  0.0122792966552710
  0.4980786120727062  0.2709614339184176  0.2566339857525207
  0.0029498936015024  0.7517047023030876  0.7564149917609240
  0.5302485628821514  0.7549491821236174  0.2393139177598949
  0.0134703543895718  0.0171450410061014  0.2638655482897112
  0.5060125860582582  0.5230371020456654  0.7561836523491672
  0.5073019869584403  0.9881221247616777  0.7755712342420350
  0.9852357670435956  0.4901008028866321  0.2451728881302023
  0.2435889136849473  0.2225983629193519  0.0111665254442219
  0.7747557161970881  0.7366819587260474  0.4903608935890588
  0.1891231125897848  0.7683874404492397  0.5062878743205917
  0.7361965848201025  0.2899113774350388  0.9955452057938775
  0.9913456831525973  0.2380577607651458  0.7332884709893815
  0.4639352982721290  0.5259177834608265  0.2705116952509765
  0.0088009414767955  0.4507286222923660  0.7519112385665890
  0.5271336266426229  0.0452013288435533  0.2474566486827798
  0.2550172746572404  0.2750884733162435  0.4905502537609962
  0.7705099332417581  0.7525314498407815  0.0723355470213265
  0.7754139627453952  0.2224101312580296  0.5002889421008193
  0.2821988045678467  0.7364013407715836  0.9816971894504517
  0.9981243192173312  0.0205510410526345  0.0015775270652377
  0.5090236059768871  0.5416761467300525  0.4728157185160404
  0.5055673298625558  0.4887390099869757  0.0120312573316156
  0.0017372347450280  0.9382687987050711  0.5271244535042692
  0.4938108687898957  0.9992290900383792  0.0062720368798634
  0.0144127277830245  0.2564750880974241  0.5078734305580763
  0.9815761314524680  0.2482162887736109  0.0036297599173407
  0.5199300279725136  0.9877805799041101  0.4917310055996847
  0.0162458853018586  0.2359886433268868  0.2323592777880801
  0.7553092079934635  0.7602336224981373  0.7583293883956095
  0.2897482856076696  0.7728726807234370  0.2698602995825475
  0.7487344078967514  0.2490973109208789  0.7466678365995169
  0.7833838391065050  0.7473486826159621  0.2489524861096021
  0.2493377540782914  0.2417674791707637  0.7603431308391998
  0.7760024249399688  0.2460244810433892  0.2564485761051865
  0.2215214816418488  0.7425884303273660  0.7436105451602349
  0.2414317544149489  0.4789986144121442  0.1280693070669225
  0.5102217435717072  0.9755995677235721  0.6496107802203774
  0.7018943130885384  0.0101072903751166  0.8731177687106756
  0.2081393906584952  0.7648974534226705  0.3856903133453486
  0.2371325656334225  0.4462450083494233  0.8796778459037582
  0.7675588799402895  0.0081364963813885  0.3803618384464699
  0.7771396214258275  0.9780393005056025  0.1215274965195157
  0.2663114786679492  0.4934016587624485  0.6277013989211504
  0.7592484361507978  0.5161112625234258  0.8675660337488597
  0.2724464446649207  0.0110890032689301  0.3755265043667558
  0.7752178696315152  0.6843018881667752  0.6123405372542008
  0.2843976688221312  0.0204809598176137  0.1239870688408978
  0.2540269370362525  0.9963087274847551  0.6233574211111834
  0.4820426634289031  0.5114695041501681  0.1235417892920704
  0.2064131953848784  0.6911784201118675  0.8734541442549129
  0.6822742218083480  0.5237924606000924  0.3706451406036501
  0.2809935950837115  0.0154357818303832  0.2489576414491209
  0.7525685537054103  0.5030619476153401  0.7425715260439243
  0.2519112108154625  0.0030143172388047  0.7495737878428369
  0.7452525438807051  0.5058929694425522  0.2462700312635652
  0.2457991451323914  0.9637215385664248  0.0006742375844014
  0.7622938497189400  0.4794093334324976  0.4943250698169808
  0.2619374214654550  0.0141502122478668  0.5004175879158729
  0.7644312062089734  0.5301034573104723  0.9984096485104852
  0.7635862536034569  0.0143842714848806  0.7575107138297563
  0.2285039094481156  0.5006140003678989  0.2410865754657539
  0.2629100138039168  0.5173042832470783  0.7461876121073314
  0.7762670078926861  0.9922364833808942  0.2459205918395966
  0.2655799634956673  0.5156178447831539  0.5001081628443240
  0.7526273961330943  0.0250009165966983  0.9959364136523337
  0.7531795092017463  0.9819246310889009  0.5092985757733072
  0.2540686283871428  0.4616365692158318  0.0013717521004809
  0.9956624788710662  0.2534808795974866  0.3730541852528219
  0.4899322388379504  0.7622342874031092  0.8702939309688175
  0.4861202408364657  0.2395280845121807  0.6265113389209022
  0.0202855060502956  0.7498792351762825  0.1311589171470391
  0.9962312266072495  0.2729346798937593  0.8784550122133669
  0.5023257139223827  0.7791103893063892  0.3745319322994246
  0.0008994657395429  0.7428009523015175  0.6319313612130432
  0.4877208059913128  0.2493834475784726  0.1247161241391854
  0.1502974805341001  0.3682728133939807  0.0590946130183379
  0.6469453849913649  0.8797989912267598  0.5562561781669949
  0.6355318734557359  0.1243766950248357  0.9527158214406475
  0.1731878837804880  0.6129104332914365  0.4418895140361104
  0.3864321909025948  0.3730668832139109  0.9501129966210653
  0.8514833156227734  0.8868945545986320  0.4489642950670955
  0.8531517738472755  0.1147560802581873  0.0555783887947159
  0.3542810038892877  0.6319870250091860  0.5495549272989708
  0.8706223192634598  0.1006345267569857  0.1913072969706514
  0.3469698548413955  0.6196006915997696  0.6946475491140868
  0.8905594279411887  0.8913601037586916  0.2936495281708788
  0.3610782639084354  0.4122363157049510  0.7983982069188844
  0.1343110998320590  0.6071026720042624  0.2975236825888332
  0.6565187137033222  0.1178532257891521  0.7994591216424454
  0.1136612598358544  0.3957977617334100  0.1946553076266088
  0.6564668367018570  0.9042502700686122  0.7127060649350230
  0.8542394578639201  0.6377503354872037  0.9478547126910605
  0.3508106650091334  0.1331849957195863  0.4440859669028638
  0.8692831433016520  0.3857978832107127  0.5460512465829916
  0.3532803010666529  0.8624650736295644  0.0520754410707735
  0.1440405333967723  0.1082339393076775  0.5545858180294975
  0.6476302757945746  0.6028133189146848  0.0528849703835732
  0.1474918652610332  0.8634121941138028  0.9471880181124702
  0.6523080340555047  0.3712988876638641  0.4530395584096534
  0.6344941520833072  0.4014739661593646  0.3041843237544603
  0.1376493646171267  0.8970494153302642  0.7893125422682326
  0.1583927683358672  0.1086500775019749  0.6954705592925908
  0.6279954448486074  0.5936582246670224  0.1976884868727226
  0.8476612203941002  0.3763481227331535  0.6950283819523374
  0.3670624352761637  0.8939928584321679  0.1936402269547737
  0.3784488463249276  0.1262934116930324  0.2968578330490933
  0.8671623247378583  0.5919617945394117  0.7941270658024908
  0.1429635146720445  0.0692496642619167  0.0529904312863600
  0.6591945713542201  0.5937541801332868  0.5394593161084511
  0.6457547806621694  0.4265280583636208  0.9449849089440816
  0.1553946073101014  0.9182922097835622  0.4465661316900290
  0.3358825723888716  0.0816177384651427  0.9512857096938078
  0.8546423724869143  0.5849094361540698  0.4372030346440982
  0.8539093306666764  0.4060183927997512  0.0462515240501338
  0.3562361080632241  0.8977354113504364  0.5493277044633105
  0.1550315466616351  0.0941362566718407  0.1988180709612156
  0.6566909556597111  0.6124620728479928  0.6935106198637393
  0.1690812888882947  0.9130973803147272  0.3043682450461393
  0.6418940441246593  0.4028951107392862  0.7972327295389587
  0.8527657323728575  0.5855494105832016  0.3040532893947957
  0.3557469306890304  0.1067464798374348  0.8060381040448148
  0.8368399425803413  0.3987255210045993  0.1913134151451695
  0.3533372790078653  0.8929006812970539  0.6919728059650099
  0.8462530741305246  0.9404602670222089  0.9397819860203902
  0.3541472630719113  0.4205438199494264  0.4426563626053765
  0.8505247470144138  0.0959841105385132  0.5595181188197171
  0.3504943567006374  0.5693175711830263  0.0541005728994232
  0.1597405170157926  0.4070648002504877  0.5527924576912555
  0.6496494989956407  0.9103051876520536  0.0436237420305501
  0.1659810236729981  0.5687684194610862  0.9433329875150458
  0.6559668696930566  0.0786330471780786  0.4531298009820838
  0.3433651924173857  0.4059838291203736  0.2940436103008202
  0.8498064595833354  0.8965402331648668  0.8142961415268571
  0.8588213768364640  0.1052179513882965  0.6934446489409799
  0.3447517362628195  0.5942024780123036  0.1972859250464395
  0.1614004484552431  0.3949302921673045  0.6958018395401168
  0.6671921223902408  0.9063750325528046  0.1992808841681616
  0.6817016559220775  0.0949017039152693  0.3047762899239568
  0.1333641508639437  0.5842833584912213  0.7978509683194851
  0.0893570153384919  0.1387994451286762  0.3513592423354778
  0.5967078287151634  0.6810582971022124  0.8289920769195877
  0.5847557495263754  0.3193768521845051  0.6685650556712197
  0.0925114232743116  0.8223584879316673  0.1804944625640913
  0.3932088808047762  0.1566679343753195  0.6679148345395096
  0.8881416953744730  0.6773622875246288  0.1572607081836144
  0.9334378961702912  0.3434582519270603  0.3221005695643243
  0.3918867615704011  0.8186801275244266  0.8169827147403864
  0.0720350205532179  0.1745684711300163  0.9226812819703807
  0.5822270270489224  0.6876319661285327  0.4155753187749889
  0.0913927008693035  0.8580021339203554  0.6082991616956905
  0.5745003115446218  0.3092141376590651  0.0727452490836906
  0.9466621954453642  0.6759019181465901  0.5737704299675719
  0.3870925236235009  0.1627539464575734  0.0915831594893029
  0.9033554737943411  0.3680731769460442  0.9125986477958805
  0.4181685323806922  0.8663620249777435  0.4162639492203783
  0.8882104186207898  0.8080044022474019  0.6803215038401332
  0.4094491166998733  0.3574032363532358  0.1681917260527472
  0.9295796191264446  0.1844928128800103  0.8233154126155064
  0.4012838034875867  0.6870398380952324  0.3387541311759767
  0.0889535947704797  0.3612864696048756  0.8465607619250911
  0.5936307099847317  0.8561822674314254  0.3267228079345451
  0.0731562995028920  0.6440618528303710  0.6725144035526686
  0.5881630409725861  0.1721125048377791  0.1689593738374633
  0.4229227273625541  0.3468597233431576  0.5755736043924922
  0.9503536316352343  0.8381877017072082  0.0740716511782189
  0.8857327632747254  0.1783657481660135  0.4066000562744447
  0.4117258872423078  0.6657073708291270  0.9178977815731904
  0.0891728248019033  0.3322889518257420  0.4221939400720793
  0.5481726616589644  0.8791560361190299  0.9078720976598660
  0.5614109491425815  0.1373213066996419  0.5785377742224732
  0.1059466474154013  0.6471950431037364  0.0928825862793677
 
  0.39042531E-02 -0.41654949E-02 -0.44109344E-02
 -0.27745240E-02  0.23690127E-02  0.61754011E-03
 -0.69299151E-02  0.38838347E-02 -0.25420583E-02
 -0.52047785E-02 -0.33168494E-02  0.57267950E-03
  0.74643905E-02 -0.14812776E-02  0.84629453E-04
 -0.23083544E-02  0.32350862E-02 -0.21075517E-03
  0.27877621E-02  0.17086311E-03  0.60368908E-02
  0.55812570E-02  0.26364450E-02  0.33163073E-02
  0.34920056E-02 -0.20093467E-03 -0.21163276E-02
 -0.20150722E-02  0.12573875E-02 -0.35466601E-02
  0.25287886E-02  0.24684595E-02  0.16590275E-02
 -0.44718795E-02  0.10791805E-01 -0.54450555E-02
  0.24777043E-02 -0.48696253E-02  0.19750872E-03
 -0.42443711E-05  0.64910062E-02 -0.24513162E-02
  0.11558074E-02  0.11800653E-02  0.48164983E-03
  0.65655881E-02  0.49145450E-02  0.17926536E-02
  0.84631596E-02  0.57772720E-02  0.48607379E-02
 -0.77018598E-02  0.13581998E-02  0.20916794E-02
 -0.48696715E-02 -0.53821028E-03  0.62141341E-02
 -0.26628272E-03 -0.18298572E-02  0.23749302E-02
 -0.20740596E-02  0.72212651E-02  0.17626821E-02
 -0.26041772E-02 -0.48093421E-05  0.56327366E-02
 -0.33323703E-02 -0.45766591E-02 -0.50377574E-03
 -0.64470418E-02  0.12577141E-02 -0.36286355E-02
  0.89774950E-02 -0.19283248E-02 -0.35278443E-02
 -0.79337479E-02 -0.27566833E-02  0.22792979E-03
 -0.48272262E-03 -0.79334092E-02 -0.15164641E-02
  0.13831999E-02  0.41847981E-04 -0.21237452E-02
 -0.26155824E-02  0.72566677E-02  0.31896702E-02
 -0.27370850E-02 -0.31882862E-02  0.23206922E-02
 -0.24464050E-02 -0.35268179E-02  0.29611767E-02
 -0.54422065E-02  0.42086432E-02 -0.21133536E-02
  0.10197961E-02  0.18215454E-02  0.15209242E-02
  0.60140436E-02 -0.89716205E-02 -0.41664610E-02
  0.53706210E-02 -0.46814325E-02 -0.21573970E-02
  0.16335012E-02 -0.63692243E-02  0.28020583E-02
 -0.14579435E-01  0.22672214E-02 -0.43629534E-02
  0.82371049E-02  0.79133621E-03  0.21888410E-02
  0.41381613E-02 -0.18811383E-02 -0.18752128E-02
  0.11211167E-02 -0.58060235E-02  0.20523649E-02
 -0.41312006E-02  0.12355518E-01  0.91325415E-03
  0.15638145E-02 -0.30694074E-02 -0.85134850E-02
 -0.64626328E-02  0.75395366E-02 -0.12961058E-02
 -0.23901812E-02  0.66615019E-02  0.68198369E-03
 -0.57032971E-02 -0.29397253E-02  0.27880357E-02
 -0.21734536E-02 -0.63936129E-02  0.29444541E-02
  0.78580401E-02  0.16754051E-02 -0.19758773E-02
 -0.37754896E-02 -0.28347267E-02  0.50511598E-03
  0.20433469E-03  0.68153215E-02  0.24835642E-02
 -0.10547263E-02 -0.41101549E-02 -0.13255758E-02
  0.45539520E-02  0.67910696E-02 -0.10122022E-02
  0.30201350E-02 -0.16411846E-02 -0.18422398E-02
  0.13092834E-02  0.73047468E-03 -0.21073644E-02
 -0.18458550E-02 -0.54399168E-02  0.60212638E-02
  0.22287142E-02  0.70674018E-02 -0.43457839E-02
 -0.11294494E-02 -0.57541675E-02  0.17403695E-02
  0.71082112E-03  0.44297053E-02 -0.63193788E-03
  0.12010637E-02 -0.49182777E-02  0.59111042E-02
 -0.53615075E-04  0.28006807E-02 -0.30374296E-03
  0.22443874E-02  0.20000991E-02 -0.87380325E-02
  0.37852034E-02  0.48412528E-02  0.67193783E-02
  0.39141286E-02 -0.28024047E-02 -0.45190401E-02
 -0.77690090E-02  0.43663785E-02 -0.37727800E-02
 -0.11045626E-02 -0.13689900E-02 -0.24882902E-02
 -0.42408953E-02 -0.11078630E-02  0.50357374E-02
 -0.22206301E-02 -0.71878014E-03  0.21547005E-02
 -0.16661408E-02 -0.54644689E-02  0.16615692E-02
 -0.39681651E-02 -0.30065600E-02 -0.79596462E-03
  0.35210340E-02 -0.10532993E-01 -0.32333926E-02
  0.39256431E-02  0.40805351E-02  0.52795955E-03
  0.53689871E-02  0.48801291E-02  0.62533711E-02
 -0.82559308E-03  0.83551960E-02  0.25122342E-02
 -0.30469814E-02  0.40733106E-02  0.30426168E-02
  0.22244068E-02 -0.10327392E-02  0.99178633E-03
  0.16325017E-02 -0.48256120E-02 -0.48330128E-03
 -0.14919345E-02  0.55711280E-02  0.13562090E-02
  0.10012293E-01  0.21209626E-02  0.83222377E-02
  0.75231032E-02  0.44337962E-03  0.86115119E-02
  0.29973448E-02 -0.43656406E-03 -0.56117212E-02
 -0.10214310E-02  0.93533162E-02 -0.89225194E-02
 -0.47393696E-03  0.59039917E-03 -0.46386256E-02
 -0.66672178E-02  0.23482167E-02 -0.15166003E-02
 -0.29335600E-02  0.15735024E-03 -0.16970137E-02
 -0.68371174E-02 -0.74212842E-02 -0.85642216E-04
  0.11094166E-02  0.87951047E-02 -0.30578922E-02
 -0.98174865E-02 -0.10079563E-02 -0.15262795E-01
 -0.55818698E-02 -0.45148686E-02 -0.79586727E-03
 -0.25072955E-02  0.46677553E-02  0.11701702E-02
 -0.12466608E-02 -0.34283178E-03 -0.30650102E-02
  0.22754960E-02 -0.37580601E-02  0.20334345E-02
 -0.16396864E-02  0.13097626E-02  0.15864960E-02
  0.24344325E-02 -0.50590010E-04 -0.42168968E-03
 -0.92814269E-03 -0.10362683E-03  0.24757907E-03
 -0.15369826E-02  0.16596985E-02  0.14153822E-02
  0.15917339E-02 -0.19412262E-02  0.11039897E-02
 -0.10172794E-02  0.44969070E-03 -0.46538239E-03
  0.13660912E-02  0.23915606E-02  0.71727284E-03
  0.29513747E-02 -0.40109210E-03  0.39660124E-02
 -0.26515508E-02  0.10510271E-02 -0.55584616E-04
 -0.23991327E-02 -0.10833695E-02 -0.20411400E-02
 -0.15763384E-02 -0.18766250E-02 -0.10623550E-02
  0.28255608E-02  0.15391046E-02 -0.16212193E-03
 -0.10784522E-04 -0.87889165E-03  0.11202026E-03
  0.17021800E-02 -0.98054670E-03  0.19237764E-02
 -0.20039498E-02 -0.13826361E-02  0.21720882E-02
 -0.58294944E-03  0.68403164E-02  0.17069396E-02
  0.45061832E-02 -0.28087767E-02 -0.74266651E-02
 -0.67453874E-02 -0.17631204E-02 -0.38003019E-02
  0.44524434E-02 -0.42542057E-02  0.10712504E-03
 -0.21993922E-02 -0.34705606E-02 -0.36393082E-02
 -0.37894226E-02 -0.55071559E-02  0.38061127E-02
 -0.17365815E-02 -0.25011287E-02  0.12471233E-03
  0.41561926E-02 -0.21025103E-02  0.83229598E-02
  0.35409455E-02 -0.18739705E-02  0.80497182E-02
  0.16128401E-02 -0.39931633E-02  0.75995915E-03
 -0.40685887E-02 -0.35875042E-02 -0.66239458E-02
  0.12367388E-02 -0.66406101E-03  0.16968609E-02
  0.26945008E-03  0.35105683E-02 -0.38988595E-02
 -0.31937669E-02  0.57243412E-02 -0.52714138E-03
  0.36043841E-02  0.40443387E-02 -0.11087345E-02
  0.53866913E-02  0.65170516E-02 -0.95172140E-02
 -0.38808644E-02 -0.12694207E-02 -0.33164541E-02
  0.15033705E-02  0.31712439E-04  0.19606130E-02
  0.38168944E-02 -0.39466349E-03  0.25297445E-02
  0.58882620E-03  0.22738578E-02 -0.14182361E-02
  0.17652204E-02 -0.14307626E-04 -0.32409364E-02
  0.35683648E-02  0.62921988E-03  0.27410788E-02
 -0.49821225E-02  0.38481363E-02 -0.57002477E-02
  0.96260809E-03  0.49984711E-03 -0.10453923E-01
  0.42961057E-02 -0.73391211E-02  0.20965730E-02
  0.17609322E-02 -0.39303112E-02  0.96206983E-03
  0.49423832E-02 -0.28357172E-02  0.33870474E-02
 -0.80442222E-03  0.26741379E-02  0.10963718E-02
  0.33621452E-02 -0.68036933E-02 -0.30650945E-02
  0.31866840E-02  0.10787235E-03  0.41585492E-02
 -0.25717740E-02  0.10039975E-01  0.31022548E-02
  0.87801005E-03  0.31204420E-02 -0.33211931E-02
  0.49137187E-02 -0.13486715E-02  0.75863794E-03
  0.17434089E-02  0.70956575E-03 -0.61904508E-02
  0.28551826E-02 -0.24191561E-02 -0.56147837E-02
 -0.36971285E-02  0.34308258E-02  0.12938872E-03
 -0.67083136E-02  0.32985858E-02  0.58588368E-04
 -0.14185380E-02  0.41240509E-02  0.20647074E-02
  0.25511467E-02 -0.86172933E-03 -0.38563469E-04
  0.33027917E-02  0.21757070E-02 -0.15613373E-02
  0.54876936E-02 -0.10521677E-02  0.26313048E-03
 -0.56096652E-02 -0.13280654E-02  0.12911646E-02
  0.37484979E-03  0.58574135E-03  0.35676898E-02
  0.71162426E-02 -0.24541682E-02  0.28236933E-02
  0.44941804E-02  0.58353237E-03 -0.25487895E-02
 -0.16411371E-03  0.16587262E-02  0.72354783E-02
 -0.33603996E-02  0.18595244E-02  0.14585736E-02
 -0.29660137E-02 -0.62559509E-03  0.15361740E-02
  0.10585707E-02  0.84204418E-02  0.74875503E-02
  0.25078396E-02 -0.19666266E-02  0.41638053E-02
  0.19848607E-02 -0.23193198E-02  0.37610459E-02
 -0.23641074E-02 -0.31119084E-03 -0.61554585E-02
  0.43303219E-02 -0.42483369E-02 -0.21306318E-02
 -0.98382405E-04  0.10177327E-02 -0.26191039E-02
  0.71061286E-03  0.30671105E-02 -0.10326047E-02
  0.56744273E-02  0.34540957E-02 -0.11354589E-02
  0.66874306E-03 -0.60764529E-02 -0.45276929E-02
 -0.10611132E-02 -0.20983837E-04  0.52599877E-02
 -0.16998283E-03  0.41903750E-03  0.17433908E-02
 -0.23153981E-02  0.11188809E-02 -0.78796407E-02
 -0.46756609E-02  0.96183107E-03 -0.15856528E-02
  0.69681493E-03 -0.39170224E-02  0.38720555E-03
 -0.25908874E-02 -0.23665332E-02 -0.51326351E-02
  0.38254581E-02  0.14944145E-02 -0.12748649E-02
  0.17388023E-02 -0.19891782E-02  0.38068072E-02
 -0.22741667E-02  0.43469879E-02  0.32995141E-02
  0.30069483E-02 -0.64689353E-02 -0.22814749E-02
 -0.24316166E-02  0.72061191E-03 -0.30728110E-02
 -0.27322157E-02 -0.33285946E-02  0.20722195E-02
 -0.47710982E-02  0.28042611E-02  0.66148184E-02
 -0.59351790E-02  0.35252788E-02 -0.68834773E-02
 -0.28174333E-02 -0.33457892E-02 -0.60455623E-03
 -0.26191849E-02  0.15288489E-02  0.43130824E-02
 -0.21176442E-02 -0.34956095E-02  0.54928411E-03
 -0.60408438E-02 -0.58068539E-03  0.44406233E-02
  0.32896700E-02 -0.52645460E-02 -0.13007712E-02
 -0.46064814E-02 -0.31256265E-02  0.32351132E-02
 -0.14483998E-02 -0.52309137E-02 -0.69449967E-03
  0.27544680E-03  0.24971269E-02  0.68376673E-02
  0.65282864E-02  0.46254788E-02 -0.36728075E-02
  0.58803247E-03  0.14812035E-02  0.21018944E-02
  0.70835845E-03 -0.41470781E-02 -0.15125349E-02
 -0.48967175E-02 -0.56129247E-02 -0.18109836E-02
  0.24801732E-02  0.40736392E-02 -0.19996586E-03
 -0.14707760E-02  0.40408504E-02  0.12629314E-02
 -0.55314555E-02  0.25788416E-04  0.74039901E-02
 -0.62256710E-03 -0.22840144E-02 -0.33265139E-02
 -0.11993151E-02  0.14329811E-02 -0.87891459E-02
 -0.94137663E-03  0.49709501E-03 -0.51980744E-03
 -0.52056027E-02  0.42113143E-04  0.12561771E-02
 -0.19975078E-02 -0.10574194E-02 -0.10687281E-01
  0.18700643E-02 -0.44132748E-03 -0.16449858E-02
 -0.54642960E-02 -0.21773553E-03  0.24416187E-02
 -0.28791947E-02 -0.36134887E-04  0.33340517E-02
 -0.11635911E-02  0.40581310E-02  0.30408013E-02
  0.39644451E-02 -0.41463687E-02  0.24766137E-02
  0.15695276E-02 -0.13132217E-02 -0.30052843E-02
  0.51252018E-02 -0.50255604E-02 -0.12861025E-02
  0.94977816E-02  0.50226824E-02 -0.41424467E-03
 -0.19268997E-02  0.14214577E-02  0.70025544E-03
  0.53890635E-03  0.54751311E-03 -0.63866255E-03
  0.17545825E-02 -0.43694329E-03 -0.52148303E-02
 -0.21173665E-02 -0.75652222E-02  0.62557969E-02
 
           1
   2.00000000000000     
  0.10171501E+01  0.37455741E-02  0.00000000E+00  0.00000000E+00
  0.17118186E-01  0.97206999E-02  0.12898766E+00
  0.54615076E+00  0.51157866E+00  0.60413162E+00
  0.49347011E+00  0.48409217E+00  0.87323474E+00
  0.99127656E+00  0.99639898E+00  0.39197259E+00
  0.28985984E+00  0.94811303E+00  0.87655555E+00
  0.99703867E+00  0.50646734E+00  0.37457997E+00
  0.98923488E+00  0.45606111E+00  0.11481558E+00
  0.24856770E+00  0.26646107E+00  0.13632233E+00
  0.76625489E+00  0.96823197E+00  0.62912632E+00
  0.72831781E+00  0.27347367E+00  0.87158034E+00
  0.79224039E+00  0.76756992E+00  0.37233419E+00
  0.28014612E+00  0.22084229E+00  0.88348791E+00
  0.75305763E+00  0.28018284E+00  0.12125075E+00
  0.25312311E+00  0.74948242E+00  0.62338878E+00
  0.48578458E-02  0.76104364E-02  0.86344347E+00
  0.27252586E+00  0.52272172E+00  0.36597951E+00
  0.10196979E-01  0.97591073E+00  0.67906089E+00
  0.96624915E+00  0.49479469E+00  0.61203813E+00
  0.54153237E+00  0.97931358E+00  0.11950242E+00
  0.22709130E-02  0.52430060E+00  0.87854625E+00
  0.50409841E+00  0.20326807E-01  0.38256719E+00
  0.26231479E+00  0.24956843E+00  0.36096025E+00
  0.71387467E+00  0.76287092E+00  0.90978909E+00
  0.74249911E+00  0.23380658E+00  0.62657774E+00
  0.26799493E+00  0.74814611E+00  0.12118818E+00
  0.22279107E+00  0.25276888E+00  0.61773742E+00
  0.77319033E+00  0.53441055E+00  0.12394011E+00
  0.73292730E+00  0.28046632E+00  0.37512785E+00
  0.49743512E+00  0.76250592E+00  0.51003584E+00
  0.50049686E+00  0.22930865E+00  0.98784551E+00
  0.17003847E-01  0.50653487E+00  0.48943388E+00
  0.51080012E+00  0.76438995E+00  0.74114106E+00
  0.30155169E-01  0.77156976E+00  0.26619003E+00
  0.52236839E+00  0.24944268E+00  0.75582030E+00
  0.29151638E-01  0.70746524E+00  0.82587680E-02
  0.53556583E+00  0.24932566E+00  0.49243024E+00
  0.51342575E+00  0.74794184E+00  0.11955667E-01
  0.49930061E+00  0.27107883E+00  0.25679635E+00
  0.35638034E-02  0.75142563E+00  0.75627589E+00
  0.53041488E+00  0.75408784E+00  0.23946616E+00
  0.12857477E-01  0.18978023E-01  0.26393329E+00
  0.50624458E+00  0.52258175E+00  0.75555215E+00
  0.50634323E+00  0.98924064E+00  0.77547509E+00
  0.98488118E+00  0.49108906E+00  0.24522348E+00
  0.24274281E+00  0.22216225E+00  0.11373333E-01
  0.77443328E+00  0.73573345E+00  0.49057930E+00
  0.19028888E+00  0.76863599E+00  0.50614131E+00
  0.73563648E+00  0.28949084E+00  0.99558267E+00
  0.99137600E+00  0.23906884E+00  0.73347269E+00
  0.46377883E+00  0.52530803E+00  0.27041337E+00
  0.94765352E-02  0.45173610E+00  0.75183616E+00
  0.52758167E+00  0.44957854E-01  0.24732000E+00
  0.25521151E+00  0.27519684E+00  0.49039394E+00
  0.77023609E+00  0.75172442E+00  0.72782184E-01
  0.77574460E+00  0.22345860E+00  0.49996659E+00
  0.28203125E+00  0.73554769E+00  0.98182628E+00
  0.99822977E+00  0.21208202E-01  0.15306520E-02
  0.50920179E+00  0.54094650E+00  0.47325418E+00
  0.50555938E+00  0.48915450E+00  0.12008727E-01
  0.20701970E-02  0.93856552E+00  0.52647630E+00
  0.49437242E+00  0.99994731E+00  0.67704578E-02
  0.14993402E-01  0.25605934E+00  0.50753822E+00
  0.98042357E+00  0.24886406E+00  0.33499078E-02
  0.51976616E+00  0.98757749E+00  0.49154643E+00
  0.15616735E-01  0.23582429E+00  0.23273281E+00
  0.75497977E+00  0.76012699E+00  0.75848922E+00
  0.28950111E+00  0.77206201E+00  0.26998355E+00
  0.74814572E+00  0.24865128E+00  0.74660879E+00
  0.78390620E+00  0.74578608E+00  0.24871264E+00
  0.24992014E+00  0.24237284E+00  0.76038229E+00
  0.77679893E+00  0.24674846E+00  0.25691243E+00
  0.22139900E+00  0.74382795E+00  0.74379689E+00
  0.24097972E+00  0.47960290E+00  0.12829500E+00
  0.51055174E+00  0.97544636E+00  0.64968435E+00
  0.70213650E+00  0.93913950E-02  0.87308192E+00
  0.20791806E+00  0.76572395E+00  0.38579091E+00
  0.23861792E+00  0.44655966E+00  0.88029516E+00
  0.76867496E+00  0.82022732E-02  0.38100061E+00
  0.77758429E+00  0.97797453E+00  0.12111124E+00
  0.26615995E+00  0.49478925E+00  0.62703956E+00
  0.75917813E+00  0.51619885E+00  0.86722196E+00
  0.27145734E+00  0.11437369E-01  0.37541401E+00
  0.77478267E+00  0.68432523E+00  0.61221466E+00
  0.28338336E+00  0.19379988E-01  0.12398072E+00
  0.25419152E+00  0.99761351E+00  0.62313060E+00
  0.48058621E+00  0.51131997E+00  0.12240965E+00
  0.20558511E+00  0.69050862E+00  0.87339511E+00
  0.68190226E+00  0.52448494E+00  0.37073194E+00
  0.28080865E+00  0.15384922E-01  0.24873029E+00
  0.75290613E+00  0.50250443E+00  0.74272236E+00
  0.25166796E+00  0.32086248E-02  0.74969147E+00
  0.74561370E+00  0.50588546E+00  0.24623875E+00
  0.24566145E+00  0.96370617E+00  0.69260217E-03
  0.76206583E+00  0.47965556E+00  0.49443006E+00
  0.26217356E+00  0.13862225E-01  0.50049948E+00
  0.76428029E+00  0.53017017E+00  0.99837513E+00
  0.76378892E+00  0.14739067E-01  0.75756392E+00
  0.22894176E+00  0.50055450E+00  0.24138076E+00
  0.26251665E+00  0.51746021E+00  0.74618349E+00
  0.77591109E+00  0.99207576E+00  0.24576919E+00
  0.26534611E+00  0.51533944E+00  0.50002936E+00
  0.75304658E+00  0.25229248E-01  0.99592439E+00
  0.75317791E+00  0.98179424E+00  0.50930689E+00
  0.25432115E+00  0.46149110E+00  0.15144514E-02
  0.99536519E+00  0.25327576E+00  0.37321530E+00
  0.48984576E+00  0.76324907E+00  0.87042055E+00
  0.48678875E+00  0.23911139E+00  0.62596045E+00
  0.19284806E-01  0.74961767E+00  0.13087702E+00
  0.99689176E+00  0.27230355E+00  0.87846296E+00
  0.50199943E+00  0.77859552E+00  0.37426198E+00
  0.33729244E-03  0.74198395E+00  0.63221369E+00
  0.48746318E+00  0.24901240E+00  0.12472537E+00
  0.15091407E+00  0.36796090E+00  0.59711982E-01
  0.64747070E+00  0.87952098E+00  0.55685328E+00
  0.63577114E+00  0.12378430E+00  0.95277219E+00
  0.17258430E+00  0.61237822E+00  0.44139817E+00
  0.38661567E+00  0.37296837E+00  0.95023886E+00
  0.85152329E+00  0.88741536E+00  0.44867509E+00
  0.85267797E+00  0.11560531E+00  0.55539287E-01
  0.35481573E+00  0.63258702E+00  0.54947269E+00
  0.87142145E+00  0.10160135E+00  0.19060134E+00
  0.34639412E+00  0.61941237E+00  0.69440155E+00
  0.89078246E+00  0.89136481E+00  0.29379496E+00
  0.36164451E+00  0.41217777E+00  0.79858585E+00
  0.13439845E+00  0.60744001E+00  0.29741848E+00
  0.65678059E+00  0.11785110E+00  0.79921872E+00
  0.11419064E+00  0.39589111E+00  0.19485863E+00
  0.65572772E+00  0.90482115E+00  0.71228324E+00
  0.85438226E+00  0.63782449E+00  0.94707928E+00
  0.35144801E+00  0.13209621E+00  0.44424148E+00
  0.86954438E+00  0.38521481E+00  0.54612261E+00
  0.35401352E+00  0.86204439E+00  0.52326681E-01
  0.14392119E+00  0.10863066E+00  0.55466714E+00
  0.64812906E+00  0.60180397E+00  0.52657612E-01
  0.14796462E+00  0.86342820E+00  0.94749649E+00
  0.65192650E+00  0.37278835E+00  0.45326967E+00