Na88 Sn16 P8 S96                        
   1.00000000000000     
    13.4813327813000008    0.0000000000000000    0.0000000000000000
     0.0000000000000000   13.4813327813000008    0.0000000000000000
     0.0000000000000000    0.0000000000000000   26.9626655626000016
   Na   Sn   P    S 
    88    16     8    96
Direct
  0.0241043109091053  0.0332086057667340  0.1194527787647699
  0.5300218308146130  0.5244408672012166  0.6364185766922604
  0.5406062597305545  0.7439437490287812  0.7622258879540300
  0.7900010681066975  0.7697887054283945  0.3896644458470712
  0.0063606050453652  0.9942184298986070  0.8724233662443293
  0.1012740579084546  0.4943312275325678  0.3574294236245394
  0.9647401904477492  0.4576440199433667  0.1195147927847607
  0.2512617724352418  0.2365127465810044  0.1322952710381196
  0.7376345137791307  0.9914248035247009  0.6433841479592634
  0.9981015283707039  0.0268993891813347  0.9921692219561695
  0.7182325253319067  0.5304698910068788  0.3825747403256475
  0.2291367132494859  0.3267906238335647  0.8850159950827766
  0.8162465357182392  0.9570945985723396  0.1263950470752351
  0.2186042490179219  0.7630741789269126  0.5090232270866322
  0.9783993859375060  0.9936325728710412  0.7335142896029797
  0.2615873840969862  0.7391194841129267  0.3630294188816646
  0.0149303243108034  0.9847788272222814  0.6144513074366729
  0.2829821103836065  0.5198371416831455  0.6226350941174834
  0.2929238708518160  0.0139935922758110  0.1285335396882354
  0.4790579374073548  0.4774827376485448  0.8820563022995093
  0.5398659366583130  0.0498228393814196  0.3721725235709328
  0.3164042254491604  0.2605429576411093  0.3781749152393242
  0.7469356946907983  0.0012156976410993  0.8865102425328215
  0.0300297092980526  0.4674653099030848  0.6289362671822472
  0.2337583576255698  0.7213552640854063  0.9838371075151358
  0.2403747034412883  0.2820336957281590  0.6241719936842133
  0.7859992853949035  0.2304268437470645  0.1364248988667424
  0.7610038513737644  0.2451236185443265  0.3541652859790658
  0.5146308832524670  0.5327214402526899  0.4996449745433503
  0.4925709064574054  0.2324356673791514  0.9947366155022019
  0.9934281309177100  0.2623921174313515  0.4997303207330606
  0.4764248907246636  0.9985462170453741  0.7425645714182022
  0.9299452715800335  0.7506756651209238  0.2394184559964769
  0.5751411191269952  0.2464926416298555  0.7555180807448864
  0.9801159877023798  0.7516314063121892  0.9990217490736316
  0.7630076993154835  0.2411732858352975  0.5003401289688050
  0.5107585509463822  0.9745519646135148  0.0082164974122128
  0.5289043067713187  0.2329410340633067  0.2562089384233435
  0.9871153255959020  0.7078891697028820  0.7514698381236289
  0.4768764069371841  0.5254980186926567  0.2561799101332760
  0.0293577078139449  0.9417739379625170  0.2418213702530316
  0.2839880694911098  0.7482841155156410  0.7497420396766352
  0.5201477788864417  0.0339702935573802  0.8905123914206535
  0.9726288696292302  0.5381915879095053  0.2420899655785287
  0.2322195703338051  0.2114484768893067  0.0011194827302737
  0.5141004661239938  0.7587472268860049  0.5124515377467134
  0.0021566638861196  0.5108274658732980  0.4910538806151301
  0.7920256247985047  0.2336033429540731  0.0025440840214897
  0.8893167300763922  0.2356841306595422  0.7576672274198204
  0.4583893456168142  0.5281692641012521  0.1372213469406338
  0.0395953168952330  0.4924057149790751  0.7560533068055590
  0.5261389980360299  0.9482624730045697  0.2600207307558345
  0.2656269745533995  0.2865410408709593  0.4975290549948106
  0.7244648031912204  0.7205861628756134  0.1374283940241750
  0.7683555496990043  0.5150225720866795  0.6229570672178102
  0.7530424324118660  0.7659000663195079  0.0048522912488866
  0.0080756161122099  0.4363174310539825  0.9920480376829135
  0.5160074067660129  0.2396995167137816  0.4953130248783230
  0.5114505025910273  0.7301008584347485  0.0129877347560981
  0.7783068568329250  0.0282069262943907  0.3918715881524675
  0.5436081272944019  0.9640419226420648  0.1366284663916054
  0.0251649573277991  0.0105230000096814  0.4904488613961976
  0.0229119043204817  0.5481811006088412  0.8701426002208617
  0.4962911015194760  0.9590866768453329  0.4839965385409449
  0.2091146460133244  0.2782424058834371  0.2640853428744939
  0.8037375914434702  0.7519579980519364  0.8780494250025785
  0.2892601894758078  0.7741230825859641  0.2529930624612965
  0.7579737190473105  0.2427570188985210  0.6334279876631967
  0.6796714589544613  0.7280994992493652  0.2645952297523981
  0.2603226663818809  0.2411801738204407  0.7553920760815104
  0.9396695583027388  0.2712912031747738  0.2496446661829028
  0.2527041591737934  0.7535626046720628  0.8638017612176000
  0.2370605498656480  0.4695112607595215  0.1251106306492218
  0.4826454116126089  0.9876869492773427  0.6188239648292300
  0.7183878017469778  0.2662955993633453  0.8693555437239827
  0.2899521497490273  0.9997591736842083  0.3765889427541684
  0.5626142267323520  0.5037374814275529  0.7606243290367213
  0.8357911216337842  0.7520724137849748  0.5205841051629471
  0.7179942020246778  0.4656430321323025  0.1208510591496115
  0.2628733656848508  0.7788113092209584  0.6377760887023697
  0.7564231132185666  0.4890609647413570  0.8820592391878532
  0.0398709867605682  0.9890195921034016  0.3668714094788456
  0.7595622131283031  0.7389597077072959  0.6322201656214087
  0.2360091847078615  0.7029913650276007  0.1247356075349976
  0.2698721168646467  0.0547071646237414  0.6200944784857172
  0.5034689084308168  0.4816353866767255  0.0228584987315380
  0.2388983752671738  0.0318262831778533  0.8874948681038648
  0.4424220409710126  0.5460166504529294  0.3808881579443970
  0.2965419140845351  0.0263360815558695  0.2488346914459634
  0.7975668665241288  0.5030384060400791  0.7453428227887260
  0.2154187885747069  0.9903024905521410  0.7433406155577225
  0.7187999738773371  0.4869009144562458  0.2504485423334083
  0.2576659576801182  0.9572685509965383  0.0016239084681854
  0.7606618147524163  0.5164016877722561  0.4974668966663972
  0.2542681240817660  0.0292829270066505  0.4976247731579607
  0.7452673392380321  0.5029092350004959  0.9954299378746201
  0.7374449880197216  0.9683855987653546  0.7551876017322727
  0.2061125132297627  0.5185116397121564  0.2515411786292224
  0.2949310666666637  0.4974251948512082  0.7450442857238223
  0.7817681195677237  0.0080503734052292  0.2495200939966624
  0.2657115191473989  0.5334929658601685  0.4939079112825714
  0.7547025531261233  0.9939567378907003  0.0087980499311963
  0.7673006011746216  0.9974269462893364  0.5103435734725111
  0.2602523432211641  0.4714771980044433  0.9982204098713239
  0.0147466599576111  0.2614584994196633  0.3724641770746732
  0.5170423364118238  0.7442883235602369  0.8826224303312160
  0.4973560671198882  0.2565041267648714  0.6317746773604968
  0.9873708729153308  0.7234178828467247  0.1246502664448243
  0.9743717688259345  0.2494811382089937  0.8768852253422256
  0.5025085962051147  0.7652331462379598  0.3763502356106165
  0.0229255613500698  0.7528943555249260  0.6203425229906900
  0.4947627784714901  0.2447848743868842  0.1250499295649002
  0.1710254697377516  0.3646709195359221  0.0554050380877972
  0.6643232446829270  0.8791936459732886  0.5576514913767322
  0.6526562709449719  0.1140470470774762  0.9684008972069491
  0.1509338470544185  0.6223789843789014  0.4415919933522363
  0.3532393454215500  0.3504968350524181  0.9517735394667745
  0.8700630125090845  0.9124656355573771  0.4511939746096909
  0.8466662711911256  0.0940418642991898  0.0613417836019832
  0.3708170825234951  0.6322614709017901  0.5536431075644179
  0.9159143829730056  0.0721129507659619  0.2042577004725926
  0.4041407076652931  0.6087854483428338  0.7005395801101305
  0.8654677422472449  0.8960216486905672  0.3075526570693983
  0.4002678315567053  0.3846086331460715  0.7947591022859860
  0.1031288195799855  0.6496146123719221  0.2885709909190394
  0.6334872391264905  0.0705190399792635  0.8076928463867520
  0.1067693341958579  0.4175448672042164  0.1988574818496894
  0.6239614747831899  0.8834617541007318  0.7046148694910956
  0.8496205734104842  0.5906148224126826  0.9396054934987799
  0.3816940893170130  0.1148066729282431  0.4523064904254281
  0.8647555764970266  0.3982310660417320  0.5465768556067652
  0.3741340861729769  0.8618748169136610  0.0509124383099570
  0.1609887901377273  0.1434763883844271  0.5506195942337928
  0.6536440969308299  0.6056685929227538  0.0533480799921996
  0.1369793365678496  0.8882388699766083  0.9435628749566816
  0.6349306142765213  0.3993378412982842  0.4527574407442272
  0.6101955210484223  0.4163372947787765  0.3066496962652520
  0.1161430866111896  0.8862965402481859  0.7910965246604337
  0.1253573577861197  0.1021183711122798  0.6893617405796916
  0.6112162049753153  0.6055077812995435  0.1979834864119883
  0.8966446660593368  0.4068563582856806  0.6918107056706772
  0.3833895961287800  0.9027141555880011  0.1944980415431755
  0.3915786578018290  0.1164321132970776  0.3091979564995365
  0.8711190725188960  0.5859156790406816  0.8126842482482594
  0.1507498408703979  0.0491748164226893  0.0531387074346094
  0.6704529563236300  0.6322509897087208  0.5536244565121621
  0.6180094125368882  0.4095838945284510  0.9445794534186119
  0.1620571710214217  0.9170566466258376  0.4402987303482147
  0.3529414892886524  0.0810368778506324  0.9599991754718438
  0.8638203214160030  0.5923690858208348  0.4424418416875107
  0.8492092955643200  0.4067652915195998  0.0466214283618323
  0.3526425811986021  0.9148832658908992  0.5530303088303075
  0.1782337654867701  0.1215320509569305  0.2028843715560111
  0.6859729460223546  0.6179367194692207  0.6967111016026962
  0.1989554878230031  0.9216737410104512  0.2982005246055783
  0.7099655246278196  0.3760539142276781  0.7914277592770250
  0.8096320107093082  0.6074104995217410  0.2965898121871802
  0.3337199044032057  0.0805704407751311  0.7992193748788547
  0.8234476154679478  0.3922139829574554  0.1908097480238768
  0.3286517337803125  0.9141366512966800  0.6908973294655463
  0.8524813847201923  0.9056052385294776  0.9450080556612511
  0.3747699128614454  0.4205299703650653  0.4499756992187742
  0.8692149072342764  0.1080314648137578  0.5566967873651999
  0.3416095712854995  0.5893679074476843  0.0527920111885637
  0.1676035553574290  0.4346826506862188  0.5457494405889166
  0.6582723685895432  0.8852958117639816  0.0630913288202278
  0.1608681477440161  0.5474061456515716  0.9371246997371921
  0.6422564734344786  0.0924598161478785  0.4617197053306642
  0.2946076272883307  0.4443648799885183  0.3144649027952554
  0.8724345814711543  0.8753754019382238  0.7987026494011491
  0.8084371289004557  0.1033718046586943  0.7043872973236733
  0.3331268232472227  0.6015255219026951  0.2007658420514041
  0.1849626525020235  0.4203815093468631  0.6869313493785629
  0.6865091664183756  0.8892165222825221  0.1959083174906531
  0.6584712230890961  0.0940677358633717  0.2961916525546242
  0.1743865342490949  0.5900192163230974  0.7983657510714023
  0.0907078901051827  0.1737820363641121  0.3269149102419533
  0.6116494897003733  0.6472717294737007  0.8486538332748987
  0.5921328611031907  0.3462345989593687  0.6760552956143230
  0.0854207562765023  0.8185524965975151  0.1601997078298814
  0.4116203850668325  0.1609394236746578  0.6738451644253015
  0.9036064671666534  0.6359050682522596  0.1653860221440825
  0.9322938128408462  0.3773339602571874  0.3394496787998393
  0.4118778884376716  0.8251524146084946  0.8296925547410995
  0.0739490366891177  0.1686604045643884  0.9203809125203252
  0.5691427813806128  0.6674503508812863  0.4210901595521216
  0.1047020090601855  0.8500788567829159  0.5794982804958337
  0.5900427250135621  0.3265255922507641  0.0821915216988103
  0.9377873971946700  0.6471753122106868  0.5842975029655312
  0.4302062923925596  0.1376645551852318  0.0837379007327555
  0.8931664373043775  0.3378584399388723  0.9149799576504257
  0.3850881557629767  0.8316601001219872  0.4180667014271423
  0.9209912325527196  0.8327186109745303  0.6626590930856294
  0.3977424053478182  0.3324044293586190  0.1652128970747091
  0.8885518382683425  0.1431629163633551  0.8456562648114553
  0.4287708672242447  0.7094329171240161  0.3183696594758992
  0.0652880007679117  0.3262933210913495  0.8287417416120053
  0.6009328260999688  0.8615493647211691  0.3449077383455508
  0.1044259753223098  0.6873849303857569  0.6733643719656828
  0.5800541030082189  0.1704368648358542  0.1719138737178381
  0.4038762209313739  0.3423774698385302  0.5899118487090496
  0.8840047344360421  0.8027666608822305  0.0847482736464487
  0.9003512731114595  0.1941553269479987  0.4119182372685776
  0.4198633979915551  0.6830166437359115  0.9316349847779587
  0.1156145997648857  0.3151491861752727  0.4222126723092385
  0.6084277317677849  0.8312046223244252  0.9236659807558663
  0.5774471023983002  0.1802792710071447  0.5841309893883124
  0.0648047586347523  0.6356428520584372  0.0722205713212487
 
 -0.22332438E-02 -0.46096750E-03  0.10421372E-01
 -0.81167725E-03  0.70328781E-03 -0.44993461E-02
  0.14151647E-02 -0.38565743E-02 -0.12179852E-02
  0.44917574E-03  0.51644140E-02 -0.68142695E-02
 -0.70219524E-02  0.81689922E-03 -0.13158185E-02
  0.33500479E-02  0.58404853E-02 -0.45567622E-02
  0.66700411E-02 -0.75051973E-03  0.75118830E-02
  0.13942018E-02  0.86561189E-02 -0.45844923E-02
 -0.49346718E-02  0.65205655E-02 -0.33674358E-02
 -0.56339721E-02  0.68578128E-02  0.22855578E-02
  0.79271074E-03  0.85056869E-02 -0.10541486E-02
 -0.75092664E-03 -0.58750700E-02 -0.50285262E-02
 -0.11989897E-02 -0.55984579E-02  0.29279951E-02
  0.14136244E-03  0.87580596E-02 -0.72030217E-03
 -0.39877249E-03 -0.53219175E-03  0.49880277E-02
 -0.33791913E-02 -0.25185078E-02  0.85094134E-02
  0.79232658E-03 -0.24382897E-02  0.78881946E-02
  0.25982765E-02 -0.10486104E-02 -0.37743579E-02
  0.88343937E-02 -0.95030605E-03 -0.53399835E-04
 -0.11474938E-01  0.63326620E-02 -0.21473723E-02
 -0.32662780E-02  0.26659205E-03 -0.12540093E-02
 -0.95131040E-02  0.26604220E-02  0.22989916E-02
  0.42348671E-02 -0.11068309E-02  0.43984447E-03
  0.64527094E-03 -0.19742822E-02 -0.74192813E-02
 -0.18454722E-02  0.84840988E-02 -0.18139687E-02
 -0.88169919E-02 -0.16387118E-02  0.11253791E-02
 -0.10352917E-02 -0.33004022E-02  0.10951507E-02
  0.15719882E-02  0.48349574E-02 -0.45275961E-03
 -0.29138803E-02  0.10511812E-02 -0.27941616E-02
 -0.74553386E-02 -0.36652386E-02  0.69394013E-02
 -0.29337217E-02 -0.10680374E-01  0.48957383E-02
 -0.14719332E-02 -0.85743152E-02  0.24464002E-03
  0.19915873E-02 -0.13473182E-02 -0.28704875E-02
 -0.35632855E-02  0.84926042E-02 -0.10218411E-02
 -0.39056956E-02 -0.35747540E-02  0.11244637E-03
 -0.79683866E-02  0.42557108E-02 -0.11510065E-01
  0.40252186E-02 -0.85131171E-03  0.38849021E-03
  0.48890913E-03  0.55013688E-02  0.22104156E-02
 -0.87302412E-02 -0.23308616E-02  0.10446496E-02
  0.47711620E-02  0.37064093E-02 -0.54224520E-02
  0.12394997E-02  0.56436460E-03  0.46837318E-02
  0.90192950E-02  0.56583729E-02 -0.25053801E-02
 -0.19543585E-02 -0.36966418E-02  0.33786902E-02
  0.45825207E-02  0.19841925E-02  0.10824058E-01
  0.24726430E-02 -0.15781275E-02  0.65507408E-03
 -0.19227143E-02 -0.25673023E-03 -0.13526920E-01
 -0.50645485E-02 -0.29086913E-02  0.11670619E-02
 -0.21660542E-03  0.19962892E-02 -0.53375239E-02
 -0.43839377E-02 -0.52318927E-02 -0.74626794E-02
 -0.21592329E-02 -0.10400061E-01  0.27588369E-02
  0.20128304E-03 -0.18605212E-02 -0.10038418E-01
  0.51120324E-02 -0.65021038E-02 -0.29010646E-02
  0.13733052E-02 -0.58746018E-02 -0.32826608E-02
 -0.26193276E-02 -0.18996166E-02 -0.11305584E-02
 -0.78512441E-04  0.34082716E-02  0.23272524E-02
  0.86592269E-03  0.91400037E-03 -0.45575268E-02
  0.33376257E-02  0.32499681E-02  0.48122360E-02
 -0.72489341E-02  0.24126137E-02  0.31270661E-02
  0.26206941E-02 -0.86979856E-03  0.22880972E-02
 -0.30504597E-02 -0.10459456E-01 -0.12978149E-03
  0.12810724E-01 -0.28910082E-02 -0.16706281E-02
  0.59849617E-03 -0.65104359E-02  0.15912789E-02
 -0.90318791E-03  0.73911695E-02 -0.19567047E-02
 -0.37912084E-02  0.52490508E-02  0.10701432E-01
 -0.52357483E-03 -0.13471590E-02  0.76627626E-02
 -0.36800216E-02  0.62840308E-02  0.35728598E-02
  0.62674619E-02 -0.40323292E-02 -0.24791909E-02
  0.41843641E-02 -0.37352921E-02 -0.46637309E-02
 -0.33596723E-02 -0.27866083E-02 -0.42938375E-03
  0.14057987E-02 -0.28130475E-03  0.46121781E-02
  0.71083269E-02  0.55830600E-03  0.71392238E-02
  0.39264318E-02 -0.48426079E-02 -0.23029184E-02
 -0.89193709E-02 -0.59552101E-02 -0.84962387E-02
  0.59815733E-03 -0.66324415E-03 -0.52825992E-02
 -0.46226144E-02 -0.58109247E-02 -0.23361847E-02
  0.67721972E-02 -0.91617711E-02  0.61464759E-02
  0.93611469E-02 -0.29545091E-02 -0.19917357E-02
 -0.64498831E-03  0.70428672E-02  0.69395472E-02
 -0.71260575E-02  0.79864042E-02 -0.41136998E-02
 -0.96409258E-02  0.37825603E-02  0.39930401E-02
 -0.25877267E-02 -0.14925097E-02  0.31729879E-03
 -0.20172216E-02 -0.61482171E-02  0.25866558E-02
  0.15485010E-02 -0.26094161E-02 -0.92656535E-03
  0.14006117E-02 -0.62838221E-02 -0.62594794E-03
 -0.17644177E-02 -0.47273852E-02  0.10986039E-01
  0.17959729E-02 -0.12315453E-02  0.57899223E-02
  0.19593236E-02  0.98930998E-02  0.32630064E-02
  0.79094583E-03 -0.43342071E-02  0.37138648E-02
 -0.22764950E-02 -0.19368743E-02  0.81688485E-03
 -0.26999637E-02  0.16050935E-02 -0.75567883E-03
  0.31599692E-02  0.28399664E-02 -0.11905441E-02
  0.61043012E-03  0.25982572E-02 -0.14857619E-02
  0.10244188E-02 -0.19366753E-02  0.42487537E-03
 -0.44365315E-03  0.23276538E-02 -0.90145777E-03
 -0.17411127E-02  0.97842169E-03 -0.85269780E-03
  0.15760196E-02  0.60913651E-03 -0.47916046E-02
 -0.20220447E-02  0.10085111E-02 -0.16397173E-02
  0.37491454E-02  0.98945873E-03 -0.28606406E-02
  0.11444339E-02 -0.11056280E-02  0.11167855E-02
  0.13866586E-02  0.33612851E-02 -0.35259231E-03
  0.86326802E-03  0.17648858E-02  0.42950429E-02
  0.31487975E-02  0.30420975E-03 -0.25005695E-02
 -0.23021103E-04  0.26110017E-02 -0.18140224E-02
  0.14265950E-02 -0.77550112E-03  0.69709959E-03
 -0.73018002E-02  0.15188960E-02  0.49710203E-02
 -0.22642175E-02 -0.80034346E-03 -0.14704596E-02
 -0.24932218E-02  0.63693809E-02  0.38285268E-02
 -0.69601321E-03  0.33394073E-02  0.37747521E-03
  0.11454844E-01  0.61567930E-02 -0.32313508E-02
  0.22945289E-02  0.10718875E-02 -0.25609280E-02
 -0.36687282E-02 -0.62344322E-03  0.50087720E-03
 -0.64546303E-02 -0.16666149E-02  0.57495427E-02
 -0.49998220E-02 -0.14047002E-02 -0.17025858E-02
 -0.32366652E-02 -0.35219239E-02  0.39873331E-02
  0.58655471E-02  0.54818833E-02 -0.69724563E-03
  0.19885194E-02  0.15630682E-02 -0.17776557E-02
 -0.23663829E-02  0.30042967E-02  0.60969358E-02
  0.33224380E-04 -0.49626317E-02  0.26202788E-02
  0.28534833E-02  0.52234203E-02 -0.79157517E-03
  0.19774069E-02  0.88340512E-03 -0.37610293E-03
  0.25886063E-02  0.28393558E-02  0.12300513E-02
 -0.32549719E-02 -0.21664355E-02 -0.31086376E-02
  0.46242871E-02  0.73815557E-02  0.51620588E-02
 -0.36309143E-02  0.45392227E-02 -0.30265002E-02
 -0.44912183E-02  0.35487870E-02 -0.51051215E-02
 -0.30925088E-02 -0.30051376E-02 -0.22567508E-02
  0.80739537E-03 -0.81493595E-02 -0.44277704E-02
  0.14823678E-02 -0.21813054E-02 -0.49247919E-02
  0.81823861E-02 -0.77772299E-03  0.20804924E-02
  0.25725789E-02 -0.77008513E-03 -0.21645743E-03
  0.85263249E-03  0.16919415E-02  0.27977020E-02
  0.25760353E-02 -0.52040175E-02 -0.20412962E-02
  0.42727036E-02 -0.29350066E-02 -0.66613177E-03
  0.58023883E-02 -0.80189747E-02  0.31999302E-03
 -0.17975712E-02 -0.12205789E-02 -0.57855243E-02
  0.16999935E-02  0.14385629E-02  0.18667471E-02
  0.26418475E-02  0.28500129E-02  0.12678409E-03
  0.73322133E-02 -0.49764828E-02 -0.11048065E-02
 -0.83014885E-02 -0.25630796E-02 -0.32714738E-02
  0.16186230E-02  0.30350239E-02 -0.95381568E-04
  0.12533174E-02  0.13831312E-02 -0.46934754E-02
 -0.34572789E-02 -0.52497515E-02  0.31282339E-02
 -0.38428245E-02 -0.55028126E-02  0.43624470E-02
  0.50754595E-02 -0.12411766E-02 -0.21847831E-02
  0.20857138E-02 -0.12168130E-02 -0.17242696E-02
 -0.39523885E-02 -0.58227543E-04  0.39704754E-03
 -0.54176163E-02 -0.13621929E-02  0.61013692E-02
 -0.11417489E-02  0.84868957E-03  0.40476170E-02
  0.77414407E-02 -0.40343132E-02 -0.59197593E-02
 -0.12357618E-02  0.36683133E-02  0.27384603E-03
  0.12058065E-02  0.49432077E-02  0.56548933E-02
  0.48222150E-02  0.64933270E-04  0.13633241E-02
  0.35813369E-02  0.45141260E-02  0.64644862E-04
  0.57943918E-03  0.79179111E-03 -0.76553745E-02
 -0.29979653E-02 -0.44500114E-02 -0.17815409E-02
 -0.47148328E-02 -0.18030362E-02 -0.53868951E-02
  0.53506922E-02 -0.37510312E-02  0.30395138E-02
  0.70128895E-03  0.35709348E-02  0.53959198E-02
  0.88522589E-03 -0.37895780E-02  0.46002505E-02
 -0.88666433E-02  0.40789186E-02  0.14028567E-02
  0.30021650E-03  0.16062264E-04  0.60096425E-02
 -0.21214738E-02  0.54896377E-02  0.16602695E-02
  0.26314077E-02 -0.39216711E-02  0.40388068E-03
 -0.15760667E-02 -0.60357904E-02 -0.34974656E-02
 -0.46737014E-02  0.44902767E-02 -0.12569803E-02
 -0.62857954E-02  0.13543223E-02 -0.32266787E-02
 -0.39774890E-02 -0.59511975E-02 -0.37612085E-02
  0.11472393E-03  0.24731404E-03  0.83256108E-02
  0.13944948E-02  0.97181747E-04 -0.96138514E-02
  0.29607486E-02 -0.86406634E-02 -0.25243073E-02
  0.42988975E-02 -0.45228776E-02  0.27873767E-02
  0.58036778E-02 -0.34718241E-02  0.57890306E-02
  0.45083937E-02 -0.98928458E-02  0.53307297E-02
 -0.11947903E-02 -0.90279441E-03 -0.81119501E-03
 -0.45676954E-02 -0.14364080E-02  0.15200164E-02
 -0.36818086E-02 -0.38058928E-02 -0.40787906E-04
 -0.20002401E-02  0.46115256E-02  0.18599210E-03
 -0.47432540E-02 -0.40104550E-02 -0.51640796E-02
 -0.41643711E-02 -0.79440582E-03 -0.69003245E-03
 -0.45014475E-02  0.33919067E-03  0.30524326E-02
  0.35339654E-03  0.33625632E-02  0.45939113E-02
  0.36564828E-02 -0.44173895E-02 -0.10111533E-02
  0.45023679E-02  0.16720505E-02 -0.66275953E-02
 -0.20764918E-02  0.71232600E-02 -0.38961957E-02
 -0.31729578E-02  0.42018018E-02 -0.11016792E-02
  0.25579986E-02  0.17891774E-02  0.81460732E-03
 -0.45322298E-02 -0.36409514E-02 -0.24586228E-02
 -0.25275042E-02 -0.20168799E-02 -0.23488746E-02
  0.10549256E-02  0.23572309E-05  0.30440811E-02
  0.59966218E-02 -0.21827273E-02 -0.11440907E-02
  0.10223156E-02 -0.34356902E-02  0.16228568E-02
 -0.40418744E-02  0.53980785E-02 -0.84054045E-03
  0.99363120E-03 -0.18652189E-02  0.25078320E-02
 -0.33454831E-02 -0.23078533E-02 -0.35016034E-02
  0.53352724E-02 -0.55546647E-03  0.94682355E-03
 -0.47251614E-02  0.40055026E-02  0.18523216E-02
 -0.10848808E-02  0.43686505E-02  0.27967568E-02
  0.28609567E-02  0.87595285E-03  0.23713699E-02
  0.17570996E-02 -0.13741757E-02  0.10349401E-02
 -0.17887120E-03 -0.51240592E-02  0.10724275E-01
 -0.93211620E-03  0.60156014E-03  0.22201158E-02
 -0.43928211E-02  0.55055594E-03 -0.50802675E-02
 -0.20836079E-02  0.61122643E-02  0.68923408E-02
 -0.60703952E-03 -0.59959109E-03  0.32161134E-02
  0.67554321E-02 -0.10696260E-01  0.31725658E-02
  0.38261922E-02 -0.33018663E-02 -0.26950942E-02
 -0.33574623E-02 -0.63072501E-03  0.40878490E-02
  0.30959709E-02  0.36146716E-02  0.14267481E-02
 
           1
   2.00000000000000     
  0.12795570E+01 -0.26080120E-02  0.00000000E+00  0.00000000E+00
  0.23773002E-01  0.33140220E-01  0.12022580E+00
  0.52990142E+00  0.52454520E+00  0.63608483E+00
  0.54081620E+00  0.74337161E+00  0.76213554E+00
  0.79006770E+00  0.77055486E+00  0.38915899E+00
  0.53188753E-02  0.99433962E+00  0.87232576E+00
  0.10177105E+00  0.49519768E+00  0.35709142E+00
  0.96572971E+00  0.45753268E+00  0.12007200E+00
  0.25146861E+00  0.23779691E+00  0.13195521E+00
  0.73690244E+00  0.99239215E+00  0.64313436E+00
  0.99726571E+00  0.27916768E-01  0.99233876E+00
  0.71835013E+00  0.53173174E+00  0.38249655E+00
  0.22902531E+00  0.32591904E+00  0.88464300E+00
  0.81606866E+00  0.95626405E+00  0.12661224E+00
  0.21862522E+00  0.76437347E+00  0.50896980E+00
  0.97834023E+00  0.99355362E+00  0.73388428E+00
  0.26108607E+00  0.73874586E+00  0.36366062E+00
  0.15047869E-01  0.98441710E+00  0.61503643E+00
  0.28336757E+00  0.51968158E+00  0.62235512E+00
  0.29423448E+00  0.13852611E-01  0.12852958E+00
  0.47735559E+00  0.47842221E+00  0.88189702E+00
  0.53938137E+00  0.49862389E-01  0.37207951E+00
  0.31499293E+00  0.26093764E+00  0.37834545E+00
  0.74756395E+00  0.10514956E-02  0.88654287E+00
  0.30125437E-01  0.46717242E+00  0.62838593E+00
  0.23348458E+00  0.72261391E+00  0.98370255E+00
  0.23906667E+00  0.28179059E+00  0.62425547E+00
  0.78584570E+00  0.22993722E+00  0.13650613E+00
  0.76123706E+00  0.24584090E+00  0.35413170E+00
  0.51419860E+00  0.53287739E+00  0.49943771E+00
  0.49146488E+00  0.23189192E+00  0.99525136E+00
  0.99299290E+00  0.26080765E+00  0.50009347E+00
  0.47620652E+00  0.99727419E+00  0.74258272E+00
  0.93024073E+00  0.75047579E+00  0.23920553E+00
  0.57461249E+00  0.24775255E+00  0.75544228E+00
  0.97953656E+00  0.75110108E+00  0.99903009E+00
  0.76182556E+00  0.24180463E+00  0.49948635E+00
  0.51135571E+00  0.97442567E+00  0.82453143E-02
  0.52897684E+00  0.23375718E+00  0.25637290E+00
  0.98582017E+00  0.70754338E+00  0.75154733E+00
  0.47758422E+00  0.52604788E+00  0.25577769E+00
  0.29541592E-01  0.94185766E+00  0.24216879E+00
  0.28532611E+00  0.74912355E+00  0.74955620E+00
  0.51985784E+00  0.33421885E-01  0.89076301E+00
  0.97330870E+00  0.53848595E+00  0.24289286E+00
  0.23258640E+00  0.21121436E+00  0.11680739E-02
  0.51381523E+00  0.75870914E+00  0.51144816E+00
  0.14053215E-02  0.51039595E+00  0.49114045E+00
  0.79199349E+00  0.23389950E+00  0.21481644E-02
  0.88866636E+00  0.23490796E+00  0.75711367E+00
  0.45806902E+00  0.52662638E+00  0.13742599E+00
  0.39625178E-01  0.49212970E+00  0.75530869E+00
  0.52689738E+00  0.94729786E+00  0.25980554E+00
  0.26583071E+00  0.28566952E+00  0.49728556E+00
  0.72407622E+00  0.72030435E+00  0.13734453E+00
  0.76834390E+00  0.51552820E+00  0.62312969E+00
  0.75317089E+00  0.76603566E+00  0.45142292E-02
  0.85707638E-02  0.43679957E+00  0.99240499E+00
  0.51493200E+00  0.24005744E+00  0.49554498E+00
  0.51183929E+00  0.72997182E+00  0.13157458E-01
  0.77785431E+00  0.26655232E-01  0.39186196E+00
  0.54550864E+00  0.96361303E+00  0.13650454E+00
  0.25253746E-01  0.95571555E-02  0.49056690E+00
  0.22777913E-01  0.54927760E+00  0.86999746E+00
  0.49572866E+00  0.95986539E+00  0.48479033E+00
  0.20903697E+00  0.27804255E+00  0.26465374E+00
  0.80319165E+00  0.75289025E+00  0.87831445E+00
  0.29018999E+00  0.77352487E+00  0.25280916E+00
  0.75859448E+00  0.24220288E+00  0.63308205E+00
  0.67917304E+00  0.72768610E+00  0.26456338E+00
  0.26053122E+00  0.24113844E+00  0.75573419E+00
  0.94072410E+00  0.27137403E+00  0.25017423E+00
  0.25328666E+00  0.75284419E+00  0.86363094E+00
  0.23573733E+00  0.46862779E+00  0.12448041E+00
  0.48273415E+00  0.98758855E+00  0.61843212E+00
  0.71770202E+00  0.26543353E+00  0.86918225E+00
  0.29095683E+00  0.99839999E+00  0.37704487E+00
  0.56400298E+00  0.50329917E+00  0.76047659E+00
  0.83569544E+00  0.75311725E+00  0.52109886E+00
  0.71693703E+00  0.46682784E+00  0.12054592E+00
  0.26144310E+00  0.77937246E+00  0.63807228E+00
  0.75603922E+00  0.48883955E+00  0.88208278E+00
  0.39571725E-01  0.98810748E+00  0.36706328E+00
  0.75979194E+00  0.73857259E+00  0.63215144E+00
  0.23621697E+00  0.70205914E+00  0.12468918E+00
  0.26961036E+00  0.54005842E-01  0.62090939E+00
  0.50373535E+00  0.48145268E+00  0.23287976E-01
  0.23918905E+00  0.33293957E-01  0.88773691E+00
  0.44253938E+00  0.54537366E+00  0.38116364E+00
  0.29620419E+00  0.26048740E-01  0.24889529E+00
  0.79716632E+00  0.50327653E+00  0.74528677E+00
  0.21588758E+00  0.99072381E+00  0.74325230E+00
  0.71889053E+00  0.48728637E+00  0.25033833E+00
  0.25781793E+00  0.95698124E+00  0.16554243E-02
  0.76059600E+00  0.51674700E+00  0.49740003E+00
  0.25400982E+00  0.29428079E-01  0.49756152E+00
  0.74550115E+00  0.50299960E+00  0.99507451E+00
  0.73714501E+00  0.96853521E+00  0.75506597E+00
  0.20666871E+00  0.51865843E+00  0.25132899E+00
  0.29510085E+00  0.49726117E+00  0.74512713E+00
  0.78197383E+00  0.85490311E-02  0.24949394E+00
  0.26583959E+00  0.53375479E+00  0.49422650E+00
  0.75516969E+00  0.99400187E+00  0.86125661E-02
  0.76729719E+00  0.99781430E+00  0.51020902E+00
  0.26046398E+00  0.47136215E+00  0.99827212E+00
  0.13663414E-01  0.26168383E+00  0.37283291E+00
  0.51670643E+00  0.74416959E+00  0.88251336E+00
  0.49698619E+00  0.25744905E+00  0.63205866E+00
  0.98726762E+00  0.72391329E+00  0.12467827E+00
  0.97607113E+00  0.25039452E+00  0.87664553E+00
  0.50284900E+00  0.76539216E+00  0.37616027E+00
  0.22381293E-01  0.75280187E+00  0.62037968E+00
  0.49380521E+00  0.24453763E+00  0.12547641E+00
  0.17028373E+00  0.36446253E+00  0.55278746E-01
  0.66384307E+00  0.87867116E+00  0.55794726E+00
  0.65352644E+00  0.11486030E+00  0.96834918E+00
  0.15122885E+00  0.62261087E+00  0.44146013E+00
  0.35288828E+00  0.35094253E+00  0.95222579E+00
  0.87006794E+00  0.91172941E+00  0.45138834E+00
  0.84708959E+00  0.94816776E-01  0.61283067E-01
  0.37111044E+00  0.63239253E+00  0.55361521E+00
  0.91629841E+00  0.72534179E-01  0.20434894E+00
  0.40365782E+00  0.60846405E+00  0.70030899E+00
  0.86615377E+00  0.89711673E+00  0.30793556E+00
  0.39972917E+00  0.38528204E+00  0.79453461E+00
  0.10246253E+00  0.65014109E+00  0.28819231E+00
  0.63302846E+00  0.70073218E-01  0.80752545E+00
  0.10688911E+00  0.41633588E+00  0.19852904E+00
  0.62418139E+00  0.88313815E+00  0.70424956E+00
  0.85083446E+00  0.59049944E+00  0.93975982E+00
  0.38207574E+00  0.11469243E+00  0.45229043E+00
  0.86488207E+00  0.39848207E+00  0.54678438E+00
  0.37451625E+00  0.86110278E+00  0.50761022E-01
  0.16162266E+00  0.14304097E+00  0.55057018E+00
  0.65450490E+00  0.60447895E+00  0.53371816E-01
  0.13671266E+00  0.88805779E+00  0.94313372E+00
  0.63518281E+00  0.39955126E+00  0.45289591E+00