Na88 Sn16 P8 Se96                       
   1.00000000000000     
    14.0793397336999995    0.0000000000000000    0.0000000000000000
     0.0000000000000000   14.0793397336999995    0.0000000000000000
     0.0000000000000000    0.0000000000000000   28.1586794673000007
   Na   Sn   P    Se
    88    16     8    96
Direct
  0.0056343942983830  0.9619165759591978  0.0222136148669453
  0.4958522412172328  0.5588131498623115  0.7575139482893338
  0.4919380575426940  0.9536952857930124  0.9896622117525108
  0.1493264488327782  0.3187715948797674  0.2722875843150475
  0.4540424580641648  0.9874914138736284  0.6352661228892988
  0.0032021408840107  0.4887857975485884  0.4985408715806527
  0.9909448991120514  0.4863567144984377  0.1133294877633302
  0.2536812952449866  0.2355421959628337  0.0060240894444496
  0.7595391246025163  0.7121618822947121  0.6117346020771822
  0.8024467494145617  0.2282682188136985  0.9853312371677068
  0.5100031150272542  0.7278446878621246  0.2429332225988874
  0.1667574787001055  0.4308756332125914  0.8893424342432227
  0.7878020539762165  0.2460769739141909  0.1174418516042417
  0.2207245969752417  0.0151503894734102  0.6251862640136412
  0.4917361953429140  0.0231186355681821  0.8618819855245852
  0.5350286234232048  0.4869284212421253  0.3625119750056465
  0.9562601228531280  0.9757182247521353  0.7513613124731964
  0.9951915922226704  0.4724384249592458  0.6266625905097168
  0.5332149315038455  0.0095583981186712  0.1362911714123118
  0.0014805015730585  0.4643479930988611  0.7704179024147899
  0.6789057449775566  0.9592534902659700  0.3757405025759661
  0.5359924316018673  0.0346539059159026  0.2634417795733365
  0.7902767624593250  0.7663055843613904  0.8858160078426363
  0.7394926361269617  0.2314370207124645  0.7263413481825005
  0.1888061999735246  0.2492070000745177  0.1291959199398623
  0.1886822614452535  0.2596508777295044  0.6190973834452287
  0.7212260743670265  0.7685791976806859  0.1279038330316848
  0.9661897805756949  0.4943427917785757  0.3612144442935570
  0.4985146149538758  0.4962468513423967  0.4858569203912420
  0.7852840321243365  0.0096584599453880  0.1290754295676775
  0.9747869033875048  0.1887453824630517  0.4927344071208988
  0.2121561218623500  0.7282609466644114  0.7429884713090037
  0.2828847518802277  0.5101330397101841  0.3558945792733441
  0.2432324119762817  0.2278787417525944  0.7455646194082948
  0.7336644116685807  0.9980225981471315  0.8803063635833251
  0.4875990898580257  0.2386756721053728  0.5001821713413033
  0.5019414725673931  0.4809899745373763  0.0084993834220896
  0.8158366769553633  0.2506072097401591  0.2506570519099866
  0.9855679731150183  0.7028832274776928  0.7496126910253118
  0.2674389897471612  0.7531559647625498  0.2501091000246651
  0.7950452485653448  0.7374785229055130  0.2383126552600999
  0.4837894436193929  0.2242027455510844  0.7545595443256171
  0.7772006260320916  0.7499777124865360  0.0038946501218294
  0.0203209658079153  0.7483562336739690  0.2660673666395869
  0.9959293759070776  0.4437828599471141  0.9714039455964443
  0.7528326313599509  0.7101018617014916  0.4958744761661908
  0.2019512173663081  0.7414436854108367  0.5015855632775568
  0.7409034371733871  0.3184170779606615  0.3935490212246012
  0.9529893066572706  0.9583511885569421  0.8466816639673389
  0.5289517007945052  0.4481929754985771  0.2279163930080384
  0.4586080303851405  0.9887572371487577  0.7512793092830539
  0.5271002408546296  0.2384451148826205  0.2716374588684003
  0.2772646770658519  0.9827219632299261  0.3757959464985224
  0.5200251368849941  0.7299216331225298  0.0102225374163486
  0.7265841397133644  0.1889612230992412  0.5273793998847318
  0.2453562274061988  0.7728257487199105  0.1176695868011408
  0.7699545766987651  0.5086392539697728  0.8838756085229900
  0.5131797350227043  0.4822540580453955  0.6093327338425424
  0.4672806604433385  0.2384005442030875  0.0095232864114098
  0.2333523833881482  0.2777172398761778  0.4925265485512586
  0.0178792701216599  0.9966992156503863  0.1360597767636911
  0.9460529751828211  0.8613951100222869  0.5151867469378704
  0.0016480559350192  0.7277979084110516  0.9996212400498692
  0.4816708803924297  0.7414322193921339  0.5013237359784478
  0.2833783971053830  0.2561035607291389  0.3682626867836168
  0.6636545359198692  0.7384674051665137  0.7587858765441530
  0.9722961927142475  0.9958293873496562  0.3874337255234033
  0.9858672057942195  0.2491435552428686  0.7192223936060919
  0.0237364752400899  0.0571598318444984  0.2715743914290558
  0.2423210053257549  0.5150966669585409  0.6219237390347570
  0.3491424116975578  0.2093084860383236  0.1924163566469630
  0.2445243434740876  0.7380162679892165  0.9951868495470894
  0.2670031302745906  0.4667819282687853  0.1221643278088638
  0.6762201101581784  0.0147263086531791  0.6038968515409706
  0.7421122632503506  0.2387774344434606  0.8571415773703164
  0.1923214718376335  0.7470259268699185  0.3768429925725278
  0.1947635425893929  0.6906785354784112  0.8650101900399272
  0.7369697541083811  0.7201402446798627  0.3671839562121131
  0.2761839722832433  0.9982187643240259  0.1301374412562913
  0.2789532018469683  0.7559572224850436  0.6178404804095871
  0.4989948493696412  0.4704890822924265  0.8854659461482085
  0.4534548601802434  0.9797014383238760  0.4774844581583890
  0.7471061376399137  0.4120843470976102  0.6104529276455237
  0.2602683443476874  0.1857719711989492  0.8729537332196913
  0.9813912144192863  0.0210429674579131  0.6172340851320705
  0.6508679850165431  0.4796926136932400  0.1246940139443083
  0.2146962497394177  0.9335900047661045  0.8718065967206375
  0.0165112853538753  0.4813628168938300  0.2478109253553446
  0.2445564589233947  0.9954017352555196  0.2542141173148946
  0.7525479978236471  0.4973841904664467  0.7414814977632357
  0.2095473296341485  0.9665275481537213  0.7537834716326991
  0.7681466677596260  0.4916656941623390  0.2472577927182067
  0.2525298035499446  0.9790714836617608  0.9993175583521002
  0.7527585507767167  0.4606831858547906  0.4975673703391447
  0.2285551618282038  0.0426801745482785  0.4953198079582057
  0.7640210668083810  0.5043907958145671  0.0086540472825900
  0.7162867072295003  0.9688991395629739  0.7432187609903647
  0.2642543131585594  0.5111035145877501  0.2330253500496177
  0.2688007618084934  0.4821723879630294  0.7535431672360060
  0.7671084077345784  0.0064403811288132  0.2582694046569498
  0.2743257135739206  0.5086460899443270  0.4957035068277910
  0.7405885637622203  0.0078141518325619  0.0018721116818848
  0.7093995005215935  0.9671630841672496  0.4949163260120168
  0.2662184031807325  0.4832758897158770  0.9940455464253815
  0.0278707606970190  0.2441988705790153  0.3721246626316045
  0.4861861860948131  0.7490853707683791  0.8760533043428126
  0.4818429687270943  0.2309782439967713  0.6210620237477708
  0.0329776821202868  0.7514301579824274  0.1316720055921485
  0.9892527406160047  0.2251980218185389  0.8543036949904027
  0.4939905967082509  0.7469773343264714  0.3723659881366927
  0.0199403028376711  0.7393600372915375  0.6198923243523158
  0.5184982402870882  0.2711240929125297  0.1231905235666729
  0.1463289651652064  0.3868908031593044  0.0395790821684933
  0.6344933397336351  0.8433239829779727  0.5604297543180106
  0.6241880229278058  0.0961449488162634  0.9509994341636218
  0.1480922437343828  0.5960046237405426  0.4442758020064151
  0.3720734045892888  0.3794505533392302  0.9523439963713698
  0.8054445840580943  0.8699417586760788  0.4335412870244573
  0.8697341795035223  0.1075913408517841  0.0440032599153634
  0.3739361325747581  0.6023563669582256  0.5457480572904015
  0.8676417960992581  0.0881570920041774  0.2028655465032224
  0.3508033880739331  0.6009414196657364  0.7026146175029848
  0.8667576675870936  0.9070108006783364  0.3120891412827779
  0.3493220052666569  0.3944150120724565  0.8178125196183882
  0.1564976832758636  0.5840440634878977  0.2922951406812299
  0.6415972176190798  0.1061300450186964  0.8026187854952526
  0.1599413681513732  0.4026801401578921  0.1853925937865756
  0.5868173781721885  0.8857176476186540  0.6989966476145421
  0.8684843555233087  0.6169111968677798  0.9601684682923618
  0.3475887716144528  0.1340051033063170  0.4455315403565456
  0.8660184684443091  0.3497769219640781  0.5360015282532599
  0.3608498120218403  0.8754740078679791  0.0566246184209246
  0.1252063487986611  0.1274625927996066  0.5622536339555477
  0.6717604132070759  0.6083072195984461  0.0554975538561575
  0.1339014911023323  0.8680912262726930  0.9571374980113052
  0.6315030292176064  0.3520598603887651  0.4668024321348247
  0.6629588389220146  0.3851535242649435  0.2995348701682981
  0.0926411549663464  0.8432523731711131  0.8070698627629759
  0.1099047937019297  0.0725891609008863  0.7028132211860008
  0.6459587373048730  0.5904307531095863  0.2034256065680129
  0.8504319343871228  0.3876214065029258  0.6936135996776727
  0.3791421439129829  0.9177233226092871  0.2168820359551112
  0.3444967509393413  0.1279154393592572  0.2989545273883368
  0.8523268817063662  0.5955720328267367  0.7965441395442799
  0.1553415236950909  0.0731185670353351  0.0566791615047026
  0.6374235521851251  0.5539189537417941  0.5467662165222299
  0.6555563543658165  0.4076724277009942  0.9523731484321809
  0.1278866189019032  0.9206588224834594  0.4463906294559092
  0.3623951695232115  0.0973059079791662  0.9524218991038138
  0.8369922053810934  0.5702289296688848  0.4416784039212042
  0.8678050766887403  0.3920717147206614  0.0479006850312795
  0.3290809725137677  0.9243590825787843  0.5461525725707025
  0.1607563838979538  0.1187329391860970  0.1980755998843051
  0.6544741290529403  0.5932048376289473  0.6882698416866593
  0.1497370033380362  0.8830715926756389  0.3087573888478115
  0.6443747287575325  0.3849211314125953  0.7823708457987285
  0.8762920545278988  0.6050183814891461  0.2978349763395503
  0.3332351744636595  0.0778393557761876  0.8017848898578798
  0.8611371694581502  0.3994542236094882  0.1851526767675173
  0.3261438160362610  0.8712976476095486  0.7009340973477785
  0.8428792696558434  0.8923570338820603  0.9508389001108480
  0.3685722922653933  0.4121639583561307  0.4298409478505283
  0.8399820738181403  0.0389496863551676  0.5491343141528513
  0.3550527772583308  0.5904290878463534  0.0489484192851822
  0.1593369697308218  0.4208207353089112  0.5554608971879424
  0.6469653386814795  0.8922361343682986  0.0565740773545895
  0.1373771950780403  0.5869459949064529  0.9416711026881680
  0.6114593760543220  0.0846866376430046  0.4498724342625046
  0.3552706762607826  0.3829362117287714  0.2859521759648054
  0.8028439599212540  0.8658324516646749  0.8039493741967945
  0.8095702905383468  0.0655438549615548  0.6861992577811383
  0.3692459836951135  0.6093941354642769  0.1850204726670026
  0.1743336792068695  0.3870065359043691  0.6961527167894686
  0.6660530336082510  0.9049600101114470  0.2016350534213806
  0.6855346816676214  0.1303398824727918  0.3150692804198422
  0.1338868300943190  0.5832874497791080  0.7954856584016319
  0.1201923207047437  0.1269498989717470  0.3599650365328315
  0.5854919360991663  0.6595585667575263  0.8377982788632010
  0.5913342652081560  0.3095499093757763  0.6718489541422866
  0.1220900131389820  0.8508967220232038  0.1779217969984860
  0.3656588464117956  0.1694019840494302  0.6667442702226012
  0.9469718575573245  0.6582015247846593  0.1801721999397425
  0.9696512275248703  0.3187817558238635  0.3100526597262636
  0.3568500524991848  0.7936133038938129  0.8324926354401111
  0.0675991501036295  0.1400061727575090  0.9081026288648302
  0.5877321891941589  0.6680583510314066  0.4184541775085083
  0.1099066324928727  0.8344396510164599  0.5772522394898216
  0.6360035086943041  0.3124953360880897  0.0724067690823926
  0.9392480535596728  0.6577885583011269  0.5662005472030848
  0.4108651843617214  0.1687126961121859  0.0934700728533098
  0.8887820758002306  0.3094122003296983  0.9011705914749508
  0.3907425405501198  0.8087122195961873  0.4180297045842640
  0.9081924291714693  0.8289557546275960  0.6585205635335079
  0.4455348681380237  0.4076379859417030  0.1451983559991099
  0.8826593594324965  0.1326414347349242  0.8118709906706653
  0.4279460689869513  0.6394762050752339  0.3249259714340806
  0.0903571688324279  0.3019135715318057  0.8052697084939520
  0.5790217297532909  0.8335861185954275  0.3214797960289322
  0.0945379619171691  0.6339219527749190  0.6611875385986231
  0.5910840739501227  0.1878459016747853  0.1824236572256851
  0.4027378585920390  0.3472439357035956  0.5783960724265194
  0.9251110507418574  0.8432397215046712  0.0957407730407018
  0.8986954532849299  0.1894036553165185  0.4047799644875160
  0.4172752349687872  0.6691521046781552  0.9335783776249068
  0.1015318963370945  0.3689146995378582  0.4058206180981853
  0.5682426883485474  0.8695768664715072  0.9124440171537006
  0.5363272481818683  0.1214112946421234  0.5677011532186458
  0.1225113902007100  0.6593918676079552  0.0842796331525217
 
  0.23734435E-02 -0.55165701E-02 -0.49303082E-02
  0.42659349E-02  0.46405875E-03  0.38667476E-02
 -0.12992248E-01 -0.66420764E-02  0.74918235E-02
  0.51549549E-02  0.53128930E-02 -0.32245272E-02
 -0.17730519E-02  0.59597429E-02  0.61964641E-02
 -0.11042478E-01 -0.77671523E-02  0.38498715E-03
 -0.39667090E-02  0.51724945E-02  0.24405951E-02
  0.45952905E-02 -0.48329732E-02 -0.87447970E-02
 -0.96617730E-02 -0.16004341E-02 -0.14738526E-02
 -0.53644858E-02 -0.11080326E-01 -0.27875931E-02
 -0.80952300E-02 -0.34420632E-02  0.70855254E-03
 -0.40292083E-02 -0.92293391E-03 -0.46990000E-02
 -0.78486262E-02  0.47694245E-02  0.59263478E-02
  0.14357865E-02  0.86726304E-03  0.20888880E-02
  0.19123734E-02 -0.42731618E-03 -0.74984238E-02
  0.58851389E-02  0.10074807E-02  0.53992169E-02
 -0.19128344E-02  0.35515073E-02  0.69415188E-04
  0.61740584E-02 -0.80607052E-03  0.69563854E-02
  0.57263577E-03 -0.41076265E-03  0.14932335E-03
 -0.28933207E-02 -0.41328513E-02  0.21465167E-03
 -0.49486711E-02 -0.10684747E-01 -0.55325105E-02
 -0.16494208E-02  0.76443469E-03 -0.76954609E-02
 -0.94082191E-03  0.64339421E-02  0.43649892E-02
  0.66178112E-02 -0.85516809E-02  0.34866528E-03
 -0.66216614E-02  0.67714789E-02 -0.47332368E-03
  0.31105108E-02  0.40902554E-02  0.60600502E-02
  0.62344912E-02 -0.19095941E-02 -0.39134785E-02
 -0.62963209E-02  0.30134048E-02  0.15029227E-02
  0.38701157E-02  0.96271029E-02 -0.44265695E-02
 -0.77553690E-02  0.15506581E-02  0.13467508E-01
  0.64466409E-02  0.99550315E-02  0.60796942E-02
 -0.13413956E-02 -0.64117063E-02 -0.24563340E-03
 -0.36250256E-02  0.13192110E-02  0.46352236E-02
 -0.62959302E-02  0.72434204E-02 -0.32195482E-02
 -0.16656575E-02  0.16963926E-02 -0.93297857E-02
  0.15574060E-02  0.51152841E-03  0.61749873E-02
 -0.29656281E-02  0.14020192E-02 -0.27168707E-02
 -0.38685113E-02 -0.15441228E-02 -0.15613135E-02
  0.95927135E-02  0.45960679E-02  0.68883426E-03
 -0.56925888E-02  0.73195910E-02 -0.43196751E-02
  0.77664465E-02 -0.74248810E-02 -0.28663737E-02
 -0.44127214E-02  0.19802985E-04  0.18831274E-02
  0.86361955E-03 -0.15337833E-02  0.54248135E-02
 -0.19088498E-02 -0.17125779E-02 -0.71912049E-02
 -0.40397156E-02  0.41035523E-02  0.41683316E-02
 -0.24789346E-02 -0.11582869E-02  0.29548748E-02
 -0.13011120E-02 -0.35495394E-02  0.43183056E-02
 -0.30113731E-02 -0.99728917E-03 -0.48149936E-02
  0.79017446E-03 -0.30376159E-03 -0.14431222E-02
  0.82705522E-03 -0.32717373E-02 -0.39628544E-02
  0.22244181E-03  0.88383475E-02  0.22243865E-02
 -0.81128342E-02  0.69131487E-02 -0.10723486E-02
  0.67959857E-02 -0.56319001E-02 -0.19358610E-02
  0.14006229E-03 -0.26001965E-02  0.12223399E-01
 -0.87571094E-02  0.60498672E-02  0.83610089E-03
 -0.58931734E-02 -0.18404741E-02 -0.27506268E-02
  0.38823940E-02  0.49018369E-02 -0.58869052E-02
  0.23256190E-02 -0.20424678E-02 -0.98715483E-02
  0.27767862E-02 -0.31321202E-02  0.26331120E-02
 -0.89981662E-02 -0.21120715E-02 -0.56026441E-02
 -0.83656408E-03  0.64049719E-02  0.49187700E-02
 -0.40078095E-02  0.20347621E-02  0.13451291E-02
 -0.60628085E-02 -0.42360648E-02  0.12017735E-01
 -0.28299402E-03 -0.36411160E-02 -0.20794298E-02
  0.55714287E-02 -0.24458221E-02  0.69118127E-03
  0.72209982E-02  0.42798822E-02 -0.11049574E-02
 -0.60101529E-02  0.74419014E-02 -0.34465896E-02
 -0.81322346E-02 -0.50391682E-02  0.64816131E-02
 -0.54716699E-03  0.27015136E-02 -0.13773654E-02
  0.39463502E-03 -0.63590946E-02 -0.10105152E-02
  0.44012674E-02  0.10032773E-01 -0.20778706E-02
 -0.46661864E-02 -0.86267619E-04 -0.10451080E-01
  0.94794461E-03  0.19334337E-02  0.72795448E-02
 -0.58790254E-02 -0.24955220E-02  0.54760537E-03
  0.39929482E-02 -0.10950053E-04  0.19096164E-02
 -0.74800945E-02  0.33492094E-03 -0.31687559E-02
 -0.70356181E-05  0.84804825E-04  0.21806779E-02
 -0.30736694E-02  0.73974117E-02 -0.22570301E-02
 -0.57001148E-02 -0.54133383E-03 -0.23245602E-02
 -0.16395116E-02  0.94062682E-02 -0.84071600E-02
 -0.67854094E-02  0.75308334E-02 -0.21073614E-02
  0.19384438E-02 -0.50712742E-03  0.10198966E-01
 -0.43345730E-02  0.52019724E-03  0.26295303E-02
  0.81874410E-03  0.11432849E-01  0.28256130E-02
  0.54784800E-02  0.70012919E-03  0.18057832E-01
 -0.54800076E-02 -0.45679138E-02  0.27365113E-02
 -0.28698449E-02  0.67008796E-02 -0.24017571E-02
 -0.74074313E-02  0.12270965E-01  0.55722637E-02
 -0.15240943E-02  0.74790711E-02  0.60726814E-03
  0.25611595E-02 -0.55822982E-03  0.36682001E-03
  0.49277651E-03  0.45745938E-02 -0.15569106E-02
  0.22855207E-02  0.26221240E-03 -0.30430524E-03
  0.10659283E-02 -0.37400893E-04 -0.12488279E-03
 -0.12086625E-03 -0.57199358E-02 -0.10585356E-02
 -0.65214867E-03  0.41871892E-03 -0.10852925E-03
 -0.56823072E-02 -0.12149344E-03  0.23774146E-03
  0.20868904E-02 -0.71059000E-03 -0.79897317E-03
 -0.11987353E-02  0.77466048E-03  0.49621084E-03
 -0.16854706E-02  0.59123593E-03  0.20694874E-02
 -0.22611706E-02 -0.45376133E-03  0.10334469E-02
 -0.10379220E-02  0.12382789E-02 -0.23645857E-02
 -0.36651374E-03 -0.70904941E-03  0.95965013E-03
 -0.20293721E-02  0.72708569E-05  0.12683879E-02
  0.21325375E-02  0.26062331E-02  0.72176652E-03
  0.36153514E-02 -0.49253434E-04  0.92539138E-03
 -0.36681505E-02 -0.11785217E-02  0.47163411E-03
 -0.36220709E-02  0.27794933E-02  0.17770037E-02
  0.56852259E-02 -0.16125110E-02  0.46801855E-02
  0.54326306E-03 -0.63271967E-03 -0.22400064E-02
  0.78197822E-02  0.22209422E-02 -0.57662227E-02
 -0.29117091E-02  0.19112486E-03  0.34379017E-03
  0.28605160E-02 -0.64656969E-03  0.20185860E-02
  0.28772485E-02 -0.19380295E-02  0.42653368E-03
 -0.24749676E-02 -0.10879457E-02  0.15238756E-02
 -0.16050095E-04 -0.47736844E-03 -0.22418551E-02
 -0.57592191E-03 -0.22703907E-02  0.18500896E-02
  0.41487412E-03 -0.30790538E-02  0.37401677E-02
 -0.17279854E-02  0.16758166E-02  0.30316971E-02
  0.21543113E-02  0.60800246E-02  0.37731011E-02
  0.45354975E-02 -0.22147827E-02 -0.15482242E-02
 -0.18154058E-03  0.27108556E-02 -0.74952870E-03
 -0.61248798E-03 -0.99885724E-03  0.35008671E-02
  0.45973343E-02  0.67354432E-03 -0.13795610E-02
 -0.12860790E-02 -0.44257813E-02 -0.14735763E-02
 -0.16030875E-02  0.37480494E-02  0.46575871E-03
 -0.19639850E-02 -0.44514638E-02  0.26001563E-03
  0.16882230E-02 -0.55296344E-02 -0.39655143E-02
 -0.15578197E-02  0.19205609E-02 -0.12417934E-02
 -0.11422094E-02  0.50844618E-03 -0.54396980E-02
 -0.35040446E-02 -0.15181005E-02 -0.17653347E-02
  0.50094385E-02 -0.24543538E-02  0.42659256E-02
 -0.22338631E-02  0.49673442E-02 -0.10421467E-02
 -0.20074261E-02 -0.12707611E-02 -0.54128541E-02
 -0.17495592E-02 -0.56401835E-02 -0.10561272E-02
  0.13443890E-03 -0.46938040E-02  0.23069396E-02
 -0.10579912E-02 -0.20581410E-02 -0.41256671E-04
  0.90197480E-02 -0.37680244E-02  0.34354978E-02
  0.17075388E-02  0.24428647E-02  0.11089645E-02
 -0.10472750E-02  0.28177887E-02  0.18877014E-02
  0.16670035E-02 -0.35815629E-03  0.40828407E-03
 -0.92590751E-03 -0.74254678E-03 -0.36507995E-02
  0.54314659E-02  0.32591865E-04  0.83005071E-03
 -0.33697938E-02 -0.40339475E-02 -0.23800807E-02
  0.25539365E-02  0.79241047E-03  0.21798498E-03
  0.18729299E-02 -0.88895618E-03 -0.14181822E-03
  0.13646332E-02 -0.42567028E-02 -0.30131188E-02
  0.15522339E-02  0.80960239E-03  0.64316335E-03
 -0.31376755E-02  0.14326909E-02  0.49904547E-02
 -0.34908562E-02 -0.17446724E-02  0.15398328E-02
 -0.11137598E-02  0.44448324E-02  0.36405749E-02
  0.86800523E-04 -0.30169288E-02 -0.17010275E-02
  0.16232127E-02 -0.38511137E-03  0.43914309E-02
 -0.23032743E-02 -0.29234701E-02 -0.46129933E-02
  0.25645722E-02 -0.33462594E-02  0.11765180E-02
  0.30098637E-02 -0.19914104E-03 -0.23387219E-02
 -0.17247298E-02  0.70339204E-03  0.19487666E-02
 -0.11465161E-02 -0.40541613E-02 -0.39223682E-02
  0.31610698E-02 -0.17369655E-03  0.25579575E-02
  0.21365194E-02  0.40915818E-02  0.22652892E-02
  0.18480059E-02  0.33181955E-02 -0.55008947E-03
  0.50697058E-03 -0.50650212E-02  0.88853899E-03
  0.49298335E-02 -0.46042113E-02 -0.39903335E-02
 -0.50117804E-02 -0.10467023E-02 -0.14998259E-02
  0.33660344E-03 -0.36237250E-02 -0.20160791E-02
  0.52586142E-03  0.42447270E-03 -0.12890702E-02
  0.74434130E-03 -0.30157284E-02  0.11990074E-03
  0.11994692E-02  0.40652028E-02 -0.50827053E-02
 -0.35325547E-02  0.37973827E-04  0.10918829E-02
 -0.28140753E-02  0.29863331E-02  0.31566116E-02
 -0.45026177E-02  0.20375390E-03 -0.22713590E-02
  0.31868211E-02  0.32470566E-02  0.72903423E-03
 -0.12056552E-02  0.38158943E-02  0.42707874E-02
 -0.35386565E-02 -0.38815735E-02  0.43738263E-03
  0.23903599E-03  0.33234307E-02 -0.65347627E-02
  0.69827707E-03  0.10314671E-03 -0.38599364E-02
  0.14039267E-02 -0.46494881E-02 -0.19489128E-02
 -0.43759421E-02  0.14258567E-02 -0.30692951E-02
  0.49926420E-02  0.99017589E-03 -0.91675775E-03
 -0.12505146E-02  0.24481844E-02  0.44617093E-02
  0.22131040E-02  0.14464486E-02 -0.79317283E-03
  0.42470983E-03 -0.22284578E-02 -0.19697221E-03
  0.18892157E-02 -0.67999043E-03 -0.22418491E-03
  0.58936639E-04  0.37439231E-03  0.69560319E-03
  0.76781605E-03  0.73982500E-03 -0.37607762E-03
  0.22596731E-02 -0.43839927E-02  0.53120628E-02
  0.23941695E-02 -0.15328663E-02 -0.99473185E-03
  0.12258156E-02  0.34971940E-02  0.16461581E-02
  0.12986344E-03 -0.28791369E-03 -0.47736138E-02
  0.38216551E-02 -0.19256249E-02  0.22627376E-02
  0.18847975E-02 -0.35330304E-02 -0.50669190E-02
  0.29253051E-02  0.32869256E-02  0.44575107E-03
 -0.41894017E-02 -0.74640597E-03  0.25672065E-03
  0.19682343E-02  0.29620607E-03  0.45528726E-02
  0.43778204E-03  0.39992808E-02  0.67872848E-03
  0.15754747E-02  0.11062192E-02 -0.47228437E-02
  0.39204294E-02 -0.23855952E-02 -0.52048790E-03
  0.40841160E-03  0.37541111E-03 -0.25282928E-02
  0.32334681E-02  0.12120780E-02  0.16303892E-02
  0.25685453E-02 -0.23129698E-02  0.30719433E-02
 -0.27601312E-02 -0.87771842E-03  0.35828222E-02
 -0.26074500E-02 -0.11340517E-02  0.15247404E-02
  0.38865612E-02  0.20713270E-02 -0.57142400E-03
  0.44261669E-02 -0.25472074E-02  0.12766816E-02
 -0.21672558E-02  0.23970208E-02 -0.13107656E-02
  0.20497289E-02 -0.19260003E-02 -0.15524607E-02
 -0.49130856E-03  0.40199416E-03 -0.25290039E-02
  0.79234802E-03 -0.29177703E-03  0.26005395E-02
 -0.29577121E-02  0.34971342E-02 -0.57633293E-02
 
           1
   2.00000000000000     
  0.46833589E+00  0.34447564E-03  0.00000000E+00  0.00000000E+00
  0.59715470E-02  0.96113294E+00  0.21863435E-01
  0.49645823E+00  0.55887907E+00  0.75778859E+00
  0.49009248E+00  0.95275176E+00  0.99019433E+00
  0.15005872E+00  0.31952630E+00  0.27205856E+00
  0.45379059E+00  0.98833801E+00  0.63570623E+00
  0.16335336E-02  0.48768246E+00  0.49856822E+00
  0.99038142E+00  0.48709148E+00  0.11350283E+00
  0.25433407E+00  0.23485566E+00  0.54029810E-02
  0.75816665E+00  0.71193454E+00  0.61162992E+00
  0.80168471E+00  0.22669424E+00  0.98513325E+00
  0.50885317E+00  0.72735574E+00  0.24298355E+00
  0.16618512E+00  0.43074453E+00  0.88900868E+00
  0.78668714E+00  0.24675448E+00  0.11786278E+00
  0.22092855E+00  0.15273586E-01  0.62533463E+00
  0.49200785E+00  0.23057934E-01  0.86134940E+00
  0.53586462E+00  0.48707154E+00  0.36289546E+00
  0.95598840E+00  0.97622272E+00  0.75136624E+00
  0.99606863E+00  0.47232392E+00  0.62715668E+00
  0.53329628E+00  0.95000484E-02  0.13630178E+00
  0.10694992E-02  0.46376091E+00  0.77043315E+00
  0.67820278E+00  0.95773570E+00  0.37534755E+00
  0.53575813E+00  0.34762495E-01  0.26289520E+00
  0.79014312E+00  0.76721954E+00  0.88612604E+00
  0.74043271E+00  0.23022224E+00  0.72636611E+00
  0.18786558E+00  0.25016890E+00  0.12916230E+00
  0.18912412E+00  0.26023191E+00  0.61952780E+00
  0.72211170E+00  0.76830794E+00  0.12762587E+00
  0.96529537E+00  0.49477085E+00  0.36132119E+00
  0.49906437E+00  0.49761440E+00  0.48554252E+00
  0.78418237E+00  0.98787342E-02  0.13003197E+00
  0.97570266E+00  0.19015952E+00  0.49316622E+00
  0.21196557E+00  0.72735015E+00  0.74297102E+00
  0.28236981E+00  0.51032044E+00  0.35622380E+00
  0.24233806E+00  0.22890768E+00  0.74533595E+00
  0.73342780E+00  0.99826357E+00  0.87964371E+00
  0.48782032E+00  0.23874834E+00  0.50062076E+00
  0.50152020E+00  0.48118913E+00  0.83064148E-02
  0.81528715E+00  0.25038786E+00  0.25054616E+00
  0.98693064E+00  0.70353611E+00  0.74966162E+00
  0.26663035E+00  0.75419573E+00  0.24980229E+00
  0.79614849E+00  0.73642380E+00  0.23810907E+00
  0.48316261E+00  0.22420556E+00  0.75469330E+00
  0.77732331E+00  0.74975984E+00  0.42799532E-02
  0.20049810E-01  0.74811296E+00  0.26555660E+00
  0.99535553E+00  0.44436578E+00  0.97170001E+00
  0.75248049E+00  0.70993732E+00  0.49608435E+00
  0.20176639E+00  0.74093947E+00  0.50189228E+00
  0.74047567E+00  0.31827541E+00  0.39320703E+00
  0.95310155E+00  0.95830804E+00  0.84657916E+00
  0.52906919E+00  0.44772822E+00  0.22763493E+00
  0.45863963E+00  0.99001274E+00  0.75143730E+00
  0.52594780E+00  0.23942714E+00  0.27156129E+00
  0.27823006E+00  0.98192194E+00  0.37565845E+00
  0.52004503E+00  0.72955227E+00  0.11090717E-01
  0.72534017E+00  0.18982062E+00  0.52743878E+00
  0.24451909E+00  0.77256431E+00  0.11747422E+00
  0.77050608E+00  0.50933557E+00  0.88345748E+00
  0.51351009E+00  0.48196392E+00  0.60863160E+00
  0.46767511E+00  0.23795562E+00  0.97103060E-02
  0.23207417E+00  0.27741722E+00  0.49212861E+00
  0.17760434E-01  0.99760906E+00  0.13640914E+00
  0.94548366E+00  0.86168415E+00  0.51528229E+00
  0.78682116E-03  0.72719617E+00  0.47481239E-03
  0.48163068E+00  0.74091499E+00  0.50117604E+00
  0.28416983E+00  0.25575613E+00  0.36831178E+00
  0.66468029E+00  0.73907537E+00  0.75870740E+00
  0.97144244E+00  0.99688653E+00  0.38718893E+00
  0.98471200E+00  0.24842773E+00  0.71968276E+00
  0.23658749E-01  0.57543588E-01  0.27147656E+00
  0.24237706E+00  0.51419334E+00  0.62185197E+00
  0.34976762E+00  0.21073366E+00  0.19226877E+00
  0.24386150E+00  0.73800401E+00  0.99444455E+00
  0.26713779E+00  0.46705658E+00  0.12268137E+00
  0.67538498E+00  0.14371814E-01  0.60393575E+00
  0.74267947E+00  0.23877588E+00  0.85727721E+00
  0.19125891E+00  0.74707350E+00  0.37661793E+00
  0.19476254E+00  0.69069058E+00  0.86516507E+00
  0.73653313E+00  0.72119106E+00  0.36702365E+00
  0.27537426E+00  0.99814187E+00  0.12997234E+00
  0.27872031E+00  0.75729340E+00  0.61724335E+00
  0.49803097E+00  0.47155885E+00  0.88531627E+00
  0.45373022E+00  0.97962940E+00  0.47820885E+00
  0.74649040E+00  0.41215824E+00  0.61063969E+00
  0.26038465E+00  0.18739603E+00  0.87315443E+00
  0.98216944E+00  0.21142422E-01  0.61851666E+00
  0.65008954E+00  0.47904373E+00  0.12488838E+00
  0.21428858E+00  0.93454188E+00  0.87163601E+00
  0.15459044E-01  0.48310593E+00  0.24820670E+00
  0.24433996E+00  0.99646415E+00  0.25425725E+00
  0.75291182E+00  0.49730489E+00  0.74150755E+00
  0.20961733E+00  0.96717738E+00  0.75367289E+00
  0.76847133E+00  0.49170294E+00  0.24723618E+00
  0.25268122E+00  0.97906617E+00  0.99930869E+00
  0.75274138E+00  0.45987066E+00  0.49749219E+00
  0.22846252E+00  0.42739654E-01  0.49531210E+00
  0.76321388E+00  0.50437354E+00  0.86709331E-02
  0.71658315E+00  0.96879820E+00  0.74316201E+00
  0.26408403E+00  0.51121356E+00  0.23306059E+00
  0.26856134E+00  0.48225637E+00  0.75369015E+00
  0.76678720E+00  0.63759234E-02  0.25834281E+00
  0.27417827E+00  0.50882199E+00  0.49553556E+00
  0.74053650E+00  0.77134299E-02  0.19402718E-02
  0.70911122E+00  0.96716412E+00  0.49500641E+00
  0.26652133E+00  0.48364611E+00  0.99409681E+00
  0.28384329E-01  0.24419187E+00  0.37219039E+00
  0.48566512E+00  0.74891796E+00  0.87608680E+00
  0.48132845E+00  0.23137308E+00  0.62118824E+00
  0.33785280E-01  0.75120110E+00  0.13200442E+00
  0.98932991E+00  0.22510814E+00  0.85414460E+00
  0.49510141E+00  0.74729282E+00  0.37195644E+00
  0.19526688E-01  0.73938719E+00  0.61991674E+00
  0.51890458E+00  0.27103225E+00  0.12333390E+00
  0.14673768E+00  0.38661550E+00  0.39609377E-01
  0.63414177E+00  0.84316944E+00  0.56053799E+00
  0.62418574E+00  0.96077138E-01  0.95084020E+00
  0.14801043E+00  0.59568211E+00  0.44440721E+00
  0.37213234E+00  0.37901317E+00  0.95260965E+00
  0.80519912E+00  0.87017981E+00  0.43375662E+00
  0.87004020E+00  0.10845502E+00  0.44271248E-01
  0.37458041E+00  0.60204175E+00  0.54563809E+00
  0.86761601E+00  0.88542175E-01  0.20281231E+00
  0.35071638E+00  0.60079953E+00  0.70286327E+00
  0.86741073E+00  0.90710648E+00  0.31199116E+00
  0.34913932E+00  0.39378632E+00  0.81770786E+00
  0.15626996E+00  0.58457648E+00  0.29232822E+00
  0.64131823E+00  0.10549771E+00  0.80263725E+00
  0.16018118E+00  0.40189464E+00  0.18511094E+00
  0.58659609E+00  0.88599047E+00  0.69890845E+00
  0.86832210E+00  0.61698342E+00  0.95978211E+00
  0.34709101E+00  0.13378945E+00  0.44540616E+00
  0.86673007E+00  0.34942828E+00  0.53630452E+00
  0.36053249E+00  0.87617963E+00  0.56550599E-01
  0.12492119E+00  0.12728208E+00  0.56186918E+00
  0.67151188E+00  0.60750602E+00  0.55422541E-01
  0.13392059E+00  0.86742446E+00  0.95730135E+00
  0.63135274E+00  0.35176750E+00  0.46679950E+00