Na88 Sn16 P8 Se96                       
   1.00000000000000     
    14.0793397336999995    0.0000000000000000    0.0000000000000000
     0.0000000000000000   14.0793397336999995    0.0000000000000000
     0.0000000000000000    0.0000000000000000   28.1586794673000007
   Na   Sn   P    Se
    88    16     8    96
Direct
  0.9882208488209684  0.0072501062795963  0.1003568752575604
  0.5201807372468379  0.4963205130812301  0.7562156245829674
  0.5272130481458003  0.4632324138828132  0.8717247488775318
  0.9814365395868981  0.0068024121937853  0.3654350945918515
  0.4415983704395638  0.9715855083115814  0.8627594723080183
  0.9734927419091797  0.5103098905898071  0.3503945118303296
  0.1926687977349596  0.5171477306810145  0.1082078013462206
  0.1843759396105874  0.2469692621627264  0.1281519646830275
  0.8232859294794195  0.7828898844237598  0.6774584623747900
  0.7447736499788573  0.2629645040203036  0.8791446143925137
  0.7511979258485361  0.7294968589533292  0.3888444419920397
  0.2392170380651293  0.2398485599189464  0.8666356320456233
  0.7754760842396766  0.2583287917517577  0.1306622819808143
  0.2882568688695596  0.7676241459922427  0.6118196960038021
  0.9966504653383098  0.0448433427280130  0.9823162313610849
  0.4616714571686619  0.5051251982212682  0.2343265909616664
  0.0195151285162137  0.9494945202628156  0.5352271204703614
  0.9984703798986372  0.4649975524839234  0.6133502105661613
  0.4982219942686792  0.9749161872613334  0.1210271094898121
  0.0303140145104485  0.5547733305078415  0.8657045998901338
  0.4813470138409487  0.9900569937594716  0.4038173064792938
  0.2498367884470771  0.2928121285367754  0.3942056213993585
  0.7583095858535875  0.7639737342176213  0.8599260198615511
  0.7566299265296514  0.4832196286542215  0.6157075825583636
  0.2639085132013714  0.7420653367669405  0.1232419425944215
  0.2313330039469153  0.2441268712509634  0.7469275299421377
  0.7222923758251505  0.7436759207680859  0.2531410510585499
  0.7380976249598353  0.2418224729270455  0.3774345139094649
  0.4854712096002923  0.7929657640107343  0.5436068238366768
  0.3503279242674476  0.3845866330958814  0.0642022716648512
  0.0027299130634774  0.7343966902440673  0.4242865813007748
  0.2394590124745956  0.7451176397634004  0.7409503456576880
  0.9864486533597658  0.7496394677041428  0.2666775217468813
  0.9557457933604473  0.1838098004803225  0.6058444498566704
  0.0108437662512413  0.8260116012097758  0.0140401039742941
  0.4798310134047704  0.1456263022426649  0.5132246572242511
  0.5120757096020444  0.7687688099222616  0.0196186223968795
  0.2371001678672859  0.2514526954828531  0.2813214974536067
  0.9727935523144473  0.7195437211271338  0.7582400987434730
  0.2611702962614082  0.7353026337923981  0.2621724801592514
  0.0107488882623725  0.9955060464159167  0.2443621192627204
  0.7139084681145520  0.2381119821265390  0.7572305462612142
  0.4450692254290710  0.0201774269980204  0.7354483499065941
  0.9580720194320381  0.4748923030699014  0.2424600211191771
  0.2698440117015350  0.2051940609907315  0.9928319559698529
  0.7520777491617987  0.7405431884687838  0.4967432742106226
  0.2557207900985561  0.7528897409764990  0.4931127367899652
  0.6197320684514841  0.2575976830630065  0.0073017252412853
  0.9892463328023124  0.0514398307814894  0.7853966987099484
  0.4434600306310379  0.2772912528968700  0.2647888231203520
  0.0381550631011310  0.5070823615019682  0.7555505249876977
  0.5313189474047696  0.0505396810026482  0.2552147583837822
  0.3014662919419124  0.3185224705566542  0.6153979397809194
  0.7477333310292505  0.7689469282854740  0.0199215188119372
  0.7653793090064519  0.2197634381117818  0.5049322979830014
  0.2717913328542949  0.7447406581514440  0.9923924651215097
  0.9774750520959836  0.2721131598435040  0.0156460495274662
  0.5147118587151317  0.4869246116796647  0.4960301877746098
  0.5308717645628656  0.4947341087039752  0.0020863182288290
  0.9923151538551370  0.2116887833926112  0.4845866062137559
  0.5152324240691616  0.0510949274869292  0.9801678836647938
  0.9908261530859617  0.5599046787525619  0.5140320812817305
  0.0010782086893403  0.5193563998842496  0.0114846886888494
  0.5309211218664777  0.0073630228702405  0.6071617898345122
  0.0204048714400720  0.2190915678806119  0.2403122855873118
  0.5200792623978507  0.7560601239523375  0.7392944722364730
  0.2333239882731277  0.5763095222329360  0.3627069146594227
  0.0087665104501373  0.2816793889099033  0.7345560222528115
  0.5225428875242325  0.7968711690049436  0.2435158913717252
  0.5267911833461497  0.2058766010804352  0.7773046107628253
  0.7165737136887688  0.2866123253674313  0.2557603347362020
  0.2109281788014140  0.7429747730110114  0.8642760848510730
  0.4613323471376199  0.4987407169656172  0.1438670928450192
  0.7619630481438235  0.0280218007150675  0.6219855760072872
  0.8371995909912331  0.0383228954280608  0.8579600986488299
  0.4648439210859357  0.5197439498945632  0.3922478917841887
  0.2833797501190616  0.4729036439827674  0.8651274760488917
  0.7413588388498075  0.9782729942006148  0.3753480640910800
  0.7581045296130725  0.0017814417707180  0.1149500113699143
  0.2036047753971563  0.5620609435605831  0.6131532362836216
  0.7847513451514410  0.4798984221796084  0.8789299407701199
  0.2338473252649190  0.0213790244093250  0.3810670621142511
  0.5007044537567522  0.5160079964299294  0.6230208003080124
  0.2295392767308512  0.9651899610414134  0.1438860337404007
  0.2103134777467920  0.0239764183246421  0.6152093111470824
  0.7918480138021544  0.5872686143234025  0.1351878337458482
  0.1845692406505447  0.0002636396080487  0.8731741616746300
  0.7117354391301624  0.4998199968996762  0.3822203722550455
  0.2732226998506632  0.0147784959394605  0.2651624497829614
  0.7734085181808160  0.4851576925252739  0.7508101694286471
  0.2133445291815132  0.9955649569420076  0.7434220870949177
  0.6858132043664694  0.5097905562412969  0.2488533543913924
  0.2535784602917652  0.9873037942900793  0.0117902575442530
  0.7386242958062682  0.4735847494565288  0.4968720272566744
  0.2417859736294331  0.0111157701522576  0.4959635184320180
  0.7655588112538125  0.5028503962553730  0.0007563510629512
  0.7398488730188901  0.9624650728755751  0.7519987342525725
  0.2239016796169692  0.4946414967617130  0.2429762292016220
  0.2929148381798361  0.4831660117407354  0.7430268757716308
  0.7717727083304964  0.0001172638847533  0.2465600974410917
  0.2592677251687956  0.5171499548024157  0.4802697733703632
  0.7510339565417078  0.0125504962438664  0.9959711394883091
  0.7491040688477878  0.9736242439062853  0.4929828451942297
  0.2797849407431659  0.4886342046922647  0.9877414847754149
  0.0019424557378537  0.2712580833659017  0.3681623032731542
  0.5151622647538585  0.7291335715382506  0.8719562583242177
  0.5159452111866619  0.2575671812853019  0.6325213120590039
  0.9619319015704517  0.7494189356392743  0.1359387444895040
  0.9946968001934055  0.2651437726588677  0.8679294979732497
  0.4995665851211893  0.7641964847302478  0.3691861170303429
  0.9905375624021501  0.7550117049021386  0.6170924147775094
  0.5046480484681543  0.2475390522984645  0.1240629122323277
  0.1762212323905959  0.3615244570459765  0.0305996606901073
  0.6647372309383435  0.8830827547613249  0.5594644620600980
  0.6610071040350370  0.1192497074761025  0.9355804458369906
  0.1253377802321951  0.6110891027876982  0.4425820383869752
  0.3849506105243980  0.3821395022604071  0.9439996511488932
  0.8593279379745981  0.8664613133998543  0.4405707248084418
  0.8462882835652817  0.1187971789004442  0.0531553529572683
  0.3527185840384110  0.5955669205240305  0.5440023931848991
  0.8841486720874905  0.1011727690834446  0.1958657627361713
  0.3794051347215765  0.6089376343047311  0.6961506576069245
  0.8714872468781313  0.8965957707128133  0.3051975442512467
  0.3834606956586539  0.3382391516748337  0.7910948095498009
  0.1058756533348557  0.6125562536145528  0.2808309802063630
  0.6358917283174466  0.0656481347819622  0.8004288171621173
  0.1298958925973818  0.3782529173620176  0.1922168272743931
  0.6818483159920442  0.8875035733265163  0.6719727928732520
  0.8745408323287611  0.6228688430487389  0.9539563728552501
  0.3266329794167223  0.1262671783950685  0.4488525017625757
  0.8474053102147903  0.3695864200507789  0.5494095089760413
  0.3470168903681601  0.8784955423598947  0.0619493648201758
  0.1235262863943847  0.1120741300968983  0.5501324154636075
  0.6495893995825540  0.6013184745376353  0.0519981907026675
  0.1449037831515987  0.9114213956950356  0.9532559686083830
  0.6432460531501112  0.3760947714683012  0.4433617862412341
  0.5917603141844865  0.4111648678527445  0.2991025816467298
  0.1299315840410734  0.8718145576004157  0.7975739587341119
  0.1181356287221895  0.1195934276641364  0.7054534732770891
  0.6060794409684582  0.6389107752116657  0.1937387247663404
  0.8314987670645136  0.3640969887689394  0.6790839063291846
  0.3559866750400418  0.8907440615031815  0.2061944995330698
  0.3846769461033767  0.0938594717527788  0.3235964853044251
  0.8772000427289528  0.5902440906844477  0.8095722553247806
  0.1839020712117808  0.0912153400775486  0.0733354043787667
  0.6639788513336161  0.5996334008671607  0.5508431671734892
  0.6624133413933957  0.4002558759418386  0.9530728930488782
  0.1160981059362966  0.8950188317237894  0.4610584710578138
  0.3428688532975457  0.0541319124705502  0.9380956958779739
  0.8387508286014735  0.5872994634112459  0.4453678402230631
  0.8601922069045013  0.4266534387065865  0.0629755403137472
  0.3560897228309872  0.9156674615845130  0.5443645825814453
  0.1757641161504450  0.1234098660796792  0.2069990805397549
  0.6827318309118117  0.5936516271485361  0.6907039823717455
  0.1668960976000928  0.9246355456000735  0.3124779893571624
  0.6523717647608347  0.3880496100128812  0.8043663484986300
  0.7974313569350077  0.5982546432287192  0.3128675767982067
  0.3172221323716887  0.1014167199117625  0.8070144880235730
  0.8048950920794947  0.4206108691679632  0.1918319452667793
  0.3292981109841409  0.9085196317268783  0.6888261604066155
  0.8625323660472152  0.9159185081390275  0.9514133682392777
  0.3617564875808687  0.4001656614117450  0.4516414638590014
  0.8834747859207165  0.0699164296576705  0.5350437528423337
  0.3477927828753902  0.5938606240979997  0.0513945577841060
  0.1423205458951538  0.4198458791368393  0.5349657326660895
  0.6064790955412672  0.9351533346991667  0.0399330672626269
  0.1739101251958047  0.6010025204113503  0.9441949006860354
  0.6519588599285060  0.0868868737352041  0.4517062603337694
  0.3175281910092403  0.4159598585288072  0.3099579873896576
  0.8571177413668659  0.8671398813331274  0.8006047964200559
  0.8513212116814047  0.1025113138125662  0.7140135990881542
  0.3041913690114285  0.5986377836895130  0.1859422705485255
  0.1751515510271016  0.4119005065220993  0.6915619668825491
  0.6712926395251401  0.8991391584488935  0.1864096624307332
  0.6758472339986398  0.1028094450279723  0.3018329218147215
  0.1775474469304083  0.6080114393469785  0.7941373243767373
  0.1162101329737645  0.1742912652412631  0.3379051347055260
  0.5925647914674610  0.6521395317327368  0.8172746636001422
  0.5590138455922603  0.3668584437474872  0.6864705821272573
  0.0743840217713863  0.8437770639594296  0.1720920603061379
  0.4073962539914096  0.1562041159657339  0.6679877780573954
  0.9040636995710345  0.6613878880017404  0.1910594679028617
  0.9138171251044951  0.3415989303125030  0.3195768421510446
  0.3864702145898110  0.7889523265293806  0.8305214749580878
  0.0457652876394505  0.1413784593990616  0.8998762493904205
  0.5613803659912200  0.6851610804339804  0.4351575356586831
  0.0830088383589981  0.6596758872761281  0.6854900673714657
  0.5859206260667138  0.3673588975367447  0.0912986531806486
  0.1168916918401969  0.7464907643862790  0.5656639505907231
  0.4482894368629543  0.1488451893489107  0.0620465162904535
  0.9261442217336977  0.3580525964679949  0.9210424105256414
  0.3651559221919308  0.8349529411842510  0.3818965008904951
  0.9609885967235985  0.8886188577768440  0.6292054566987854
  0.3912145469372893  0.3042597089030367  0.1721037958980174
  0.8927166315447930  0.2046076388038827  0.8145548561914725
  0.4317741753776558  0.6441899463616771  0.3250327594125396
  0.0949701791764034  0.3713377859685590  0.8256399564314902
  0.6068255593057426  0.8551338931845929  0.3447995087694217
  0.8722062981354661  0.6788471686281752  0.5890531639360788
  0.6018039607876438  0.1673019950344506  0.1748811165612279
  0.4665531250745842  0.3455458764578359  0.5728926724105879
  0.8658429755345131  0.8331844146287357  0.0973711208655954
  0.9050835366255593  0.1606579957255640  0.4003623295978211
  0.4631573416483760  0.6401015154136804  0.9319920560602324
  0.0510346577781295  0.3563658015892662  0.4263382912568157
  0.6049672802327232  0.8532492228446952  0.9059173493920492
  0.6408865036195825  0.1841145424790079  0.5922474434102099
  0.0571756394951084  0.6701445427421723  0.0849839171779121
 
 -0.75359601E-03  0.55127681E-02 -0.25410685E-02
  0.21629449E-02  0.40841332E-02  0.59224136E-02
 -0.40193774E-02  0.46144748E-02  0.51994981E-03
  0.10280323E-01 -0.53887478E-02  0.27959154E-02
 -0.32288261E-02 -0.15629998E-01 -0.31224192E-02
 -0.37535703E-02 -0.72794653E-02  0.14884936E-01
 -0.13512825E-01 -0.94960580E-04 -0.13966839E-03
 -0.41519445E-02  0.60873850E-02  0.86078149E-02
  0.91303028E-02 -0.17875939E-02  0.16483016E-02
  0.48999249E-02  0.43210754E-02 -0.33293533E-02
 -0.40085710E-02 -0.97096701E-02 -0.12538445E-01
 -0.64501449E-02  0.93769613E-02 -0.42602502E-03
 -0.65236425E-02  0.73800663E-02 -0.29739618E-02
  0.20868243E-02 -0.23550473E-03  0.23721748E-02
 -0.24461087E-02 -0.35825892E-02  0.67633659E-03
 -0.51440968E-02  0.60718226E-02 -0.59811547E-02
 -0.45743931E-02 -0.93144394E-02 -0.89183639E-02
 -0.57371597E-02 -0.49972916E-02 -0.79970177E-02
 -0.15016519E-01  0.22914798E-02  0.72483492E-02
  0.34518229E-02  0.14321171E-02  0.13336475E-01
 -0.47142038E-02  0.69356587E-02 -0.52255602E-02
  0.27782638E-02  0.21757543E-02  0.12732692E-02
  0.69151834E-02  0.24193280E-02 -0.43856732E-02
  0.73055631E-02 -0.84828104E-03  0.11236645E-01
 -0.17746017E-01 -0.57742426E-02  0.30111837E-02
  0.15636044E-01  0.57508962E-02 -0.34470492E-02
  0.13307499E-02  0.18625784E-02  0.66012811E-03
  0.50715642E-02  0.31600487E-02 -0.15949948E-01
  0.16902685E-02 -0.19718046E-02 -0.57473096E-02
  0.92121331E-02  0.35819524E-02 -0.18197611E-02
  0.18820835E-01 -0.38889227E-02  0.42077956E-02
 -0.13295672E-02 -0.12319010E-02  0.44273538E-02
  0.50434450E-02  0.36379329E-02 -0.54716941E-02
 -0.19012545E-02 -0.41822077E-02  0.82464822E-02
 -0.14862409E-01 -0.51116151E-02 -0.53987876E-02
  0.27050047E-02  0.63397683E-02 -0.16556744E-02
  0.44520977E-02 -0.79471559E-02  0.44101933E-02
  0.60888979E-02  0.24272192E-02  0.14336396E-01
 -0.24226171E-02  0.93186182E-03 -0.21014376E-02
  0.44981148E-02  0.72094443E-02 -0.76279484E-02
 -0.44195122E-02 -0.39773073E-02 -0.67966491E-03
 -0.21578414E-02  0.68821985E-02  0.91131283E-03
 -0.45512823E-02 -0.46366979E-02 -0.22224146E-02
 -0.35508963E-02 -0.67779854E-02  0.46036588E-02
 -0.28340630E-02  0.11638153E-02 -0.56762091E-02
  0.11716077E-01 -0.13939424E-02 -0.33602305E-02
 -0.37059316E-02 -0.78225305E-02  0.90291655E-02
  0.57247539E-02 -0.72018754E-02 -0.39968154E-02
  0.68854691E-02  0.11686354E-01 -0.41902522E-02
  0.47609687E-02 -0.56752740E-02  0.11469614E-02
 -0.10240590E-01 -0.15288322E-02  0.67040710E-02
 -0.29197007E-02 -0.86228021E-02  0.89056950E-02
 -0.12276108E-02  0.29034041E-03 -0.17550177E-02
 -0.27550276E-02 -0.82934720E-02  0.69183647E-02
 -0.42358729E-02 -0.97070902E-02  0.30083004E-03
  0.15453534E-01 -0.68492596E-02  0.77585027E-02
  0.11897119E-01  0.57326316E-03 -0.38520659E-02
 -0.15423181E-01  0.83373350E-02  0.65108570E-02
 -0.25876502E-02 -0.60909278E-02  0.53482207E-03
  0.61962470E-02 -0.57826819E-04 -0.61222811E-02
 -0.30061138E-02 -0.66561065E-02 -0.14244389E-02
 -0.69152413E-02  0.84007667E-02 -0.80153346E-02
  0.19257400E-02 -0.42385470E-02 -0.58202618E-02
  0.22712089E-02  0.10313603E-01 -0.21480608E-01
 -0.77353563E-02 -0.38504442E-02  0.66110049E-02
  0.14270993E-01  0.31997745E-02 -0.60580493E-02
 -0.11041315E-02 -0.24670105E-02  0.24768795E-02
  0.21149802E-02  0.82522215E-02  0.90506453E-04
  0.14001505E-03  0.10021387E-02 -0.21922999E-02
  0.59908762E-02 -0.78196426E-02 -0.88906729E-02
 -0.18484415E-02 -0.47217550E-03 -0.18721236E-02
 -0.39921435E-02  0.93070052E-02  0.14687262E-01
 -0.42801987E-03 -0.31472901E-02  0.72710838E-02
 -0.34297414E-02 -0.12017901E-02  0.16145960E-01
 -0.11217852E-01  0.40729371E-02 -0.95784624E-02
  0.13196596E-01 -0.51906708E-03  0.51527086E-02
  0.29619714E-02 -0.26695323E-02 -0.11268593E-01
 -0.12628920E-01  0.59764036E-04 -0.38119695E-02
 -0.26044380E-02 -0.25482019E-02  0.28620373E-02
  0.95532216E-02  0.28963805E-02  0.17800900E-02
 -0.35142024E-02 -0.59858495E-02 -0.25925911E-02
 -0.25555270E-02  0.37949759E-02  0.29602448E-02
  0.72609795E-02  0.10703126E-01  0.62888432E-02
 -0.20869714E-02  0.51564869E-02  0.38165559E-02
  0.10361087E-01 -0.84011287E-02 -0.27986667E-02
  0.66102060E-02 -0.58581755E-02  0.53497264E-02
  0.53735274E-02  0.48094066E-04  0.12898529E-01
 -0.70367388E-02 -0.20542245E-02  0.14267015E-01
 -0.28069437E-02  0.26495716E-04 -0.13032863E-02
  0.28757864E-02 -0.67259280E-03 -0.34718629E-02
  0.54582094E-05 -0.43925242E-03  0.15350858E-02
 -0.20821910E-02 -0.52157577E-02 -0.50114611E-03
 -0.50921284E-04  0.22050903E-02 -0.45853684E-03
  0.46912669E-02  0.88858393E-03  0.58140454E-02
  0.21061194E-02 -0.47006741E-02  0.47930456E-03
 -0.16168981E-03  0.80732605E-03 -0.86108611E-03
 -0.11034816E-02 -0.19045158E-02  0.37165627E-02
  0.25621930E-02 -0.16914275E-02 -0.57033294E-02
  0.25327532E-02  0.30936135E-02  0.44797262E-03
  0.65732761E-03  0.16536902E-02  0.11821438E-02
 -0.36553202E-02 -0.33427397E-02 -0.16165195E-02
 -0.23174429E-02 -0.83000623E-03  0.12874596E-02
  0.32313475E-02 -0.64129153E-04  0.54110245E-03
 -0.44072473E-03 -0.35762779E-03  0.98049485E-03
  0.65381906E-02 -0.86952682E-03  0.67550036E-02
  0.13544233E-01  0.66593000E-02  0.55220780E-02
  0.25615269E-02 -0.35434319E-02  0.66853024E-02
 -0.93907595E-02 -0.33938936E-02 -0.81394703E-02
 -0.23032433E-03  0.54479708E-02  0.75360224E-03
 -0.16497134E-02  0.11666125E-02  0.55136100E-03
  0.75789392E-02 -0.49752427E-02  0.17123575E-02
 -0.23305400E-02 -0.40042006E-02  0.17679974E-02
 -0.42427908E-02  0.20739550E-02  0.45651048E-02
 -0.23598408E-02  0.24366772E-02 -0.28609720E-02
 -0.12555321E-03  0.49131281E-03  0.17129982E-02
  0.36526146E-02  0.42028437E-02  0.16130088E-02
  0.18627555E-02  0.13510372E-02 -0.34944329E-02
 -0.20562135E-02  0.38200479E-02 -0.39513232E-02
 -0.11854778E-02 -0.31484215E-02 -0.75002419E-06
 -0.22518347E-02  0.23639127E-02  0.18264083E-02
  0.20283040E-03  0.52209933E-02 -0.68351974E-03
  0.12472432E-02 -0.19245971E-02 -0.19579355E-02
  0.19449804E-02  0.25313616E-02 -0.12426035E-02
 -0.39706959E-02 -0.40239182E-02  0.39862992E-02
  0.48975056E-02 -0.23578663E-02 -0.35487979E-03
 -0.29452301E-02  0.44199498E-02  0.67337057E-02
  0.91137063E-03 -0.42657277E-02 -0.10178104E-02
  0.16327626E-02 -0.10355809E-01 -0.37797091E-02
 -0.14662550E-02 -0.63967003E-02 -0.19989632E-02
 -0.33265629E-02 -0.88163286E-03  0.75186821E-03
 -0.13329848E-02 -0.71800983E-04 -0.31017085E-02
 -0.19394898E-02  0.64045269E-03  0.51606587E-02
  0.31970533E-02 -0.45184606E-02 -0.38959934E-02
  0.45085114E-03  0.59667318E-02  0.47711095E-02
  0.25994973E-02 -0.56958953E-02 -0.14895248E-02
 -0.37626614E-02 -0.17027373E-02 -0.13891353E-02
  0.19142529E-02  0.19082490E-02  0.16820132E-02
 -0.54425737E-02  0.70954626E-02 -0.32683238E-02
  0.46511373E-03 -0.45501630E-02  0.20490152E-02
 -0.24147932E-02  0.35143885E-02  0.35089684E-02
  0.76698493E-02  0.35018821E-04 -0.17404671E-02
 -0.29493913E-04 -0.49805516E-02 -0.68490182E-02
  0.56336943E-02  0.57970630E-02 -0.63000673E-03
  0.83243444E-03  0.68680237E-03 -0.26656854E-02
  0.61810029E-02  0.29220977E-02  0.11002938E-02
 -0.49287286E-03  0.25697434E-02 -0.29630139E-02
  0.87754248E-03  0.72095567E-03 -0.28245705E-02
 -0.61480625E-02  0.69282084E-03  0.18314786E-02
 -0.38640286E-02  0.87804844E-02  0.42711505E-02
 -0.77335917E-03 -0.23836539E-03 -0.36407094E-02
  0.43821930E-02  0.13930250E-02  0.41087855E-03
 -0.17054248E-02 -0.74877505E-04 -0.19414201E-02
 -0.24819380E-02 -0.28892239E-02 -0.55141808E-03
 -0.58534026E-02  0.42694426E-03 -0.85076310E-03
  0.57870490E-02 -0.28878795E-02 -0.31742526E-02
 -0.57576886E-02 -0.12744405E-02  0.27695302E-02
 -0.14274252E-02  0.37287637E-02 -0.90441586E-02
 -0.49938048E-02  0.30001884E-02 -0.34571317E-02
  0.64765747E-03  0.25310204E-03  0.58883014E-03
 -0.57664791E-02  0.64966536E-02 -0.31891054E-02
  0.49515605E-02  0.13735308E-02  0.45909973E-04
  0.87728619E-03  0.21134417E-02 -0.14960745E-02
 -0.60003770E-02  0.63853986E-02 -0.41980075E-02
  0.30494502E-02 -0.73169942E-02 -0.34327903E-02
  0.10962785E-03  0.17708245E-02  0.19566694E-02
  0.50286748E-02  0.92370884E-03 -0.33549101E-02
  0.66295281E-03 -0.58052637E-03 -0.31473744E-02
 -0.11212440E-02  0.11414077E-02  0.44541994E-02
  0.57937743E-03  0.13578852E-02  0.50800268E-02
  0.30368144E-02  0.16417631E-02  0.51911436E-03
  0.55190898E-02 -0.24502790E-02 -0.23100163E-02
 -0.14106961E-03  0.18433769E-02 -0.30264185E-03
  0.53028847E-03  0.23540215E-02  0.11637567E-02
 -0.54853620E-03 -0.37931715E-02 -0.13820661E-02
 -0.21245242E-02  0.25941428E-02  0.39320005E-02
 -0.51904939E-02  0.41221437E-03  0.26115185E-03
 -0.69598670E-03 -0.36814518E-02  0.26540267E-02
  0.21595977E-02  0.22055481E-02  0.10875757E-02
 -0.63982129E-03  0.52810334E-02  0.38860964E-04
  0.12286367E-02 -0.14234944E-02  0.66141766E-02
 -0.20098372E-02  0.97597960E-03  0.22183970E-02
 -0.14529321E-02  0.27874876E-02  0.27251409E-02
 -0.18348228E-03  0.61833483E-03 -0.60203427E-02
  0.83554205E-04  0.21689025E-02  0.23577855E-03
  0.12965820E-02 -0.60197574E-02 -0.44158012E-02
 -0.14493277E-03  0.37213123E-02  0.25501320E-02
  0.80578389E-02  0.11676385E-02 -0.19232670E-02
 -0.55178826E-02 -0.50169556E-02 -0.11889844E-02
 -0.69001347E-02  0.45711494E-02  0.41376295E-02
  0.80566498E-03 -0.20866287E-02 -0.27871922E-02
  0.37734106E-02 -0.48999474E-02  0.42205063E-02
 -0.19543517E-02  0.25410647E-02 -0.16611471E-02
  0.97448796E-04  0.20672583E-02  0.52150958E-02
  0.27360556E-02 -0.13260322E-02 -0.42972860E-02
  0.25915003E-02  0.26010021E-02 -0.36771277E-02
 -0.29356179E-02 -0.11643352E-02 -0.54621111E-03
  0.10505523E-02 -0.76613140E-02 -0.17524465E-02
 -0.21519839E-02 -0.25723694E-02  0.19143965E-02
 -0.16319879E-02  0.52020157E-02 -0.64217078E-03
 -0.21268247E-02 -0.16014452E-02 -0.39862652E-02
 -0.93090830E-03  0.50620799E-02  0.90682871E-02
 -0.33065880E-02  0.14712174E-02 -0.58743299E-03
 -0.25917010E-02  0.77382752E-03  0.10738149E-02
 -0.73558515E-03 -0.11764328E-02  0.20617614E-02
  0.48060483E-02  0.85486481E-03 -0.21141765E-02
  0.44339668E-02 -0.38085800E-02 -0.22836997E-02
 -0.37290629E-02 -0.48686174E-02 -0.55431010E-03
 -0.16099151E-02 -0.33601941E-02  0.22381976E-02
 
           1
   2.00000000000000     
  0.44558744E+00  0.64187356E-04  0.00000000E+00  0.00000000E+00
  0.98811380E+00  0.80332066E-02  0.10017639E+00
  0.52048799E+00  0.49690067E+00  0.75663627E+00
  0.52664209E+00  0.46388791E+00  0.87176168E+00
  0.98289688E+00  0.60369292E-02  0.36563368E+00
  0.44113971E+00  0.96936523E+00  0.86253770E+00
  0.97295954E+00  0.50927583E+00  0.35145173E+00
  0.19074927E+00  0.51713424E+00  0.10819788E+00
  0.18378615E+00  0.24783399E+00  0.12876334E+00
  0.82458291E+00  0.78263595E+00  0.67757553E+00
  0.74546969E+00  0.26357832E+00  0.87890814E+00
  0.75062850E+00  0.72811758E+00  0.38795389E+00
  0.23830078E+00  0.24118058E+00  0.86660537E+00
  0.77454939E+00  0.25937715E+00  0.13045105E+00
  0.28855331E+00  0.76759069E+00  0.61198818E+00
  0.99630299E+00  0.44334428E-01  0.98236427E+00
  0.46094073E+00  0.50598771E+00  0.23390177E+00
  0.18865326E-01  0.94817138E+00  0.53459368E+00
  0.99765540E+00  0.46428768E+00  0.61278221E+00
  0.49608887E+00  0.97524170E+00  0.12154193E+00
  0.30804353E-01  0.55497677E+00  0.86665184E+00
  0.48067735E+00  0.99104222E+00  0.40344616E+00
  0.25023145E+00  0.29312120E+00  0.39429606E+00
  0.75929190E+00  0.76431740E+00  0.85961452E+00
  0.75766770E+00  0.48309913E+00  0.61650568E+00
  0.26138765E+00  0.74124509E+00  0.12345582E+00
  0.23355414E+00  0.24494380E+00  0.74668270E+00
  0.72248141E+00  0.74394050E+00  0.25318794E+00
  0.73881805E+00  0.24227136E+00  0.37630165E+00
  0.48571132E+00  0.79268566E+00  0.54319862E+00
  0.35163653E+00  0.38509546E+00  0.64073021E-01
  0.54034526E-02  0.73384426E+00  0.42458544E+00
  0.23927014E+00  0.74494265E+00  0.74126480E+00
  0.98716509E+00  0.75015624E+00  0.26628889E+00
  0.95547572E+00  0.18321571E+00  0.60643016E+00
  0.87325296E-02  0.82528549E+00  0.13656649E-01
  0.48021527E+00  0.14652688E+00  0.51310706E+00
  0.51270814E+00  0.76763990E+00  0.19931861E-01
  0.23796511E+00  0.25179749E+00  0.28233976E+00
  0.97244941E+00  0.71967609E+00  0.75809084E+00
  0.26180926E+00  0.73632675E+00  0.26163070E+00
  0.10121087E-01  0.99494106E+00  0.24431385E+00
  0.71360194E+00  0.23908961E+00  0.75729527E+00
  0.44442271E+00  0.19518774E-01  0.73529050E+00
  0.95756761E+00  0.47392948E+00  0.24278700E+00
  0.26944143E+00  0.20535938E+00  0.99242880E+00
  0.75374204E+00  0.74034518E+00  0.49650461E+00
  0.25519435E+00  0.75177853E+00  0.49375404E+00
  0.62054528E+00  0.25657464E+00  0.70178472E-02
  0.99022443E+00  0.53099902E-01  0.78509908E+00
  0.44413634E+00  0.27648507E+00  0.26487029E+00
  0.36700366E-01  0.50686519E+00  0.75602669E+00
  0.53090420E+00  0.49314794E-01  0.25584729E+00
  0.30129191E+00  0.31856371E+00  0.61527329E+00
  0.74734197E+00  0.76776882E+00  0.20412903E-01
  0.76477759E+00  0.21838453E+00  0.50495366E+00
  0.27398654E+00  0.74376771E+00  0.99294352E+00
  0.97916506E+00  0.27219459E+00  0.15372452E-01
  0.51252096E+00  0.48810895E+00  0.49649263E+00
  0.53050418E+00  0.49386888E+00  0.21243045E-02
  0.99319534E+00  0.21168057E+00  0.48415176E+00
  0.51480540E+00  0.50149413E-01  0.98006671E+00
  0.98984383E+00  0.56109803E+00  0.51346278E+00
  0.13517641E-02  0.51875431E+00  0.11071298E-01
  0.53124375E+00  0.88280920E-02  0.60563611E+00
  0.19306048E-01  0.21854460E+00  0.24078184E+00
  0.52210649E+00  0.75651466E+00  0.73886419E+00
  0.23316714E+00  0.57595908E+00  0.36288284E+00
  0.90669479E-02  0.28285163E+00  0.73456245E+00
  0.52256278E+00  0.79701352E+00  0.24336018E+00
  0.52764220E+00  0.20476580E+00  0.77667314E+00
  0.71631114E+00  0.28654525E+00  0.25562737E+00
  0.21036109E+00  0.74429685E+00  0.86531926E+00
  0.46127155E+00  0.49829364E+00  0.14438353E+00
  0.76147585E+00  0.27851084E-01  0.62313236E+00
  0.83560607E+00  0.38901465E-01  0.85727978E+00
  0.46671853E+00  0.51967022E+00  0.39261387E+00
  0.28380050E+00  0.47252443E+00  0.86432711E+00
  0.73956487E+00  0.97828148E+00  0.37507731E+00
  0.75773456E+00  0.14194643E-02  0.11515329E+00
  0.20496183E+00  0.56247238E+00  0.61327967E+00
  0.78425215E+00  0.47904812E+00  0.87874580E+00
  0.23348431E+00  0.21918109E-01  0.38127732E+00
  0.50173589E+00  0.51752840E+00  0.62346747E+00
  0.22924282E+00  0.96592245E+00  0.14415711E+00
  0.21178529E+00  0.22783020E-01  0.61501053E+00
  0.79278701E+00  0.58643645E+00  0.13556780E+00
  0.18533256E+00  0.27047147E-03  0.87409029E+00
  0.71073586E+00  0.49952819E+00  0.38323370E+00
  0.27282397E+00  0.14782260E-01  0.26506988E+00
  0.77381703E+00  0.48506215E+00  0.75056358E+00
  0.21334530E+00  0.99550256E+00  0.74353112E+00
  0.68551742E+00  0.50904965E+00  0.24881776E+00
  0.25357123E+00  0.98761703E+00  0.11757689E-01
  0.73929070E+00  0.47371097E+00  0.49728498E+00
  0.24208515E+00  0.10448029E-01  0.49599756E+00
  0.76553584E+00  0.50296508E+00  0.69519151E-03
  0.73969212E+00  0.96219453E+00  0.75226271E+00
  0.22426564E+00  0.49440123E+00  0.24257114E+00
  0.29327462E+00  0.48360547E+00  0.74305869E+00
  0.77186608E+00  0.35217407E-03  0.24664406E+00
  0.25874848E+00  0.51667511E+00  0.48015496E+00
  0.75070476E+00  0.12432592E-01  0.99606258E+00
  0.74956309E+00  0.97361513E+00  0.49302128E+00
  0.27972233E+00  0.48858340E+00  0.98781113E+00
  0.28712195E-02  0.27113457E+00  0.36864208E+00
  0.51708625E+00  0.73007954E+00  0.87234847E+00
  0.51630908E+00  0.25706383E+00  0.63299614E+00
  0.96059792E+00  0.74893683E+00  0.13536063E+00
  0.99466408E+00  0.26591767E+00  0.86798302E+00
  0.49933224E+00  0.76436220E+00  0.36922528E+00
  0.99161417E+00  0.75430496E+00  0.61721404E+00
  0.50431699E+00  0.24697025E+00  0.12418849E+00
  0.17561853E+00  0.36181907E+00  0.30923902E-01
  0.66440201E+00  0.88342889E+00  0.55926126E+00
  0.66098927E+00  0.11931950E+00  0.93570211E+00
  0.12585664E+00  0.61168613E+00  0.44269660E+00
  0.38521522E+00  0.38233142E+00  0.94375146E+00
  0.85903585E+00  0.86700396E+00  0.44029008E+00
  0.84611988E+00  0.11834994E+00  0.53155300E-01
  0.35239871E+00  0.59590272E+00  0.54413212E+00
  0.88417748E+00  0.10191442E+00  0.19581722E+00
  0.37958231E+00  0.60866424E+00  0.69601159E+00
  0.87176354E+00  0.89695536E+00  0.30510929E+00
  0.38289665E+00  0.33766755E+00  0.79137794E+00
  0.10657135E+00  0.61222131E+00  0.28080577E+00
  0.63547335E+00  0.66275998E-01  0.80090709E+00
  0.13002535E+00  0.37764696E+00  0.19214454E+00
  0.68208025E+00  0.88603251E+00  0.67170434E+00
  0.87433255E+00  0.62196018E+00  0.95381439E+00
  0.32616043E+00  0.12614194E+00  0.44890590E+00
  0.84721596E+00  0.36957622E+00  0.54918921E+00
  0.34674138E+00  0.87858652E+00  0.62315906E-01
  0.12398043E+00  0.11143227E+00  0.54985570E+00
  0.64965344E+00  0.60216606E+00  0.52337064E-01
  0.14527305E+00  0.91061228E+00  0.95315017E+00
  0.64271156E+00  0.37585289E+00  0.44326312E+00