Na88 Ge16 P8 Se96                       
   1.00000000000000     
    13.9614333504000001    0.0000000000000000    0.0000000000000000
     0.0000000000000000   13.9614333504000001    0.0000000000000000
     0.0000000000000000    0.0000000000000000   27.9228667008000002
   Na   Ge   P    Se
    88    16     8    96
Direct
  0.4674617306414013  0.7069484171867291  0.2355667572328019
  0.3398797836457067  0.9534697471185783  0.3806946850257827
  0.7100624132913178  0.5043677791517793  0.3735595051812086
  0.2491707541371803  0.5120487064927172  0.3732839211745326
  0.9494700312738951  0.1982225070859683  0.7441709208494879
  0.2271257815725454  0.2388435304097718  0.2856446844808271
  0.7702375960206161  0.6686397843793374  0.8945325748292895
  0.9193897742478817  0.6158588406296200  0.2106231815806607
  0.4787758356826091  0.2044060258272387  0.7536001003888602
  0.6854505905823772  0.6955633016109863  0.7832568516236486
  0.1682227534811518  0.1025940317727791  0.3778332526488320
  0.4934572917512941  0.2482278410155674  0.0107319687305850
  0.2496462652928034  0.2339858540224930  0.1748980552369219
  0.4982214969455107  0.9295034174830784  0.3091389490488604
  0.7997114553431527  0.1624117350872181  0.8122580971844802
  0.1871476821181132  0.7465656348370123  0.3934863729631096
  0.4844012329168245  0.9961030361904923  0.4926392182347111
  0.0876494972888804  0.4326320985406602  0.8969008606137026
  0.2190382675060276  0.9877927840304404  0.1339168830130414
  0.5433874525197986  0.9816702637108604  0.8636593269075964
  0.0111750863973337  0.4172243984900610  0.2772725109698209
  0.2683564808370084  0.2554510880889607  0.0099436708864770
  0.4759837155560710  0.4970419602465022  0.0257240572479204
  0.7348417074226467  0.2495830908917246  0.4893133710459535
  0.8333095371678788  0.0017883457050710  0.8952510727669893
  0.4765913584134296  0.5807283607582903  0.6424684503619613
  0.7232526935698688  0.7180917788484827  0.3391616368664127
  0.7551858113952237  0.9612162370606856  0.6212085184152389
  0.9947016315595667  0.9735426919994663  0.5283913373106527
  0.8727148037930822  0.8411156098594071  0.0623875513216705
  0.2781350066006580  0.7308754712676387  0.6425364385720045
  0.2073313117288178  0.2043518548250035  0.7885507791748049
  0.7694534637536791  0.7044462891817532  0.0087169079222697
  0.5243358395281470  0.9569505865359746  0.0180757109615402
  0.0042751400209598  0.0543313158553745  0.9720512187236124
  0.9805542817102249  0.4738755048527034  0.3851489378275300
  0.2322364562310451  0.7168892293006981  0.2403152250324798
  0.5006572500031613  0.2457354433743357  0.4804631278218782
  0.1531921439112131  0.0321913666029165  0.8814410410707624
  0.4991303106352232  0.5079424710448878  0.1612210984546779
  0.9996290786276533  0.7262636060580420  0.2817324463847080
  0.1833414229637662  0.7182681305536299  0.7333651545035572
  0.7613551774101395  0.3947053319821290  0.8616400527440319
  0.4977526551285616  0.2435121360224667  0.2786390380630228
  0.7647563178051103  0.1788554172437079  0.1244011443643890
  0.8256351908254947  0.2207967890005297  0.2631820601485746
  0.7005417438005241  0.9092168871748535  0.4001871014932166
  0.0027149810672524  0.9544336609366677  0.2337260016005776
  0.9754174995422250  0.4595167665445398  0.6431566332681584
  0.7419039402730531  0.2115411906487954  0.9905049692256196
  0.9971747951430966  0.4832622573267418  0.7681957566288228
  0.9785414157938058  0.4421767007998284  0.1019489331716022
  0.1964672489108528  0.2470664149735619  0.4628004764948722
  0.9658384477049915  0.2417792340266815  0.0114683870406045
  0.3108556815855425  0.5393861085897216  0.8564962006795380
  0.5449223724910151  0.4687271752661098  0.8880036598287484
  0.9583850596023332  0.7016941300506900  0.4715824173829187
  0.4849554425051681  0.4666250077723416  0.7546927834667695
  0.5156059934774184  0.9630081657406594  0.6261769441230913
  0.2624213528432250  0.5105261552508423  0.6371148476590569
  0.3766904183509903  0.2321968765861698  0.8883083524555264
  0.2421536983204985  0.7652579205176160  0.5114020506233561
  0.2436076648203918  0.7316248386269348  0.1063634066854181
  0.7177046041619040  0.2509637434446727  0.6728477189445290
  0.6097955663505508  0.0859047158522201  0.2042060733665778
  0.4770857708979689  0.8420406722029167  0.7862561766847341
  0.4682562339703893  0.9364566184811579  0.1425789595065866
  0.4976748983811135  0.4808588246723655  0.5091824694211498
  0.2525981901538904  0.7653624663957946  0.9772948233481251
  0.2348223530290676  0.2358886788099318  0.6174950627539990
  0.0310534067033874  0.6035912729943477  0.0163656682696412
  0.9074211770848321  0.6936423746685927  0.7447907486021970
  0.9924281795616031  0.9630080492094709  0.7343817557472634
  0.6924997717439894  0.7709663647886752  0.4747299321191511
  0.9953091313351271  0.4560518225450401  0.4937856271385391
  0.4738396265519705  0.4623212423575218  0.3825358429502312
  0.0025874521596101  0.0213494055382807  0.1058048054620383
  0.9732362999616920  0.2501015981560205  0.5091980112415697
  0.8181248938856823  0.0762212760600056  0.3798880412236794
  0.4963178990668032  0.7408679787831017  0.5280382173504311
  0.2054847815734906  0.9693015322772019  0.6338762785679354
  0.7114818655623295  0.4215340882136189  0.1355460923067984
  0.7305133666099496  0.7602441505697688  0.6242162310991940
  0.2371173697598362  0.4790955528843661  0.1375349654200799
  0.7236976894047245  0.4524908963741107  0.6235139489784234
  0.7365879413511638  0.7478195406243925  0.1428591674269165
  0.2912709520262216  0.7533899111360918  0.8611765535797483
  0.0013929085803705  0.9410184936637108  0.3702204699819154
  0.2448367913102083  0.9713870139512190  0.2506738844487034
  0.7583492990268822  0.4829504453189389  0.7528874265979683
  0.2340622240442044  0.9593546268286796  0.7681058119941694
  0.7558244630386560  0.4622241284752247  0.2551846690693875
  0.2548874316154984  0.9994253805095457  0.0059759308189815
  0.7321432983902599  0.5079632663634623  0.4981652101165147
  0.2788290958022742  0.0171388933813427  0.4973647424390604
  0.7601384368301053  0.4535932131694350  0.0038102500677825
  0.7120785303906356  0.9615099382021157  0.7575224744690869
  0.2529494563192597  0.4700529207744207  0.2573481106334852
  0.2265561527345172  0.4613257067113156  0.7522667189509750
  0.7304025383018455  0.9581659717117481  0.2597404145543066
  0.2328117091633553  0.5087553167161378  0.4989098286596196
  0.7527258103294862  0.9560990739151226  0.9981359278143265
  0.7437758395821009  0.9980375115508330  0.5046323423107731
  0.2450119284870573  0.5169319476635200  0.9851232786168584
  0.0007418088636783  0.2363082438563936  0.3572757520094686
  0.5261264638909953  0.7505270563711693  0.8951463295715875
  0.4995440941630118  0.2440500492541409  0.6139500757992229
  0.0009978027519124  0.7119852265360793  0.1186394862647295
  0.0055312676571993  0.2191047151814404  0.8672140354986764
  0.4539294503657798  0.7137781103524561  0.3740270917530066
  0.9958080283897712  0.7272522590720842  0.6275576853920797
  0.4820559686335463  0.2312228936873545  0.1320827616389818
  0.1348244499173724  0.4075422579101369  0.0331018425783655
  0.6332906091751884  0.8858864082312446  0.5492574537545510
  0.6679506824168088  0.0578336955456118  0.9460704044413811
  0.1314143356955030  0.5998657154925666  0.4530905096030464
  0.3410775959567445  0.3973788620378228  0.9415982237763444
  0.8486360221449433  0.9154844252587742  0.4553285234766390
  0.8544630778096217  0.0620669518393554  0.0504727982692048
  0.3280265215410404  0.6118410874986877  0.5627105345645015
  0.8185487786497813  0.0407437721025754  0.1951624858084228
  0.3320425914780981  0.5904648193942438  0.7149972121622594
  0.8398812908378176  0.8830794584166101  0.3150419621397990
  0.3338717401913828  0.3708240785340216  0.7972737580727296
  0.1236948971184228  0.5735592218144885  0.2949103882683343
  0.6196544473636001  0.0790357967233230  0.7899007450771404
  0.1492328968498585  0.3709475834209036  0.2116616270030194
  0.6270481401684858  0.8659132361702858  0.6991471293289554
  0.8705281597951060  0.5159691221388272  0.9445161789174834
  0.3678573708976848  0.1277151928658801  0.4376725248217727
  0.8240123534395506  0.4025772449966062  0.5377047778935685
  0.3398403087399263  0.8966072770433059  0.0558198736721837
  0.1650833186194916  0.1031759834139663  0.5423577795399257
  0.6751326301589324  0.5548056488054396  0.0506519792319258
  0.1388023401117186  0.9217149302838511  0.9501494297877955
  0.6330971401342383  0.3822479189965149  0.4464261700710733
  0.6559227135562479  0.3676695346613185  0.2969492177907977
  0.1159416662045754  0.8576015164924141  0.8097883174390650
  0.1605989984816120  0.0713880086939891  0.7183410732762625
  0.6760178021246863  0.6020721753766457  0.2324863376403846
  0.8546714652991215  0.3793383048224099  0.7036173084921228
  0.3032095303790229  0.8707063958407263  0.1974072086617527
  0.3410410564559276  0.0722617446359918  0.2941478695424338
  0.8488438349852335  0.5711648111955409  0.8122072089365573
  0.1531068575822065  0.1065128919855383  0.0602395677262178
  0.6126119505593592  0.6024344083021163  0.5490434037987255
  0.6029918880120336  0.3794738055405831  0.9719378350940110
  0.1932413969544594  0.9129760427074733  0.4566679069732091
  0.3714583454647439  0.0988518090332618  0.9637519875782367
  0.8034541243135405  0.6091157583604104  0.4424860551912455
  0.8262774755212625  0.3378436561065209  0.0536881086510777
  0.3621129932835229  0.9100214639475521  0.5549440663609784
  0.1309823538618284  0.0731022735660263  0.2053052349798495
  0.7068147440475789  0.6044707115589484  0.7009321007665762
  0.1311734376551582  0.8749206821494963  0.2919007553765641
  0.6406899907919504  0.3983103029936365  0.7929531195794215
  0.8544382582444054  0.5658450344623533  0.3134550788616960
  0.3079370430558820  0.0363297659452765  0.8317400967393409
  0.9005200665515503  0.4114565836915173  0.2120445282644690
  0.3267652580000901  0.8850131922062491  0.7078763020392198
  0.8699387969746218  0.8327592390856687  0.9455516817042283
  0.3350757960274679  0.3965541817999208  0.4574585363009788
  0.8537450571164447  0.0956923117406417  0.5564508953672234
  0.3280245960905869  0.6214714903632675  0.0402034393910954
  0.1314898112646276  0.3881661472098188  0.5501658646440747
  0.6703167184244765  0.8599895179851704  0.0492231094952572
  0.1545402235595073  0.6133232552602080  0.9301344267228445
  0.6456642006114930  0.0918922674074424  0.4479133530393031
  0.3456786108049497  0.3716281020924752  0.3048503694708813
  0.8200976196195234  0.8907433181699101  0.8066420791739649
  0.7990882889909638  0.0793464522900338  0.7061058934132063
  0.3407580374080477  0.5775957275479269  0.2069301336264339
  0.1321538497454084  0.3594474288252523  0.7068151585284537
  0.6021995025772487  0.8650672673219021  0.2299918613148435
  0.6392057391370209  0.0685278106855179  0.3056834691565454
  0.1412977769406160  0.5607395476900238  0.8089973781536929
  0.0105760602548275  0.1360308683656475  0.4212921035527554
  0.6381249675753915  0.8183864198551388  0.8594627658500350
  0.3950478353235875  0.3129026462515950  0.5621803224796809
  0.9583472971609984  0.8181926356471936  0.1707951408326305
  0.3990017042048315  0.1469954610506426  0.6608549338349917
  0.8685396655702051  0.6130201416363221  0.0987418771172359
  0.0342527005574464  0.1331779631107676  0.2988371170987801
  0.4524203733104712  0.6514288815737229  0.8301689340496861
  0.8801042034914618  0.2603524235650569  0.9081847948718890
  0.5609397650046238  0.6267655377361078  0.3327980169907078
  0.0939389368512637  0.8156818705483556  0.5948481448889984
  0.5808522258245851  0.1362674406487556  0.0919715574094697
  0.8944185510626111  0.8295426043459357  0.6745717197313046
  0.5670646362965925  0.3334897903352189  0.1755623465854092
  0.1413013093374743  0.2135094666430327  0.9069640636241469
  0.3699207038005450  0.7916076312825062  0.3200999156411985
  0.0716135482820828  0.6205270465576797  0.6749662067532510
  0.4372062607835316  0.1346479729918023  0.1936907268025927
  0.0315207136692523  0.3115444861538604  0.8024543742530792
  0.5200446615867139  0.8488623863353041  0.4125917997516625
  0.9909349703409273  0.0708162769015035  0.8341252724332675
  0.4088906218739126  0.6577598499719721  0.4405987196951907
  0.9157701351098270  0.6171075682322491  0.5773629323911583
  0.3716010035058293  0.3158672460749729  0.0932295844869230
  0.6293185604054239  0.1783754506593045  0.5872053415439397
  0.0568636404856519  0.8116767365901695  0.0564487800482713
  0.8588772023364779  0.3172140088875599  0.3634896119078522
  0.5759882165667587  0.6375772240601081  0.9412930900982561
  0.1171749938662865  0.3457702607915134  0.3702738331998151
  0.4345081240739236  0.8645048449610347  0.9243618120668252
  0.5485953349419387  0.3729866829959814  0.6587894848040914
  0.1044338495813101  0.6226107581757624  0.1575675294837408
 
  0.13471627E-01  0.87024286E-02 -0.14502747E-01
 -0.13590949E-02  0.16001609E-02  0.67940899E-02
  0.42824932E-02  0.37731973E-02  0.71369521E-03
  0.65142765E-02 -0.63963504E-02  0.63116070E-02
  0.65098715E-02  0.27495323E-02 -0.57487485E-02
 -0.12483666E-02  0.12524564E-03 -0.28777785E-02
 -0.38604162E-04 -0.26859664E-02  0.12880993E-02
  0.33913650E-03 -0.41749593E-02 -0.11438824E-01
  0.29757559E-02 -0.24285729E-02 -0.13660220E-01
 -0.77069361E-02  0.17012834E-02  0.21675951E-02
 -0.16365292E-02 -0.74644364E-02  0.40670732E-04
  0.28548143E-02  0.59760017E-02  0.35717875E-02
 -0.10076141E-01  0.83007323E-03 -0.44455220E-02
 -0.10843783E-02  0.26986233E-02 -0.11116720E-01
 -0.24569803E-02  0.80566446E-02 -0.27948186E-02
  0.30400448E-02 -0.61001690E-02 -0.23923644E-02
  0.40037699E-03  0.10978306E-01  0.19523730E-02
 -0.13708191E-01  0.35510899E-03  0.53345826E-02
 -0.55058798E-02  0.29607786E-02 -0.19024990E-02
 -0.48121784E-02 -0.93819310E-02  0.10174880E-01
  0.55011625E-02 -0.11873564E-02  0.19085978E-02
  0.11722252E-01  0.10259032E-01  0.62365061E-02
  0.42278414E-02 -0.59791129E-02  0.14550549E-01
  0.42358701E-02  0.82209475E-02 -0.31376766E-02
  0.21227115E-02 -0.69951145E-02  0.72097690E-02
 -0.17359958E-02  0.73349346E-02  0.66096882E-02
 -0.31496971E-02 -0.47916581E-02  0.36909834E-02
  0.18833792E-02 -0.85063253E-02  0.66073530E-02
 -0.29612809E-02  0.27875547E-02 -0.44392459E-02
  0.60515113E-03 -0.10841114E-02 -0.22118950E-02
 -0.13719580E-01 -0.16091126E-02  0.11234196E-01
 -0.99116664E-02 -0.59939053E-02 -0.22494602E-02
  0.30709322E-02 -0.47195333E-02 -0.33224822E-02
 -0.17151885E-02  0.80738056E-02  0.87296578E-02
  0.55771949E-02 -0.15538955E-02 -0.12184796E-01
 -0.25793828E-02 -0.42273803E-03  0.30259626E-02
  0.23524662E-02 -0.10177477E-01 -0.10370289E-01
 -0.27384792E-02  0.55898736E-03  0.16515223E-01
 -0.13042146E-01 -0.13964547E-02 -0.10885382E-01
 -0.10565959E-02  0.73002029E-02  0.52685131E-02
 -0.39188565E-02  0.17496923E-02  0.35696055E-02
  0.35861672E-02 -0.10443150E-02 -0.23914928E-03
 -0.31375313E-02 -0.62066117E-02  0.33025790E-02
 -0.77617024E-02  0.59695042E-02 -0.79816623E-03
 -0.67282018E-02  0.48692572E-02 -0.18467516E-02
  0.69806082E-02 -0.62656262E-02  0.11744634E-01
 -0.56425728E-02 -0.63968565E-02  0.52050573E-03
 -0.29166138E-02  0.80012498E-02  0.24066290E-02
  0.12978290E-01  0.23742437E-02 -0.82965921E-02
 -0.34661290E-02  0.53023771E-03 -0.19309388E-02
  0.50949976E-02  0.79994478E-02  0.92569480E-02
 -0.65503994E-03 -0.63123301E-03  0.14516493E-02
 -0.91247723E-02 -0.29987558E-03 -0.50825741E-02
  0.35521163E-03  0.36207574E-02  0.50267538E-02
 -0.25892928E-02 -0.46466773E-02  0.19170467E-02
 -0.23028007E-02 -0.12667567E-02  0.38548952E-02
 -0.79034875E-02 -0.80770602E-02 -0.11358959E-02
 -0.67919144E-02  0.27617082E-02  0.11188918E-01
 -0.19872455E-02  0.33962526E-02 -0.63935373E-02
  0.23280176E-02 -0.99604681E-02 -0.84345734E-02
 -0.68870791E-02 -0.77534615E-02 -0.99152874E-02
  0.66152639E-02 -0.64319686E-02 -0.31838591E-03
  0.95624467E-04  0.13733693E-02 -0.80201802E-03
 -0.97160945E-02  0.19229063E-02 -0.28810478E-02
 -0.15985816E-01  0.68880352E-03 -0.29659563E-02
 -0.17659219E-01  0.67492119E-02 -0.22553697E-02
 -0.11276737E-02  0.54696750E-02  0.83102687E-02
 -0.11644329E-01  0.11278849E-02 -0.10154155E-01
  0.80452230E-02 -0.48647842E-02  0.26475922E-02
  0.84849188E-02 -0.99767948E-02 -0.21305168E-02
  0.79205560E-02 -0.17632376E-02 -0.23958582E-03
  0.12570250E-01  0.27025333E-02 -0.91080116E-02
 -0.20479447E-02  0.75346874E-02  0.18342996E-02
 -0.33384189E-02 -0.41354158E-02  0.10709331E-01
 -0.26383875E-02  0.19331622E-03  0.41630724E-02
 -0.27733715E-02  0.12166868E-02  0.70331012E-04
 -0.66415480E-02 -0.22874678E-02 -0.75728326E-02
  0.15741824E-01 -0.39151370E-02  0.40364464E-02
  0.14180762E-02 -0.44020598E-02 -0.16068288E-03
  0.93136826E-02 -0.19237307E-02 -0.13739989E-02
 -0.20288099E-02  0.66193258E-02  0.57800076E-02
 -0.16877644E-02 -0.56196596E-02 -0.15324580E-03
 -0.93581535E-02  0.71156345E-02 -0.77445735E-02
  0.80499618E-03  0.80741884E-02  0.62728912E-02
  0.13783188E-02  0.16710362E-02  0.10665884E-02
  0.31975667E-03 -0.11468692E-01 -0.11615290E-01
 -0.33819092E-03 -0.50966166E-02 -0.33042974E-02
  0.16060979E-02  0.35332744E-02 -0.71912009E-02
 -0.17662967E-02 -0.30130688E-04  0.12821481E-02
  0.35816698E-02  0.34999199E-02 -0.45760771E-02
 -0.45468137E-02  0.10459021E-03 -0.19943119E-02
 -0.47917032E-02  0.53531819E-02 -0.34870167E-02
 -0.21889849E-02 -0.41064696E-02  0.40202888E-02
  0.16773567E-02  0.53177615E-02 -0.40931401E-02
  0.16578414E-02 -0.19112560E-02 -0.56241736E-02
  0.45588908E-02 -0.94830114E-03 -0.11557564E-02
 -0.92641350E-03 -0.41288622E-03  0.13933411E-02
  0.20629535E-02 -0.23175203E-03  0.64388269E-02
  0.38010180E-02  0.17390805E-02  0.42482545E-02
  0.69188737E-03  0.23383662E-02 -0.21854802E-02
 -0.34329130E-02  0.35823225E-02 -0.47721153E-02
 -0.10266975E-02 -0.35110971E-02  0.36604984E-02
  0.72589418E-02  0.46398519E-02  0.52312778E-02
  0.32903164E-02  0.29859038E-02  0.46115762E-02
  0.32721521E-02 -0.24143728E-02 -0.43189036E-03
  0.38535634E-03 -0.76793596E-02  0.39581471E-02
 -0.37344881E-02 -0.82410607E-02  0.60078227E-03
  0.52986118E-02  0.38861287E-02  0.94506531E-03
 -0.64411064E-02  0.53826725E-02  0.77068919E-02
  0.40935042E-02 -0.43354664E-02  0.22789766E-02
 -0.35656846E-02 -0.55785542E-02 -0.43632193E-02
  0.41432841E-02  0.10957961E-01 -0.88387643E-03
 -0.47735866E-02  0.55744164E-02 -0.35159195E-02
 -0.63044891E-02 -0.84124229E-03  0.33230048E-02
  0.86801234E-03 -0.38128882E-02 -0.44680776E-04
 -0.19310907E-02 -0.53007264E-04  0.56475262E-02
  0.20723963E-02  0.18157920E-02  0.89655620E-03
 -0.40851309E-03  0.65840265E-03  0.16379040E-02
  0.31573407E-02 -0.30103101E-03  0.88285116E-03
  0.39379101E-02  0.35744925E-02  0.43631760E-04
  0.58273683E-03 -0.48310653E-02  0.30900658E-02
 -0.34065225E-02 -0.10850866E-02 -0.80517624E-02
 -0.38624947E-02 -0.12108594E-02 -0.36158251E-03
 -0.18563172E-03  0.10361500E-02  0.42600328E-02
  0.12453291E-02  0.25495726E-02 -0.15640853E-02
  0.23786266E-02  0.31538037E-02  0.16686474E-03
 -0.40436831E-02  0.20355520E-02 -0.30587424E-02
 -0.31143181E-02 -0.28681636E-03  0.40803660E-02
 -0.48915813E-02 -0.44474609E-02 -0.85746456E-03
  0.49715854E-02  0.57050051E-02 -0.19851205E-02
 -0.61271489E-02 -0.73310898E-03  0.31793778E-02
  0.60485799E-03  0.59924636E-02  0.44487268E-02
 -0.32434609E-02 -0.23656663E-02  0.26842197E-02
  0.77267108E-02  0.15751182E-02 -0.33430217E-03
  0.55467426E-03  0.54919181E-02  0.42767490E-03
  0.10369041E-02  0.29708540E-02 -0.30128603E-02
 -0.65584613E-03 -0.31245358E-02  0.26139173E-02
  0.97925053E-03  0.98678047E-03  0.91009820E-03
  0.96028024E-02  0.71709100E-02 -0.78336121E-03
  0.21155618E-02  0.75828483E-03 -0.42604380E-02
  0.47552712E-02  0.54917799E-02  0.49977817E-02
  0.21786405E-02  0.17643149E-02  0.27392806E-02
 -0.24211911E-02  0.18337572E-02  0.63893619E-03
 -0.16713881E-03 -0.56893541E-02  0.39449138E-02
 -0.80019371E-03  0.37156824E-02 -0.42482282E-02
  0.45355730E-02  0.66284190E-03  0.23905201E-02
  0.11664216E-03  0.23729193E-02  0.46356229E-02
 -0.85568037E-04 -0.28283110E-02 -0.58896818E-02
  0.66161511E-03  0.10434620E-02 -0.14362558E-02
  0.32013874E-02 -0.10143200E-01 -0.16396854E-02
  0.21328993E-02 -0.63507093E-02  0.38225147E-03
  0.64992991E-02 -0.48008397E-02 -0.55263973E-03
 -0.41191304E-02 -0.49583159E-05  0.37059372E-02
 -0.30290336E-02  0.36233477E-02 -0.16482916E-02
  0.35042601E-02  0.22771853E-02  0.41116729E-02
 -0.23609427E-02  0.13576284E-02 -0.29142721E-02
  0.17404349E-02  0.14346592E-02 -0.27094244E-02
  0.90065658E-02 -0.14181039E-02 -0.36479543E-02
  0.52546625E-02 -0.19756124E-02 -0.40397817E-02
  0.17420257E-03 -0.76118637E-02  0.98640701E-05
  0.16462760E-02 -0.62777853E-02  0.27659376E-03
 -0.24702445E-02  0.22368194E-02 -0.76300380E-03
 -0.65089442E-03 -0.17034203E-02 -0.15050684E-02
  0.50694782E-03  0.34173909E-02 -0.12262438E-02
 -0.16154764E-02  0.30975165E-02 -0.69272256E-02
  0.52630306E-02  0.16738762E-02  0.27698116E-03
 -0.31397416E-02 -0.56853646E-03 -0.95174583E-03
  0.45787356E-02  0.39514839E-02 -0.74732308E-02
 -0.32508514E-02 -0.21828194E-03  0.65457098E-02
 -0.48560188E-03 -0.26970498E-02 -0.74573705E-03
  0.13463825E-02  0.88207226E-03  0.87345007E-04
  0.23064477E-02 -0.86665913E-03 -0.51621800E-02
  0.19246724E-02  0.11316677E-02  0.14993421E-02
 -0.37646301E-02 -0.53831929E-02  0.32937799E-02
 -0.15392071E-02 -0.25344527E-02  0.13978146E-02
 -0.19234566E-02  0.76355084E-03  0.11180464E-02
 -0.30833687E-02  0.73498890E-03 -0.46574073E-02
  0.17528562E-02  0.25182413E-02  0.40239254E-02
  0.34574586E-02  0.53013156E-03 -0.72958575E-03
 -0.65398943E-02 -0.19523926E-02  0.33510948E-02
 -0.18085407E-02  0.52490288E-02 -0.72289944E-05
 -0.12150618E-02 -0.18502733E-02 -0.72645517E-03
  0.20680374E-02  0.24796685E-02 -0.56570476E-02
  0.39119510E-02 -0.12201038E-02  0.10619751E-02
 -0.17420345E-02 -0.24495542E-02  0.49262955E-02
  0.23327355E-02  0.10864529E-02  0.26618329E-02
 -0.79280017E-03  0.16569542E-02 -0.35950457E-03
 -0.86991273E-03  0.16055790E-02  0.20163739E-02
  0.36486607E-02 -0.36812327E-02 -0.12236198E-02
 -0.20543614E-02  0.98855171E-03 -0.14546805E-02
 -0.29565665E-02 -0.84551448E-02 -0.26620417E-03
  0.18983915E-02 -0.19931180E-02 -0.69207693E-03
 -0.61184708E-02  0.42257950E-02  0.21966199E-02
  0.17761449E-02 -0.49249811E-02 -0.73484775E-03
 -0.43095730E-02  0.34882605E-02 -0.11391957E-02
  0.16845414E-02 -0.59873923E-03 -0.19305347E-03
  0.58681952E-03 -0.37745049E-03 -0.19390076E-02
 -0.80704502E-03  0.72251764E-02  0.20726445E-02
 -0.12537979E-03 -0.37220961E-02 -0.38329786E-02
  0.42647678E-02 -0.29529053E-02 -0.35707825E-02
 -0.38847232E-02 -0.17844224E-02  0.39682600E-03
 -0.29198440E-02 -0.24917195E-02  0.11182017E-02
 -0.43501846E-02 -0.50972980E-04  0.20250141E-02
 -0.29967269E-02 -0.45134040E-02 -0.72167775E-03
  0.16244748E-02 -0.25066096E-02 -0.67250911E-03
 -0.17602772E-03 -0.32678657E-02  0.17358069E-02
  0.36909965E-03 -0.18063766E-02 -0.28180780E-02
 -0.17736961E-04 -0.16897875E-03 -0.47406167E-03
 
           1
   2.00000000000000     
  0.45714776E+00  0.87363600E-03  0.00000000E+00  0.00000000E+00
  0.46939157E+00  0.70819506E+00  0.23452799E+00
  0.33968509E+00  0.95369897E+00  0.38118132E+00
  0.71067589E+00  0.50490830E+00  0.37361062E+00
  0.25010394E+00  0.51113242E+00  0.37373600E+00
  0.95040258E+00  0.19861638E+00  0.74375916E+00
  0.22694695E+00  0.23886147E+00  0.28543856E+00
  0.77023207E+00  0.66825501E+00  0.89462484E+00
  0.91943836E+00  0.61526077E+00  0.20980387E+00
  0.47920212E+00  0.20405813E+00  0.75262168E+00
  0.68434656E+00  0.69580701E+00  0.78341211E+00
  0.16798832E+00  0.10152474E+00  0.37783617E+00
  0.49386625E+00  0.24908391E+00  0.10987801E-01
  0.24820284E+00  0.23410476E+00  0.17457964E+00
  0.49806616E+00  0.92989000E+00  0.30834270E+00
  0.79935949E+00  0.16356586E+00  0.81205792E+00
  0.18758317E+00  0.74569177E+00  0.39331502E+00
  0.48445859E+00  0.99767570E+00  0.49277906E+00
  0.85685775E-01  0.43268297E+00  0.89728295E+00
  0.21824954E+00  0.98821692E+00  0.13378061E+00
  0.54269810E+00  0.98032629E+00  0.86438811E+00
  0.11963138E-01  0.41705431E+00  0.27740922E+00
  0.27003571E+00  0.25692071E+00  0.10390366E-01
  0.47658936E+00  0.49618544E+00  0.26766253E-01
  0.73544850E+00  0.25076076E+00  0.48908863E+00
  0.83361362E+00  0.78628319E-03  0.89576748E+00
  0.47634267E+00  0.58177910E+00  0.64294188E+00
  0.72280149E+00  0.71740537E+00  0.33942601E+00
  0.75545561E+00  0.95999769E+00  0.62168178E+00
  0.99427742E+00  0.97394201E+00  0.52807337E+00
  0.87280149E+00  0.84096031E+00  0.62229122E-01
  0.27616965E+00  0.73064496E+00  0.64334110E+00
  0.20591145E+00  0.20349322E+00  0.78838966E+00
  0.76989338E+00  0.70377021E+00  0.84789322E-02
  0.52409014E+00  0.95810717E+00  0.18700980E-01
  0.50740830E-02  0.54108718E-01  0.97117847E+00
  0.98018478E+00  0.47381495E+00  0.38536568E+00
  0.23257345E+00  0.71543129E+00  0.23957244E+00
  0.50026496E+00  0.24581552E+00  0.48164605E+00
  0.15132383E+00  0.31991322E-01  0.88066137E+00
  0.49897895E+00  0.50898824E+00  0.16159846E+00
  0.99906770E+00  0.72651425E+00  0.28198812E+00
  0.18385515E+00  0.71811853E+00  0.73334803E+00
  0.76090572E+00  0.39381622E+00  0.86187660E+00
  0.49664078E+00  0.24436728E+00  0.27858187E+00
  0.76379249E+00  0.17955295E+00  0.12426887E+00
  0.82663518E+00  0.21989923E+00  0.26402328E+00
  0.69973344E+00  0.90830053E+00  0.40022438E+00
  0.22971710E-02  0.95557985E+00  0.23389838E+00
  0.97727666E+00  0.45985688E+00  0.64256238E+00
  0.74140741E+00  0.21161715E+00  0.99036666E+00
  0.99790466E+00  0.48440819E+00  0.76885879E+00
  0.97844758E+00  0.44208628E+00  0.10205291E+00
  0.19516011E+00  0.24702346E+00  0.46243643E+00
  0.96588933E+00  0.24229791E+00  0.11828433E-01
  0.31048476E+00  0.53872046E+00  0.85663351E+00
  0.54459249E+00  0.46854571E+00  0.88827977E+00
  0.95725287E+00  0.70053708E+00  0.47150106E+00
  0.48398249E+00  0.46702063E+00  0.75549420E+00
  0.51532132E+00  0.96349468E+00  0.62571900E+00
  0.26275485E+00  0.50909930E+00  0.63651071E+00
  0.37570383E+00  0.23108618E+00  0.88759816E+00
  0.24310135E+00  0.76433653E+00  0.51137925E+00
  0.24362136E+00  0.73182158E+00  0.10630596E+00
  0.71631276E+00  0.25123920E+00  0.67264136E+00
  0.60750557E+00  0.86003388E-01  0.20399363E+00
  0.47455606E+00  0.84300751E+00  0.78609463E+00
  0.46809469E+00  0.93724016E+00  0.14317419E+00
  0.49600683E+00  0.48102040E+00  0.50845517E+00
  0.25375068E+00  0.76466558E+00  0.97748446E+00
  0.23603783E+00  0.23445949E+00  0.61734246E+00
  0.32188040E-01  0.60333869E+00  0.16348508E-01
  0.90922189E+00  0.69402952E+00  0.74413838E+00
  0.99213481E+00  0.96408741E+00  0.73451314E+00
  0.69202154E+00  0.77037396E+00  0.47549700E+00
  0.99493118E+00  0.45607952E+00  0.49408381E+00
  0.47344234E+00  0.46249553E+00  0.38254088E+00
  0.16360387E-02  0.21021722E-01  0.10526239E+00
  0.97549134E+00  0.24954075E+00  0.50948713E+00
  0.81832804E+00  0.75590673E-01  0.37987653E+00
  0.49765210E+00  0.74059240E+00  0.52793980E+00
  0.20519415E+00  0.97024976E+00  0.63429028E+00
  0.71124009E+00  0.42072906E+00  0.13553512E+00
  0.72917279E+00  0.76126348E+00  0.62366152E+00
  0.23723269E+00  0.48025219E+00  0.13798427E+00
  0.72389514E+00  0.45273028E+00  0.62359034E+00
  0.73663375E+00  0.74617663E+00  0.14202721E+00
  0.29122251E+00  0.75265981E+00  0.86093988E+00
  0.16229849E-02  0.94152464E+00  0.36970539E+00
  0.24458377E+00  0.97138270E+00  0.25076572E+00
  0.75886238E+00  0.48345182E+00  0.75255966E+00
  0.23341088E+00  0.95936961E+00  0.76796297E+00
  0.75513804E+00  0.46299098E+00  0.25493491E+00
  0.25457386E+00  0.99883712E+00  0.62638876E-02
  0.73238358E+00  0.50872505E+00  0.49787204E+00
  0.27906658E+00  0.16865103E-01  0.49696191E+00
  0.76079151E+00  0.45345737E+00  0.37274680E-02
  0.71194582E+00  0.96145079E+00  0.75762227E+00
  0.25324498E+00  0.47001972E+00  0.25780930E+00
  0.22710066E+00  0.46157483E+00  0.75257100E+00
  0.73050165E+00  0.95850095E+00  0.25958388E+00
  0.23231994E+00  0.50926849E+00  0.49856802E+00
  0.75257873E+00  0.95559610E+00  0.99839811E+00
  0.74481570E+00  0.99870218E+00  0.50500704E+00
  0.24548327E+00  0.51735968E+00  0.98545359E+00
  0.12105504E-02  0.23596238E+00  0.35724482E+00
  0.52618167E+00  0.74942697E+00  0.89542984E+00
  0.49900912E+00  0.24286950E+00  0.61399311E+00
  0.17568383E-02  0.71254192E+00  0.11870718E+00
  0.46085678E-02  0.21987579E+00  0.86776605E+00
  0.45451585E+00  0.71315705E+00  0.37419033E+00
  0.99529724E+00  0.72645312E+00  0.62724517E+00
  0.48264950E+00  0.23279264E+00  0.13201945E+00
  0.13414063E+00  0.40834080E+00  0.32850012E-01
  0.63238748E+00  0.88576590E+00  0.54949547E+00
  0.66807503E+00  0.57287493E-01  0.94606720E+00
  0.13113770E+00  0.59985812E+00  0.45349502E+00
  0.34137447E+00  0.39763898E+00  0.94166244E+00
  0.84857750E+00  0.91557874E+00  0.45544584E+00
  0.85491537E+00  0.62023829E-01  0.50536033E-01
  0.32859063E+00  0.61235314E+00  0.56271366E+00
  0.81863226E+00  0.40051713E-01  0.19538381E+00
  0.33155460E+00  0.59030938E+00  0.71442050E+00
  0.83932798E+00  0.88290600E+00  0.31501606E+00
  0.33384515E+00  0.37097251E+00  0.79757889E+00
  0.12387329E+00  0.57392445E+00  0.29479836E+00
  0.61999519E+00  0.79487585E-01  0.78991270E+00
  0.14865363E+00  0.37123918E+00  0.21144254E+00
  0.62660201E+00  0.86587215E+00  0.69943939E+00
  0.86982743E+00  0.51533202E+00  0.94445476E+00
  0.36856956E+00  0.12853244E+00  0.43753034E+00
  0.82313463E+00  0.40247223E+00  0.53793250E+00
  0.33992696E+00  0.89746571E+00  0.56138518E-01
  0.16461869E+00  0.10283710E+00  0.54255004E+00
  0.67623950E+00  0.55503129E+00  0.50628035E-01
  0.13888180E+00  0.92250166E+00  0.95018006E+00
  0.63324568E+00  0.38267350E+00  0.44621037E+00