Na88 Ge16 P8 S96                        
   1.00000000000000     
    13.3422163233000006    0.0000000000000000    0.0000000000000000
     0.0000000000000000   13.3422163233000006    0.0000000000000000
     0.0000000000000000    0.0000000000000000   26.6844326466999995
   Na   Ge   P    S 
    88    16     8    96
Direct
  0.0126981275875364  0.0125991286446245  0.1126414528391562
  0.5510285749740828  0.4508799345423465  0.7590419035578455
  0.5395315879455818  0.5386984832325322  0.8731646097426842
  0.0077006379126476  0.9436886853918607  0.3501823549085090
  0.6949389597478471  0.9462873958847215  0.8540490682954284
  0.1145786864443935  0.4359698142032885  0.3801147228609993
  0.0116584904841264  0.5126428577038572  0.0206320629879139
  0.2284333342758754  0.2071282967137558  0.2422812253146072
  0.7364741575683023  0.9993140792736225  0.6165997343498458
  0.7332234754400179  0.2703931187002773  0.7386911795241491
  0.7579291927118977  0.6815454432205114  0.3661133659537893
  0.3130272166878213  0.5095792813061625  0.8855497243489442
  0.7068956022255444  0.1744999128650849  0.1695998490471925
  0.2637850942019163  0.7461793010081466  0.6215773111402259
  0.9814840087395981  0.9950458795113835  0.8622324426359375
  0.4641507512334977  0.5066892269644053  0.3644749510522706
  0.9906225567252097  0.0295776146438899  0.6204432792000659
  0.9574816684636874  0.5027904272162409  0.6231988572880429
  0.3270432837703145  0.0359638486562989  0.1165598233592072
  0.0430994775967729  0.4918683013103351  0.8631515130175217
  0.4974258145557156  0.0141016610233478  0.3658255226103987
  0.2524286334218498  0.9559513862564504  0.3647031096806197
  0.7890066376059398  0.5665532804564641  0.8885602352552551
  0.6561127596293803  0.4879397846473205  0.6302710583101988
  0.2523643457024221  0.8199015706289120  0.1281574285797318
  0.2012561833305322  0.2708171691318242  0.6139210314887337
  0.7611908526873558  0.7215503895016960  0.1194975713538719
  0.7507914295322181  0.2178634220536683  0.4760747467092284
  0.5071378292054484  0.7216077774219140  0.4877371571171761
  0.5283364657074310  0.0168891630852910  0.0224880591041567
  0.9872779043692450  0.0700499882410852  0.4648337137703663
  0.4911993330717194  0.7412497525045216  0.7067864648052008
  0.9815044909047091  0.7133526936010421  0.2566133990648941
  0.4746291412354899  0.2076031464062122  0.7521813226092774
  0.0217949160369618  0.0075308066351050  0.9831041718079846
  0.5068808151870444  0.2178369459234865  0.4834926466842033
  0.5211552628408743  0.7014071238733036  0.0069102567028672
  0.7154237352088441  0.2459040824583166  0.3537409598242978
  0.9935257396951627  0.7689959941913047  0.7552217032535239
  0.5108997167834954  0.7405701533627523  0.2475837107215807
  0.0084877299254014  0.9783461107134056  0.2402086490381750
  0.5264562001913484  0.4527641350027892  0.0249269467938083
  0.4940431509113344  0.9859962124796561  0.7668469946153177
  0.9636598632011057  0.4704996018924784  0.2498132558416141
  0.2230499724672652  0.2279147870642977  0.0104382196419741
  0.7660341065908984  0.7233420848564194  0.5052910174935979
  0.2661725892786839  0.7960888489761997  0.4828710904250585
  0.7027942304615860  0.2339039796505626  0.0239226638427791
  0.9708462821825591  0.0051662449292790  0.7461620524289818
  0.4694538196602590  0.4730060811525434  0.2469622854055170
  0.0357724645560089  0.5111677313022006  0.7498502851458025
  0.5169738867606100  0.0118721492062513  0.2327055371374708
  0.2673960716700621  0.2927504677413698  0.4960624376006325
  0.7728988028833476  0.7558681628908385  0.9875252669429007
  0.7587723262383356  0.2411183485626163  0.5994412849012480
  0.2660458097340977  0.7432922040171700  0.0061354271042860
  0.9224748684142350  0.2187652619556015  0.9856319061147704
  0.4941986329307193  0.4760280051378711  0.5138906372317266
  0.4828168136783066  0.5044867627337750  0.1367361451934319
  0.0135226902713108  0.4524686882922184  0.4871669313879539
  0.2809665321902688  0.9782391302033465  0.8966502615511185
  0.0142582485938457  0.7522874414064262  0.4860925157961359
  0.0022599408535760  0.7695923097095361  0.9761322172931221
  0.5240524799442338  0.9828096578087735  0.5065957266387544
  0.4980115581103599  0.2458246265521986  0.2670794408652126
  0.7156643741616997  0.7355472229902434  0.7902807868824345
  0.2513286900086296  0.7157549556308191  0.2438756516753334
  0.9887342336209840  0.2610348803660215  0.7426617224034091
  0.7814484919522233  0.7424839445227563  0.2360877739998704
  0.2403923140799339  0.2246440972443081  0.7518433500912730
  0.9129103539876169  0.2573137894836319  0.2658385998756568
  0.2552219545809311  0.7238270205011734  0.7430644909468175
  0.1755010239640490  0.5464632019733575  0.1189074167235913
  0.4897606482315962  0.0079140862878646  0.6337329713132392
  0.7396937347365892  0.2463952369179974  0.8806326014867011
  0.2405402216306134  0.2435757121289887  0.3599880601834850
  0.2398243029256406  0.7316222119414812  0.8812238620862031
  0.7332468957486646  0.9743684377377703  0.3648941593867465
  0.7456082730963226  0.9682415132049854  0.1066452258897673
  0.3199794696753792  0.4756283985774671  0.6134140812599802
  0.5089654309549952  0.2509082958663182  0.9620035494377858
  0.2135054835464509  0.6957916475858323  0.3660180186803086
  0.7458163003702687  0.7431744272410754  0.6186004237434974
  0.2588154853302667  0.2757652963366230  0.1182950910953130
  0.2252133306953907  0.0273230404618397  0.6291159218063147
  0.7430645531503370  0.4840373373797851  0.1272537660127594
  0.2421160774082652  0.2308872321432354  0.8823330723101469
  0.7465309303753347  0.4546730628099984  0.3724998630629050
  0.2661651456129357  0.9694207318876489  0.2533967392812589
  0.7876817818446225  0.5239212450592635  0.7512181518190850
  0.2309722794563835  0.0060807173940725  0.7536780929609620
  0.7059394105279707  0.4902596838133192  0.2501071047310418
  0.2470409851217470  0.9951014808012886  0.0008142076436112
  0.7344783734391795  0.4688227727367685  0.5079574062273187
  0.2571167002778708  0.0258891118154388  0.4933056672808956
  0.7647426283018635  0.4872630046523334  0.0015281061718790
  0.7366057881529545  0.0008005735731231  0.7306289831581845
  0.2254113427553549  0.4674731293631768  0.2491974735334865
  0.2761135141619496  0.4832365716449409  0.7470962559745407
  0.7792497179932937  0.9764115630193256  0.2368520857152823
  0.2543591855081976  0.5468672178578337  0.4958669103856959
  0.7530148463129002  0.9956905160174159  0.9849685690343145
  0.7388109400183417  0.9747033894859385  0.4927970237238042
  0.2501083019415535  0.4830154031761900  0.9979132047085019
  0.9749437234856554  0.2311423476823409  0.3766645412324083
  0.5069345271632758  0.7786081438196216  0.8716899040279137
  0.4898189282231871  0.2399976084093538  0.6233794237409287
  0.9974404045940565  0.7282497538510888  0.1177060029717464
  0.9870033887267380  0.2415687215180605  0.8813917611228390
  0.4973906650813972  0.7428684975360844  0.3616281904109215
  0.0100090120341305  0.7530497383330599  0.6237267141932276
  0.4883092895749868  0.2340025441922815  0.1256316662133782
  0.1565288452172102  0.3888193467806884  0.0592322310417746
  0.6612210404333642  0.8603961868584823  0.5350124525504338
  0.6519236241325767  0.0950508244694528  0.9410637853560112
  0.1519769811112470  0.6394574316708346  0.4593239446016426
  0.3310041432313538  0.3710860795289979  0.9499768109876610
  0.8385440646737345  0.8671937674401419  0.4500805444951329
  0.8462713091718089  0.0801144487172671  0.0408640896785423
  0.3824617225292581  0.6156688296573219  0.5448370295165861
  0.8735503375169215  0.0657762303623533  0.1920796372243845
  0.3729294233385294  0.5795319963809245  0.6964416815139244
  0.8614255425713283  0.8739294961666082  0.2949435162137615
  0.3743763089064265  0.3728280455003174  0.7968445955377877
  0.1268128829708726  0.5723851820195904  0.2926128882601705
  0.6369006458776845  0.1025769335531067  0.7697148537671312
  0.1238130026616151  0.3648831426305901  0.2057642844847977
  0.6319118783957991  0.8930885993574765  0.6852598150127452
  0.8713812792312264  0.5986078068094989  0.9714062954007645
  0.3392793969061350  0.1343138456100661  0.4482990663388498
  0.8427821755227435  0.3690283991808328  0.5394906506942718
  0.3525653531533696  0.9052329008538703  0.0525951546021221
  0.1312488259551301  0.1121130729224673  0.5452992577360745
  0.6561535054239608  0.5799226587441881  0.0495634141715595
  0.1606350495253850  0.8763627954107962  0.9580087053733634
  0.6169947905929062  0.3660075638365128  0.4643221885016502
  0.6016503956717291  0.4131100132747220  0.3048655830507688
  0.1481843656773317  0.8882299524966937  0.8060546077310972
  0.1221646943020583  0.0972137582981494  0.7100070479535210
  0.6176366961829802  0.5900339087173724  0.1975996808720134
  0.8677427323583697  0.4261516588602615  0.7008492563146644
  0.3662983508655091  0.8634716024336844  0.2083162884921649
  0.3618867893704333  0.0708854635136752  0.3014058652640098
  0.8734533371804190  0.6171907313067110  0.8023762324131443
  0.1536285893222959  0.0595178767768200  0.0600374806574618
  0.6604362778297033  0.5838028562835601  0.5480989951194094
  0.6577773080243301  0.4046165494089692  0.9458094168340182
  0.1377274251786632  0.9229750048317765  0.4438748235937138
  0.3704433275690377  0.0852210642902311  0.9611896878693200
  0.8241235742527369  0.5528343365190309  0.4494119428884216
  0.8401894690525799  0.3823061407423285  0.0500647641560913
  0.3302070158008774  0.9478560229544720  0.5563931745880887
  0.1719379699767279  0.0507476367199089  0.1993754239518541
  0.6693398595229034  0.6137512559813725  0.7131945456567067
  0.1564987255077685  0.8666328603459468  0.2895311536230899
  0.7170182290510485  0.4270384206194233  0.8119728666409179
  0.8380991294117772  0.5620771068096120  0.2914370585261133
  0.3321391754199370  0.0816076379147968  0.8033517646107803
  0.7941564480857843  0.3720125918483594  0.2090562553486781
  0.3347307572505245  0.9166748198521493  0.6989953781402144
  0.8534644534519825  0.9086590449485492  0.9406344501712075
  0.3245955919188906  0.4416358505053398  0.4295035490482599
  0.8332219289987047  0.0783198713396221  0.5410490946319252
  0.3511164147132850  0.5787990883322490  0.0506993513566034
  0.1814314909316715  0.4362027771855363  0.5495205671380432
  0.6495002433585368  0.8878382674035739  0.0290609052752421
  0.1532819868886475  0.5915537079327409  0.9509424046529036
  0.6367884981859460  0.0723342632485387  0.4395553030223890
  0.3278135322577905  0.3969733713020248  0.2998623528875079
  0.8279675488769760  0.9098464617151604  0.7829717448462031
  0.8379744152906435  0.1226455291641671  0.6933000660795156
  0.3230978499532913  0.5657166190589988  0.1928753262111993
  0.1726126488566579  0.3919749137214891  0.7025167726052589
  0.6785415353793738  0.8804180472911571  0.1910785945002751
  0.6726825469474971  0.0750633164969278  0.2779405792883083
  0.1973566779634433  0.5793736060790566  0.8059272024515843
  0.0745054490095781  0.1589920708578485  0.3271981333029119
  0.6427697774658794  0.7646474054411705  0.8902184823237734
  0.5985973556872760  0.3166228105154209  0.6701143280296796
  0.0678048723464646  0.8184746736381383  0.1674562114751747
  0.3914802900175933  0.1640059382723044  0.6634306706491777
  0.9163890153125458  0.6170190526653870  0.1578384521469917
  0.9220692367690668  0.3540791131026860  0.3453376016232668
  0.5072646349759081  0.7273186283917348  0.8016272459631353
  0.0797131916571687  0.1606562279905797  0.9339968605755202
  0.5907877920211545  0.6474164083949698  0.4084030535727334
  0.1057035696250674  0.8386806473405665  0.5804562481067725
  0.6200801525428035  0.3210129095995956  0.1024996790091056
  0.9191504547000650  0.6907948349282701  0.5698409571870775
  0.4181560808130342  0.1983202576965029  0.0605044637293254
  0.9195495214609768  0.3503885090221223  0.9159193042768162
  0.4029305728248045  0.8227272108858971  0.4117278417745773
  0.9271519893407429  0.8503229660617939  0.6691101010520284
  0.4016473711805316  0.3092007117292994  0.1776480081158502
  0.9095481772428513  0.1575759975807397  0.8305221296381951
  0.3992877532949468  0.6685113554947167  0.3154078967989060
  0.0975887710398297  0.3098980848045776  0.8347202086678858
  0.5870349745254831  0.8524536832424384  0.3305168623604819
  0.0739198183048312  0.6604715222972654  0.6692489663465362
  0.5521408909429767  0.0861333723824309  0.1417018120415399
  0.4222612641931937  0.3255360809967631  0.5718147222961606
  0.9138779659964673  0.8185232569078214  0.0700764156777661
  0.8761338067194453  0.1337488204532852  0.4022701439558723
  0.4157240012923602  0.6741668219484266  0.9189325882040608
  0.0601391798601962  0.2690099437981476  0.4381807195611722
  0.4677534544008000  0.9181889718668444  0.8743031888790342
  0.5850943829861824  0.1427149177850933  0.5809654783181988
  0.1007318872349685  0.6859188168448334  0.0654404574677100
 
  0.72205423E-02  0.86271080E-02  0.63692824E-02
  0.32237366E-02  0.50096506E-02  0.50492995E-02
  0.64696705E-03  0.34963283E-02  0.12745312E-03
  0.43874865E-02 -0.92746240E-02 -0.91092410E-02
 -0.61413541E-02  0.99832583E-02 -0.53910876E-03
 -0.17085934E-02  0.69380732E-03  0.48458469E-02
 -0.81641203E-02 -0.14026566E-02  0.96705729E-02
 -0.18528933E-02  0.10137812E-01 -0.86322924E-03
 -0.88569294E-02 -0.23050515E-02  0.43087779E-02
  0.17933235E-02  0.13246016E-01  0.30462541E-02
 -0.14453366E-02 -0.32337008E-02  0.22332523E-02
  0.58540628E-02  0.12029768E-02  0.33930271E-02
 -0.27858501E-02 -0.97221259E-03 -0.72222600E-02
  0.62237893E-02 -0.17186238E-02  0.60450836E-03
 -0.95505229E-03  0.32817690E-02 -0.37183199E-02
 -0.43228833E-02 -0.41695234E-02  0.91994629E-03
  0.17248863E-02 -0.14517512E-02  0.45433008E-02
 -0.18908323E-02  0.36030429E-02  0.41113709E-02
 -0.25443489E-02  0.36767965E-03 -0.70699998E-02
 -0.33499769E-02  0.49272866E-03 -0.25290695E-02
  0.30828181E-02 -0.55665616E-02  0.70482421E-03
 -0.10472920E-01 -0.49785636E-03 -0.90223544E-02
 -0.11690351E-01 -0.60043319E-03 -0.22992349E-02
 -0.19021502E-02  0.54667815E-02  0.63236835E-02
  0.58440012E-02 -0.46604863E-02  0.68343646E-02
 -0.80539002E-02 -0.54105113E-03 -0.67141774E-02
 -0.34152888E-03  0.16107192E-02 -0.85338648E-02
  0.66622994E-02  0.76546200E-02  0.82437288E-03
 -0.33632325E-02 -0.97571957E-03  0.64040151E-02
  0.62848746E-02  0.32782810E-02  0.57722130E-02
 -0.43400961E-02 -0.17583318E-02 -0.41029973E-02
 -0.37941352E-02  0.12213956E-02 -0.94684015E-02
 -0.44324445E-02 -0.39953247E-02  0.28146256E-02
 -0.34933617E-03 -0.18332433E-02  0.13426308E-02
 -0.15507604E-02  0.29290152E-02  0.39110028E-03
 -0.44282755E-02 -0.54568068E-02  0.28717748E-02
  0.28738694E-02  0.14944991E-01 -0.40398327E-02
 -0.22871739E-02 -0.13135560E-02 -0.57655959E-02
  0.30001979E-03 -0.16487668E-02 -0.39541111E-02
 -0.19901688E-02 -0.62883135E-02 -0.10261742E-01
  0.21206634E-02  0.42116757E-03  0.30660615E-02
 -0.14771630E-02 -0.16945822E-03  0.57755477E-02
 -0.68316843E-02 -0.10000077E-01 -0.68323230E-03
 -0.81906138E-02  0.27675528E-02 -0.41323471E-02
  0.27578398E-03  0.49122241E-02  0.44333690E-02
 -0.47797087E-02 -0.43060723E-02 -0.80865590E-02
 -0.50503302E-02 -0.29236294E-02  0.36716176E-02
 -0.27841220E-02 -0.29350247E-02 -0.74254519E-03
 -0.11749506E-01  0.45540964E-02 -0.28890452E-02
 -0.49702947E-02  0.84738545E-02  0.39210249E-02
 -0.86915323E-02 -0.25311669E-02  0.15355054E-03
 -0.20472461E-02  0.78429007E-02  0.44775914E-02
  0.56873766E-02  0.42112915E-03 -0.99495455E-02
 -0.46724425E-02  0.23427391E-02  0.71869480E-02
 -0.10007054E-02 -0.58775430E-03  0.44133961E-02
  0.17832981E-02 -0.70708155E-02  0.61073534E-02
  0.68014097E-02  0.79055474E-02 -0.13561738E-02
 -0.89588137E-02 -0.36728394E-03  0.39721372E-02
  0.12508573E-01 -0.87645635E-03  0.86746801E-02
 -0.93889441E-03 -0.14182754E-02  0.11625280E-01
 -0.11371436E-03  0.41614820E-02 -0.77808871E-02
  0.14455766E-01  0.22952254E-02  0.17026591E-01
 -0.33853032E-02  0.13950195E-02  0.48685821E-02
  0.52551857E-03 -0.83862984E-02  0.20771043E-02
  0.92808563E-02 -0.53485106E-02 -0.29889405E-02
 -0.84875063E-02  0.91309704E-03 -0.72923131E-03
 -0.15143326E-02 -0.55377760E-02  0.32274621E-02
  0.43746396E-02  0.96530414E-02 -0.72065739E-03
 -0.32288917E-02 -0.40561172E-02  0.34093850E-02
 -0.68559846E-03 -0.44088644E-02 -0.16175373E-02
  0.54088934E-02 -0.46070179E-02  0.16266101E-02
 -0.57582123E-02  0.77892146E-03  0.51432542E-02
 -0.22300747E-02 -0.12838609E-01 -0.18693392E-03
  0.23025657E-03  0.28438996E-02  0.54786219E-02
 -0.17465661E-03 -0.38867995E-02  0.38366896E-02
 -0.42999217E-02  0.11470677E-02 -0.39184021E-03
  0.50746418E-02 -0.32456122E-03 -0.70944966E-02
  0.26434125E-02 -0.97218248E-02 -0.95071769E-03
 -0.15968284E-03 -0.36322363E-02  0.10852138E-01
 -0.86884134E-02  0.17375451E-02 -0.64743125E-02
  0.59274971E-02  0.13240852E-01 -0.63360602E-02
 -0.19974581E-02 -0.47546964E-02 -0.25988862E-02
 -0.49055002E-02  0.44892352E-02 -0.14700724E-02
  0.37786688E-02  0.27594783E-02  0.17585052E-02
  0.31663672E-02 -0.94225606E-02  0.38921154E-02
 -0.33846924E-02  0.47205226E-03 -0.10676111E-01
  0.40228213E-02  0.75574622E-03  0.40491694E-02
 -0.23180030E-02  0.14297639E-02 -0.34677961E-02
  0.23775502E-02 -0.69636451E-02  0.18395092E-02
  0.21937579E-02  0.32603273E-03 -0.22597571E-02
 -0.58330679E-02  0.30508561E-02 -0.17784027E-03
 -0.34748208E-02 -0.57220192E-02 -0.31412123E-02
  0.33594161E-02  0.66735030E-03 -0.22079689E-02
  0.37762857E-02  0.95231536E-02  0.51181035E-02
 -0.19232848E-02  0.26549705E-02  0.35018352E-02
 -0.16301322E-02  0.49741768E-03  0.42418733E-02
  0.34127090E-02 -0.10048049E-02  0.46812576E-02
  0.17721303E-02 -0.46095561E-02 -0.91933812E-03
 -0.37452694E-02 -0.19883977E-02  0.68590681E-02
  0.20971448E-02 -0.73562438E-04 -0.34239163E-02
  0.32590079E-02 -0.27435692E-03  0.26403807E-02
 -0.23782640E-02  0.48563109E-03  0.18439893E-02
 -0.81214467E-03 -0.14815360E-02 -0.30682401E-02
  0.97324981E-02  0.24559122E-02  0.12986267E-02
 -0.32969622E-02  0.50967209E-03 -0.43294286E-02
  0.23536348E-02 -0.32588612E-02  0.33245068E-02
 -0.31984844E-04  0.23921289E-03  0.47871638E-02
 -0.63251152E-02 -0.49382834E-02 -0.30700580E-03
  0.80656430E-03  0.82708436E-02  0.27226061E-02
 -0.16840476E-02 -0.36721873E-02 -0.25728217E-02
  0.98591003E-03 -0.26302413E-02 -0.41773460E-02
  0.19046988E-02 -0.14474260E-02 -0.20795028E-02
  0.10814288E-01  0.82272424E-04 -0.69418006E-03
  0.65529746E-02 -0.72877318E-02  0.31550335E-02
  0.21368265E-02 -0.16617641E-02 -0.94057064E-02
 -0.32078148E-02  0.16635829E-02 -0.24650163E-02
  0.21750921E-02  0.33065394E-02 -0.72805517E-02
  0.70097401E-02  0.38586222E-02 -0.24034783E-02
 -0.11932499E-02  0.11459866E-01 -0.60828373E-02
  0.70884821E-03 -0.10675738E-01 -0.84201243E-03
  0.53254305E-02 -0.24344724E-02 -0.82082279E-03
  0.52365786E-03 -0.20599148E-02 -0.91272651E-03
 -0.47108973E-02 -0.62577092E-02 -0.12631515E-01
 -0.37926798E-02 -0.25968150E-02 -0.40587020E-02
 -0.81703507E-03 -0.22532076E-02 -0.48274659E-02
  0.34733623E-02  0.46155943E-03 -0.27965350E-02
 -0.48405259E-02 -0.51827106E-02 -0.64522960E-02
  0.49063010E-03 -0.57076197E-02  0.15501236E-02
 -0.88291569E-02 -0.32578065E-02 -0.79310966E-02
 -0.18629603E-02 -0.36834063E-02  0.15350740E-02
 -0.19142495E-02  0.82870939E-02  0.63393508E-03
  0.46284296E-03 -0.63728146E-02  0.15192341E-02
  0.39889196E-02 -0.32470588E-03  0.24251129E-03
  0.33101774E-02  0.39416653E-02  0.71315739E-02
 -0.54124184E-02 -0.29030099E-02 -0.67538745E-02
  0.40921680E-02 -0.26883086E-03 -0.28136076E-03
  0.10503330E-01 -0.10136125E-01 -0.71114703E-03
 -0.31820796E-02  0.20619567E-02  0.31101660E-02
  0.18447230E-02 -0.46143209E-02 -0.24221922E-03
  0.21074808E-02  0.42657598E-02 -0.15136795E-02
  0.37935756E-02 -0.17239569E-02  0.15392605E-03
 -0.48142681E-02  0.35132822E-02  0.38767634E-02
  0.37458222E-02 -0.11631760E-02 -0.30886590E-03
 -0.93605290E-02 -0.62986622E-02 -0.29971581E-02
  0.38069269E-03 -0.42261396E-02 -0.32282945E-02
 -0.43192587E-02 -0.84364814E-04  0.28393893E-02
  0.82208536E-02  0.17456744E-02  0.63941662E-02
 -0.94862675E-03  0.43449107E-02 -0.81262795E-02
 -0.16033105E-02  0.54477334E-02 -0.66420830E-02
 -0.20172356E-02 -0.52866009E-02 -0.91164107E-03
  0.44686052E-02  0.96533997E-02  0.57148768E-03
  0.24441481E-02  0.73304010E-02  0.44428517E-03
  0.29207921E-02  0.58531864E-02 -0.82649444E-03
  0.35059329E-02 -0.75726474E-02 -0.29387682E-03
  0.26554637E-03 -0.23171757E-02 -0.22982926E-02
  0.13176112E-02 -0.78180590E-03  0.10487070E-02
 -0.48261919E-02 -0.29709920E-02 -0.87313314E-02
 -0.17256066E-02  0.47343732E-02 -0.20020785E-02
 -0.33981967E-03 -0.88005140E-02 -0.16857028E-02
  0.44710503E-02  0.12190521E-03  0.36511989E-02
  0.43577656E-02  0.58753404E-02  0.14527163E-02
 -0.55591785E-03  0.33375179E-02  0.97187926E-02
 -0.17860496E-02  0.15874916E-02  0.49459312E-02
  0.35608873E-02  0.91253958E-02  0.18202546E-02
 -0.41295339E-03  0.11878152E-02  0.28578149E-02
 -0.39130932E-02  0.37303292E-02  0.78529686E-03
  0.46311281E-02 -0.24798583E-02  0.13758913E-02
  0.10121211E-01 -0.76676516E-02  0.53338767E-02
  0.29200169E-02 -0.43587765E-02  0.40707848E-02
 -0.14309191E-02  0.27306557E-02  0.35860384E-02
  0.40412366E-02  0.53617819E-02  0.21135901E-02
  0.21162087E-02  0.11238060E-02  0.88888579E-03
  0.24307567E-02 -0.77452655E-03 -0.10679153E-02
 -0.34456055E-02  0.30489093E-03  0.56889580E-02
 -0.46538606E-02 -0.59699454E-02  0.48984595E-02
  0.40423363E-02  0.49479703E-02 -0.51668420E-02
  0.19934521E-02  0.65911027E-03  0.32925361E-02
 -0.43316020E-02  0.37373599E-02  0.62725779E-02
  0.15179643E-01  0.83356064E-03 -0.44408735E-02
  0.75882140E-02  0.45173440E-02  0.14151329E-03
 -0.44071358E-02  0.18270800E-02 -0.77358604E-03
  0.24479661E-02 -0.45051626E-02  0.47801539E-02
 -0.50904506E-02  0.39177053E-02 -0.62874402E-02
 -0.19878449E-03 -0.33358991E-02  0.45318489E-02
 -0.53590553E-02  0.53395990E-02 -0.30963646E-03
  0.60165224E-03 -0.38552399E-02  0.52753422E-02
 -0.61314357E-03  0.42949772E-02  0.61123984E-02
 -0.29316084E-02 -0.21494161E-02 -0.46413578E-02
  0.15097003E-02  0.93726213E-02 -0.15455611E-02
 -0.23015518E-02 -0.19694121E-02  0.43949852E-03
 -0.33338546E-02  0.20205504E-03 -0.21470655E-02
 -0.11149204E-03 -0.18776297E-02 -0.46912728E-02
 -0.39963591E-02  0.39246263E-02 -0.23024033E-02
  0.76017101E-02 -0.12939611E-01 -0.89171761E-02
 -0.50441917E-02  0.41906304E-02  0.58255651E-03
  0.16829318E-02  0.80207481E-02 -0.10651477E-01
 -0.41761200E-02  0.22694746E-02 -0.17332644E-02
  0.29002542E-02 -0.11050478E-02 -0.37510796E-03
  0.43030572E-02 -0.68930485E-02 -0.35515017E-02
 -0.37885392E-02 -0.74859486E-02 -0.65500578E-02
 -0.65715513E-02  0.38449364E-02 -0.38729830E-03
  0.77230047E-02  0.31015050E-02  0.65933753E-02
 -0.53173997E-03 -0.22681437E-02 -0.12758883E-02
 -0.10533406E-02 -0.16117458E-02 -0.46833300E-02
 -0.14173870E-02  0.15498013E-02  0.21765946E-02
 -0.71752778E-02  0.70126378E-02 -0.37237728E-02
  0.23970600E-03 -0.15075888E-02  0.43260464E-02
 -0.81733852E-02  0.29636879E-02 -0.49892064E-02
 
           1
   2.00000000000000     
  0.72286519E+00  0.43511397E-03  0.00000000E+00  0.00000000E+00
  0.13780488E-01  0.13892333E-01  0.11311883E+00
  0.55151181E+00  0.45163088E+00  0.75942035E+00
  0.53962857E+00  0.53922258E+00  0.87317416E+00
  0.83583227E-02  0.94229842E+00  0.34949962E+00
  0.69401837E+00  0.94778389E+00  0.85400866E+00
  0.11432257E+00  0.43607382E+00  0.38047792E+00
  0.10434688E-01  0.51243260E+00  0.21356873E-01
  0.22815559E+00  0.20864796E+00  0.24221653E+00
  0.73514650E+00  0.99896855E+00  0.61692268E+00
  0.73349229E+00  0.27237870E+00  0.73891950E+00
  0.75771254E+00  0.68106071E+00  0.36628075E+00
  0.31390474E+00  0.50975961E+00  0.88580403E+00
  0.70647800E+00  0.17435418E+00  0.16905854E+00
  0.26471804E+00  0.74592168E+00  0.62162262E+00
  0.98134085E+00  0.99553782E+00  0.86195375E+00
  0.46350275E+00  0.50606421E+00  0.36454390E+00
  0.99088112E+00  0.29359997E-01  0.62078380E+00
  0.95719823E+00  0.50333052E+00  0.62350700E+00
  0.32666189E+00  0.36018964E-01  0.11602993E+00
  0.42597316E-01  0.49194216E+00  0.86296196E+00
  0.49788793E+00  0.13267233E-01  0.36587835E+00
  0.25085874E+00  0.95587676E+00  0.36402688E+00
  0.78725425E+00  0.56646328E+00  0.88838791E+00
  0.65582763E+00  0.48875926E+00  0.63074502E+00
  0.25324036E+00  0.81920296E+00  0.12866966E+00
  0.20004890E+00  0.27073607E+00  0.61341780E+00
  0.76113966E+00  0.72179184E+00  0.11885796E+00
  0.75179011E+00  0.21901085E+00  0.47613653E+00
  0.50663368E+00  0.72146152E+00  0.48821714E+00
  0.52927857E+00  0.17380578E-01  0.22920687E-01
  0.98662732E+00  0.69786414E-01  0.46452619E+00
  0.49063059E+00  0.74143284E+00  0.70607681E+00
  0.98084007E+00  0.71275379E+00  0.25682436E+00
  0.47457678E+00  0.20732834E+00  0.75228195E+00
  0.21562457E-01  0.79698664E-02  0.98313348E+00
  0.50621702E+00  0.21701897E+00  0.48370789E+00
  0.52158606E+00  0.70364738E+00  0.66074710E-02
  0.71508089E+00  0.24570718E+00  0.35330883E+00
  0.99357071E+00  0.76874884E+00  0.75492534E+00
  0.51060139E+00  0.73962753E+00  0.24681459E+00
  0.88056177E-02  0.97840924E+00  0.24043845E+00
  0.52623477E+00  0.45273873E+00  0.25359824E-01
  0.49301908E+00  0.98449720E+00  0.76679579E+00
  0.96243209E+00  0.47091446E+00  0.24950354E+00
  0.22309131E+00  0.22865113E+00  0.10770501E-01
  0.76531763E+00  0.72269660E+00  0.50468493E+00
  0.26541554E+00  0.79565060E+00  0.48314628E+00
  0.70237689E+00  0.23346402E+00  0.23867010E-01
  0.96908503E+00  0.58489046E-02  0.74594552E+00
  0.46870877E+00  0.47427631E+00  0.24725617E+00
  0.34469603E-01  0.51078831E+00  0.74986179E+00
  0.51666700E+00  0.13047801E-01  0.23304113E+00
  0.26824861E+00  0.29281360E+00  0.49531672E+00
  0.77219840E+00  0.75621934E+00  0.98806393E+00
  0.75862232E+00  0.24103024E+00  0.59977207E+00
  0.26631313E+00  0.74223229E+00  0.65931737E-02
  0.92349440E+00  0.21995030E+00  0.98553026E+00
  0.49285571E+00  0.47597295E+00  0.51418835E+00
  0.48469185E+00  0.50435538E+00  0.13738631E+00
  0.13381950E-01  0.45225609E+00  0.48803825E+00
  0.28094949E+00  0.97886294E+00  0.89606708E+00
  0.16425170E-01  0.75263150E+00  0.48736866E+00
  0.17524834E-02  0.76980142E+00  0.97649712E+00
  0.52413126E+00  0.98155255E+00  0.50675141E+00
  0.49940276E+00  0.24502288E+00  0.26685542E+00
  0.71439210E+00  0.73568410E+00  0.79022613E+00
  0.25110169E+00  0.71492484E+00  0.24411755E+00
  0.98938999E+00  0.26248187E+00  0.74260771E+00
  0.78096448E+00  0.74187593E+00  0.23634331E+00
  0.24028954E+00  0.22398321E+00  0.75172212E+00
  0.91372115E+00  0.25662320E+00  0.26596051E+00
  0.25435880E+00  0.72394378E+00  0.74344998E+00
  0.17516674E+00  0.54453869E+00  0.11889341E+00
  0.48979516E+00  0.83403872E-02  0.63414359E+00
  0.73966755E+00  0.24581261E+00  0.88092016E+00
  0.23989566E+00  0.24374766E+00  0.35995869E+00
  0.24058499E+00  0.73157356E+00  0.88069213E+00
  0.73364314E+00  0.97291113E+00  0.36482290E+00
  0.74558434E+00  0.96769704E+00  0.10745859E+00
  0.31867708E+00  0.47588886E+00  0.61292883E+00
  0.50985396E+00  0.25289310E+00  0.96152866E+00
  0.21320606E+00  0.69507892E+00  0.36582323E+00
  0.74508097E+00  0.74384736E+00  0.61849024E+00
  0.25938191E+00  0.27617894E+00  0.11842689E+00
  0.22568797E+00  0.25910597E-01  0.62940764E+00
  0.74255719E+00  0.48410810E+00  0.12645359E+00
  0.24271910E+00  0.23100052E+00  0.88263656E+00
  0.74618346E+00  0.45488738E+00  0.37223995E+00
  0.26652154E+00  0.96837688E+00  0.25353461E+00
  0.78801063E+00  0.52397012E+00  0.75104878E+00
  0.23009790E+00  0.65380411E-02  0.75366476E+00
  0.70541853E+00  0.48940195E+00  0.24987167E+00
  0.24754456E+00  0.99520152E+00  0.64872023E-03
  0.73504444E+00  0.47025029E+00  0.50834101E+00
  0.25682840E+00  0.26287092E-01  0.49356813E+00
  0.76449827E+00  0.48733757E+00  0.18460349E-02
  0.73711735E+00  0.64995318E-03  0.73097984E+00
  0.22567699E+00  0.46678216E+00  0.24912857E+00
  0.27555210E+00  0.48293851E+00  0.74761034E+00
  0.77956408E+00  0.97640054E+00  0.23659546E+00
  0.25484771E+00  0.54682609E+00  0.49606481E+00
  0.75265834E+00  0.99576331E+00  0.98510678E+00
  0.73868920E+00  0.97448131E+00  0.49256706E+00
  0.25156720E+00  0.48338354E+00  0.99801054E+00
  0.97444951E+00  0.23121875E+00  0.37634005E+00
  0.50728734E+00  0.77811964E+00  0.87193908E+00
  0.48981413E+00  0.24003347E+00  0.62373822E+00
  0.99649227E+00  0.72750950E+00  0.11768299E+00
  0.98712429E+00  0.24280852E+00  0.88159582E+00
  0.49713823E+00  0.74231804E+00  0.36143536E+00
  0.10156800E-01  0.75265546E+00  0.62341362E+00
  0.48859480E+00  0.23378557E+00  0.12547581E+00
  0.15814991E+00  0.38883168E+00  0.59180202E-01
  0.66220333E+00  0.85930375E+00  0.53524892E+00
  0.65224393E+00  0.94801726E-01  0.94035883E+00
  0.15149613E+00  0.63970680E+00  0.45913919E+00
  0.33133019E+00  0.37158173E+00  0.94943113E+00
  0.83959483E+00  0.86777218E+00  0.44990040E+00
  0.84609244E+00  0.81832284E-01  0.40408181E-01
  0.38256798E+00  0.61406854E+00  0.54477392E+00
  0.87434862E+00  0.65411303E-01  0.19201812E+00
  0.37300792E+00  0.57922321E+00  0.69637327E+00
  0.86071938E+00  0.87299146E+00  0.29399678E+00
  0.37380779E+00  0.37243878E+00  0.79654040E+00
  0.12669041E+00  0.57204743E+00  0.29225107E+00
  0.63742130E+00  0.10264612E+00  0.76950525E+00
  0.12308741E+00  0.36410625E+00  0.20528068E+00
  0.63198542E+00  0.89223303E+00  0.68537600E+00
  0.87005779E+00  0.59811946E+00  0.97081186E+00
  0.33900014E+00  0.13376170E+00  0.44841412E+00
  0.84249523E+00  0.37027064E+00  0.53953816E+00
  0.35263473E+00  0.90427762E+00  0.52709021E-01
  0.13184677E+00  0.11206440E+00  0.54531743E+00
  0.65664970E+00  0.58051351E+00  0.50097926E-01
  0.15982373E+00  0.87592763E+00  0.95750250E+00
  0.61760821E+00  0.36596727E+00  0.46430110E+00