Na88 Sn16 P8 S96                        
   1.00000000000000     
    13.4813327813000008    0.0000000000000000    0.0000000000000000
     0.0000000000000000   13.4813327813000008    0.0000000000000000
     0.0000000000000000    0.0000000000000000   26.9626655626000016
   Na   Sn   P    S 
    88    16     8    96
Direct
  0.0336492642213757  0.0379296614864486  0.1122715332375835
  0.4830580812426662  0.0587384610515860  0.3657498623200859
  0.7042057714033054  0.7560926733979371  0.8719391917366291
  0.7368336810507224  0.2667635645096689  0.3908546925549872
  0.2460983532121034  0.2934019850158785  0.8870017676091583
  0.2176450783708480  0.7643701643521630  0.7473516182451188
  0.7659096973838531  0.7508709962165919  0.1654911716009162
  0.2519056120462048  0.2513213645153485  0.1158798457512930
  0.9536694835711655  0.2613160953740518  0.7319458891517499
  0.7112848348229877  0.0325052126402885  0.1249254780294557
  0.7412008961595754  0.7612457410114033  0.5001668028619171
  0.5074296169622902  0.0317867164047694  0.7612567774783043
  0.4733145356230439  0.0297967157856482  0.9952114524214474
  0.4945048365615595  0.4531923269388381  0.5128654450569953
  0.7385128722230085  0.9783921015694621  0.8885413530825712
  0.7303877838726555  0.9651475821857770  0.3767887721342649
  0.9873718218969226  0.2089091783446639  0.2423308190152419
  0.0139360227976211  0.0263324911748345  0.6151342832331291
  0.2230309708365049  0.7466722428732254  0.2570925820341005
  0.9500309699181393  0.7418497556581378  0.7947694565984299
  0.4707125951520169  0.0081473052359943  0.1288730139966214
  0.2138375919351781  0.7704720687544694  0.3838654767799908
  0.2642261037394165  0.9963658005880490  0.6263427246512105
  0.4868202422489207  0.4818688992101153  0.6382360987833147
  0.4918836732409091  0.7953604347746391  0.0153824741162570
  0.8016096891237547  0.2712789243853932  0.6304664998846725
  0.9937884982075085  0.5878406494351832  0.0206998596674666
  0.0106371517350473  0.5331340762538879  0.4899247786904533
  0.0027166324320839  0.7535746725345495  0.2912820368020717
  0.7450584396751809  0.7012930571556569  0.0084846061336219
  0.4862049298902029  0.9667526351160284  0.4897983400535577
  0.2055477599357018  0.7862419875431211  0.8860542805775251
  0.2342487756800835  0.0342872869491215  0.3818019697624932
  0.7569189616841798  0.4686874232519989  0.8743910611647387
  0.9872014012731419  0.8860652429651130  0.0242825819300244
  0.2487006003862085  0.2652625430527356  0.3577501402541627
  0.7519830675604100  0.7608633791420361  0.7531782347883854
  0.4975716068857537  0.2590118407946791  0.2708317767099116
  0.7265045968919601  0.5273369217233225  0.6233498800157914
  0.4800154713000873  0.5142345255659374  0.8742106365411837
  0.9831779134452446  0.9380430682280819  0.2192476423255723
  0.6816572706098477  0.2496368569232543  0.7451790494096842
  0.4690765512067857  0.0339743392720822  0.8908803319675055
  0.8052746482525918  0.2316322807622849  0.1240804192014458
  0.4798911488123779  0.4819332554374132  0.2520644261532392
  0.0134244478531485  0.0349728090958011  0.4966288829240185
  0.2637010100547914  0.7469761730212172  0.6169538082460565
  0.7551150943326087  0.2605609091436039  0.2614722433105165
  0.2113596588480668  0.2606502507403830  0.6389469862626626
  0.5114674085467286  0.5247520224899446  0.4092004503519621
  0.2253310508576991  0.5245678051220823  0.6298365820861649
  0.4848553283281131  0.7292290439148988  0.2444686179451321
  0.0251038678934983  0.0279447271855703  0.7496524432661771
  0.9542579506644896  0.4903436011930977  0.7691530378646176
  0.8538293411472718  0.4699509743635026  0.3797684809776594
  0.4879342641419354  0.9704120016050262  0.6103532461246044
  0.9707605649231829  0.2300210970513483  0.9985719518651691
  0.2198909105622758  0.2495247475659670  0.4921106963998459
  0.5006022564828289  0.3976103468041451  0.0097896639385664
  0.2884335588656300  0.2626097037330350  0.7469903517049600
  0.9827281675331453  0.4176188936972640  0.1369516276912246
  0.6763101989483806  0.7614488552298616  0.6158104466900567
  0.2215640647265613  0.2961411791078002  0.9885101792697750
  0.3628188826128722  0.7118416168656413  0.4814285372723544
  0.3210504096546906  0.7728338256435595  0.1249610806230772
  0.2413137782630863  0.0095923142599209  0.8990874599041151
  0.4689028408135957  0.5609428001445239  0.1220123197521885
  0.9914807875990953  0.5017078513693990  0.6309168777304291
  0.7361041297068552  0.7392094284964401  0.2924462359007649
  0.7362693590363425  0.2331446460358810  0.0036875977867903
  0.9794172931471175  0.5232189563024164  0.8946556694202009
  0.0351643729392280  0.0402232654626413  0.8664278527437713
  0.2041068753251685  0.5442437431845143  0.1159448383782374
  0.5637689084021095  0.2337730551003939  0.4869717347441754
  0.7252786398727687  0.2353682121694532  0.8554369931236038
  0.4863926115250972  0.7706165225083943  0.7556788386883170
  0.2603916795712971  0.2555507368653109  0.2306744729651374
  0.4827504964632657  0.9802365418685277  0.2561443357081618
  0.9831009206562605  0.4584213337404662  0.2652140043164041
  0.9690620774787513  0.2155990512763148  0.5155723688527644
  0.2459416960821512  0.5283759633711668  0.8817738981485186
  0.9547453096694876  0.9982527699807094  0.3509087962847898
  0.9856091452859218  0.7694950953018082  0.4939999370759652
  0.2292425323488575  0.7889661890668167  0.0091894422837954
  0.7521940911669378  0.9894414380297962  0.6319172465800551
  0.7306975962714436  0.4826782623988166  0.1360100712825550
  0.4708105089981587  0.4659398355413164  0.7647499159918179
  0.2463900826937291  0.5450850498723608  0.3835019995267017
  0.2216299383632778  0.0019256664710225  0.2550188054436937
  0.7046146704731313  0.5415182407872607  0.7556944093559217
  0.2592092828566525  0.0154019529675137  0.7596968308887418
  0.7484456261769287  0.4876475361330121  0.2611078471736688
  0.2255809723405636  0.0408854935849952  0.0117939546208759
  0.7525175728259065  0.5264428857012030  0.4884128095521661
  0.2625812239975144  0.0077253851102298  0.5023583539804921
  0.7609416250118477  0.4565198886349320  0.9921139652713586
  0.7537248893917703  0.9939549751589991  0.7605222471081302
  0.2343979366759276  0.5118311630259169  0.2556697638006433
  0.2075616395883784  0.5037573564170231  0.7569461691903776
  0.7275792637558975  0.0015440085125949  0.2517382720079729
  0.2660959302337255  0.4867673090465693  0.5032041677068364
  0.7354429007962859  0.9716299697776282  0.9941046555010620
  0.7579216480130916  0.0087875996013285  0.5009316332907752
  0.2727906807128090  0.5412161753474652  0.0044004187502286
  0.0116612446088161  0.2191381029365173  0.3842583610849738
  0.4596793155364978  0.7650609639104549  0.8861691558894084
  0.4897236676558391  0.2403241202694866  0.6292927964870025
  0.0012571205191536  0.7243252507279021  0.1324611276024514
  0.9879115737816001  0.2755735114623898  0.8652307887373731
  0.4892850632793980  0.7731247164590276  0.3765022195466097
  0.9955655520032626  0.7540831291464872  0.6378984224643477
  0.5117629262122817  0.2748460046255059  0.1376408413882044
  0.1537271244717897  0.4393633811514598  0.0443197425889789
  0.6460943106843917  0.9109261294770525  0.5486557144251638
  0.6257570278803342  0.0841357553875993  0.9461617975594667
  0.1604655008158846  0.6117612869001934  0.4592327278464651
  0.3468329597842596  0.4219125649655991  0.9517929991721328
  0.8537913940539831  0.9107337280456871  0.4468863540075406
  0.8528611869040538  0.0588168911506669  0.0513128865666987
  0.3777819283236700  0.5676395804372316  0.5666115522775383
  0.8440772095474280  0.0937505306692030  0.1944243370579288
  0.3149746703564505  0.6063894969945511  0.7006504973575061
  0.8413639268302140  0.8901946937674818  0.2888055482096906
  0.3330748791734606  0.4132189722908710  0.8146210639802561
  0.1499522870321586  0.6193758712128696  0.3097400222254225
  0.6436892313216189  0.0924632978351804  0.8142698759056805
  0.1223990504830741  0.4071165041236710  0.1971654517064355
  0.6553442378738119  0.8911735713123982  0.7082076240777373
  0.8430251745947680  0.5897456140685519  0.9458485543425043
  0.3713627428614910  0.1109454123402842  0.4635757506031098
  0.8743637993856622  0.4413026000712373  0.5552861402629489
  0.3377182326252578  0.9498872061772149  0.0595075723212742
  0.1473754785884173  0.1111587907701472  0.5458421843443551
  0.6463125754402541  0.5268867187026661  0.0512507509267830
  0.1238321114018475  0.9268792563568746  0.9626355442905412
  0.6450724206111746  0.4151001508564980  0.4416167623433697
  0.6511441967195276  0.3892647551409941  0.3183586485524929
  0.1602668864698664  0.9084093066835476  0.8141865350353711
  0.1647482632645260  0.1044649834296111  0.6930197058513351
  0.6483227954591547  0.5918329175012905  0.2050753028956462
  0.8079634914023618  0.4348272455758331  0.6977497893021438
  0.3239574752463581  0.9275136743089596  0.1961437728447694
  0.3421004546513632  0.1003530148955311  0.3039330132768434
  0.7999152652360184  0.6252535524967593  0.8127013744544058
  0.1188784004489080  0.1489675165532919  0.0535056180956251
  0.6254512802866109  0.6099844895817699  0.5435084429488046
  0.6570260984484397  0.3645027303488846  0.9395157736507094
  0.1392989074773283  0.9165491610478909  0.4487103279849387
  0.3506199919306150  0.1487601645714283  0.9620682115812220
  0.8385087278082893  0.6492320700336079  0.4408245199129052
  0.8807463168198646  0.3692302663395091  0.0490802055867785
  0.3433008675934868  0.8804700545924216  0.5494934060338604
  0.1261795464178929  0.0943959665438567  0.1946641384126527
  0.5955767016396896  0.6386842462586944  0.6954049072895174
  0.1338204229303847  0.9021935500428834  0.3069835472192015
  0.6239754791373193  0.4109534959827871  0.8055488011692078
  0.8756579710352397  0.5877394373743215  0.3024552175062035
  0.3491646244290317  0.1261098370470286  0.8136043625857350
  0.8409890460602077  0.3883624669279090  0.2025888939387549
  0.3735131684090149  0.9052292650646802  0.7130824653842166
  0.8392007205600568  0.8549314695637340  0.9536941734448707
  0.3686067614738410  0.4118191289741637  0.4382287008166086
  0.8407890043705318  0.0815221404414452  0.5674317280963838
  0.3931364163643506  0.6472323159980982  0.0467854391693601
  0.1489207344154025  0.4040406391631218  0.5539901627865795
  0.6762973788903907  0.8520995161151435  0.0541694696680435
  0.1592701599167310  0.6454964302627894  0.9583008258290278
  0.6433003793042509  0.0793270013061891  0.4373856371859930
  0.3243849435787689  0.3853675772821782  0.2984283605049183
  0.8605788173379725  0.8927282346189815  0.8116554006399465
  0.8449535520064798  0.0994201648998501  0.7062617895283462
  0.3257003016137616  0.6038437656473005  0.1906984585451005
  0.0990407097152217  0.3951796309196645  0.7066589083401038
  0.6165134505636454  0.9242127105214111  0.1925378807064352
  0.6435257567875781  0.1091805881441681  0.3111976090042932
  0.1189247242002793  0.6068515227538784  0.8091624175478523
  0.0908859472213052  0.1647136196078888  0.3303885220964582
  0.5329823054742607  0.8660212922797267  0.8403396063135575
  0.5633428486836808  0.1423249681242015  0.6687852530478198
  0.8955546283604933  0.6211134119709738  0.1124674724854706
  0.3907312539996550  0.3152982150954962  0.6685382015982645
  0.9455410887771010  0.8635256371133075  0.1341851856520517
  0.8985643840983167  0.2937637421754136  0.3468087168261192
  0.5684090468895778  0.6888333642352086  0.9261255960323688
  0.8843147155217830  0.3605688672657397  0.8220333937793427
  0.4129860775567081  0.6784151646607189  0.3255733313313133
  0.9073983487640096  0.6715127502357183  0.6821473255351194
  0.6061702849558928  0.2050839453141667  0.0887449556405799
  0.0846774330134677  0.8644585391193985  0.6719525264885949
  0.4203369071083244  0.3677937116211578  0.1003396255452270
  0.0667369491046791  0.3510521313616104  0.9193991172865454
  0.3781550106485556  0.8765539543748483  0.3975359144796826
  0.9000963733101317  0.8406689694153484  0.5940677365775789
  0.5905320123297737  0.3534856620685312  0.1868565252803241
  0.0886669829734501  0.2132672888028919  0.8158400348609521
  0.5782168335367497  0.8461890537953738  0.3275358511278487
  0.9123603942609033  0.1621400315846925  0.9026013911151298
  0.5523221710161639  0.7198920375568261  0.4403428091934733
  0.0900685139334296  0.6796660797445500  0.5961131530446078
  0.4131710691355215  0.1746740151189864  0.1737532848448925
  0.5901670040601639  0.3223763898126699  0.5856107026668441
  0.0482486462137512  0.6842256215077169  0.2005994756881746
  0.9335668964203968  0.1285833643219428  0.4296332373921803
  0.3832286810604275  0.8535169819959298  0.9377207008891064
  0.0858413190217879  0.3397063352070818  0.4107969301098947
  0.3662112412014083  0.6979942356954142  0.8414397566873965
  0.4105411054608788  0.1467651051153297  0.5803506520006280
  0.1189614058316802  0.7221992120392542  0.0844402703845482
 
 -0.31377565E-02 -0.27610079E-02  0.14429404E-01
  0.31273950E-02  0.40169602E-02 -0.28231954E-03
  0.18830195E-02  0.64670126E-02  0.22457772E-02
  0.77012578E-02  0.33738614E-02  0.51530300E-02
 -0.10057344E-01  0.66220755E-02  0.41245132E-03
  0.53931172E-02 -0.67663944E-02 -0.41696995E-02
 -0.73100150E-02 -0.27374921E-02  0.53048381E-02
  0.23146394E-02 -0.12579502E-01  0.83349657E-03
 -0.49017346E-02  0.12480421E-01  0.88496638E-02
 -0.58968127E-02 -0.12157578E-02  0.45662301E-02
 -0.46704055E-03  0.12224728E-02 -0.11936981E-02
  0.54731865E-02  0.31913607E-03 -0.11701198E-01
  0.26508971E-02  0.92719470E-02 -0.87806606E-02
 -0.78725932E-02  0.74651001E-02  0.48413904E-02
 -0.85084180E-02  0.56868621E-02  0.98717548E-02
  0.96609838E-02  0.29456813E-02 -0.35696357E-02
  0.43188664E-02 -0.68090200E-02 -0.54077319E-02
 -0.50727061E-02 -0.33222154E-02 -0.27021920E-02
  0.77083368E-02 -0.35901504E-02  0.10152668E-02
 -0.75975632E-03  0.87013608E-02  0.44752266E-03
  0.60734166E-02 -0.79509468E-02 -0.58136177E-02
 -0.39227943E-02 -0.22120642E-02 -0.14352442E-02
 -0.69262673E-02 -0.37158118E-02  0.38828320E-02
 -0.32172664E-02  0.16611058E-01 -0.70210445E-02
 -0.46639687E-02 -0.24369707E-02  0.79179787E-02
  0.49006300E-02  0.53862667E-02  0.50549917E-02
 -0.55556378E-02 -0.18212225E-02  0.17886191E-02
 -0.97538342E-02 -0.13507996E-02  0.49713772E-02
  0.68762693E-02  0.49341018E-02  0.62043382E-03
 -0.60889907E-02 -0.38097122E-02 -0.10483520E-01
  0.31347259E-02 -0.79082328E-02  0.41295766E-02
 -0.74067732E-02  0.33469329E-02  0.11299131E-01
 -0.48685660E-02 -0.11576496E-01  0.55044635E-02
  0.72244045E-03 -0.12497026E-02  0.69590738E-03
 -0.16370849E-02 -0.45791550E-02 -0.33914730E-02
 -0.60148380E-02 -0.58852494E-03 -0.54071241E-02
 -0.47188851E-03  0.45715988E-02  0.54160149E-03
 -0.38732913E-03 -0.81975075E-02 -0.78268942E-02
  0.99678157E-02  0.23511948E-02  0.58608920E-02
 -0.86981724E-02 -0.27009010E-02  0.75485336E-02
 -0.70130759E-02 -0.14938726E-02 -0.64017112E-02
  0.70663154E-02  0.19626187E-02  0.35625309E-03
 -0.89393987E-02 -0.73290320E-02  0.13409314E-01
  0.51576615E-02 -0.13459212E-01 -0.11104293E-01
  0.19531556E-02 -0.13349685E-01  0.78056020E-03
 -0.12081132E-01 -0.24812188E-02 -0.88004457E-02
 -0.22848438E-02 -0.34602822E-02 -0.56621605E-02
  0.14942028E-02  0.11502780E-01  0.12040016E-02
 -0.30809607E-02 -0.70113146E-02 -0.19238328E-02
  0.77014559E-02 -0.35471125E-02 -0.19704252E-02
 -0.99351368E-03 -0.17176067E-03  0.85854038E-04
 -0.51818493E-03 -0.50178088E-03 -0.26589933E-02
  0.37464965E-03 -0.34600860E-02 -0.47348808E-02
  0.74918860E-02  0.11532562E-02 -0.13984754E-01
 -0.73860427E-02 -0.31673124E-02  0.50355345E-02
  0.70613196E-05 -0.54040897E-02 -0.40299514E-02
  0.92621484E-04 -0.32550776E-02 -0.29678571E-02
 -0.35385563E-02  0.19272589E-03 -0.47198048E-02
 -0.83764265E-03 -0.77120495E-02 -0.31194049E-02
 -0.50206084E-02 -0.50665015E-03  0.34814833E-02
  0.16218421E-02  0.19079567E-02  0.92803451E-03
  0.22299476E-02  0.21132212E-02  0.46796031E-03
  0.29329020E-02 -0.50395784E-02  0.22031769E-02
  0.69923507E-02 -0.29506775E-02 -0.42446491E-02
 -0.47963107E-02 -0.27227851E-02 -0.10147699E-01
 -0.82228469E-02  0.51022540E-02 -0.53405159E-02
  0.94829782E-03 -0.62929150E-02  0.79597728E-02
  0.52990092E-02  0.48892696E-02  0.35986149E-02
  0.96729062E-03 -0.98514971E-02  0.24099865E-02
  0.27403156E-02 -0.86284230E-02 -0.43967590E-02
  0.95825571E-02 -0.77331066E-02  0.39100573E-02
 -0.13293811E-01 -0.56450651E-02 -0.35768009E-02
 -0.73450492E-02 -0.76887830E-02 -0.24257621E-02
 -0.88246416E-02  0.15200263E-02 -0.57121419E-03
 -0.47311430E-02 -0.49689745E-02 -0.51081601E-04
  0.10195716E-01  0.13194798E-02  0.10009846E-02
  0.38180350E-02  0.26292650E-02 -0.53283498E-02
 -0.32260304E-02  0.44805167E-02 -0.71806399E-02
 -0.78451035E-03 -0.88571455E-03  0.60159482E-02
 -0.51282957E-02  0.12773307E-01 -0.14968878E-02
  0.99068367E-02 -0.84135622E-02 -0.66209670E-02
  0.13120835E-01 -0.48700244E-02  0.25229259E-02
  0.21713784E-02  0.38324495E-02  0.11300360E-01
 -0.10450812E-02  0.25471541E-02 -0.70025190E-04
  0.56046489E-03 -0.10516947E-01 -0.19382737E-02
 -0.50805427E-03 -0.21126966E-02 -0.15277160E-01
  0.73405937E-02  0.10087848E-01 -0.44633884E-02
 -0.71062746E-02  0.50502837E-02  0.49951522E-02
  0.90119700E-03 -0.18284422E-02  0.11149668E-02
  0.18455787E-02 -0.31540408E-02 -0.28174125E-02
  0.18225836E-02 -0.20114824E-02 -0.42576824E-02
 -0.19208507E-02 -0.15070564E-02  0.21938074E-02
 -0.29232676E-02 -0.10865762E-02  0.68757865E-03
  0.30498126E-02  0.22523231E-02  0.14670945E-02
 -0.96809917E-03  0.24936941E-02 -0.50047779E-02
  0.21127352E-02 -0.18995080E-02  0.11477630E-02
  0.18668680E-02 -0.14392969E-02  0.34473073E-04
  0.45398152E-02 -0.14378892E-02 -0.17464544E-02
  0.20094388E-02 -0.19605447E-02  0.22170185E-02
  0.40717886E-03 -0.30183237E-02 -0.43312696E-02
 -0.36749126E-02  0.17981000E-02  0.32732164E-02
  0.36531778E-04 -0.10101060E-02  0.15630825E-02
 -0.33777319E-02  0.53683316E-02  0.16488209E-02
 -0.47165696E-02 -0.64860259E-03  0.22133564E-04
  0.20871386E-02 -0.43431975E-03 -0.57125312E-02
  0.45625667E-02  0.44957399E-02  0.71601030E-02
 -0.38472148E-02  0.74634138E-02  0.19266990E-02
  0.38152657E-02 -0.15132255E-02 -0.85560467E-02
  0.44429173E-02  0.15361348E-02  0.40394019E-02
  0.56303500E-03  0.55264596E-02  0.13334180E-02
 -0.30759757E-03  0.34520086E-02 -0.20625533E-03
 -0.10127896E-02 -0.20011988E-03 -0.69663172E-03
 -0.59381995E-02  0.29666685E-02  0.49064163E-02
  0.79291850E-02  0.60062005E-03 -0.69543940E-02
  0.14810875E-01 -0.26601225E-02  0.61018267E-02
 -0.67932470E-02 -0.67243047E-02  0.29791342E-02
 -0.65583304E-02 -0.97599682E-03  0.37370559E-02
 -0.66288523E-04 -0.27346389E-02  0.28516196E-02
 -0.37363100E-02 -0.25500713E-02  0.52190361E-03
 -0.19670014E-02 -0.20632807E-02  0.36417542E-02
  0.12088639E-01 -0.89743225E-03  0.93310052E-03
  0.61036587E-02 -0.63717332E-03  0.24325625E-04
  0.38021281E-02  0.47973245E-02 -0.40029561E-02
 -0.47583434E-02  0.38361701E-02  0.85868776E-03
  0.46702415E-02 -0.16432642E-02  0.67017979E-02
 -0.36702463E-02 -0.35387032E-02 -0.42536327E-02
 -0.25788965E-02  0.81643771E-02 -0.70255007E-02
 -0.48537051E-02 -0.50969314E-02 -0.96508971E-02
  0.50549141E-03  0.81402451E-03 -0.10845316E-02
  0.26137539E-02  0.97400200E-02  0.15941930E-02
 -0.22111324E-02  0.15581879E-02  0.72976982E-02
 -0.10201876E-01 -0.17905684E-02 -0.55037678E-02
  0.38701467E-02  0.25281704E-02  0.43434248E-02
 -0.65246736E-02 -0.13760133E-02  0.88865826E-02
 -0.26796964E-02 -0.10539816E-01 -0.52347781E-02
  0.67437117E-02 -0.49745523E-02 -0.93555351E-03
 -0.26429275E-02 -0.17223262E-02  0.10942151E-02
 -0.43461781E-02 -0.31280610E-02  0.93089165E-02
  0.38421343E-02 -0.65183454E-03  0.68563291E-02
 -0.11500413E-01  0.74849160E-02 -0.58644283E-02
  0.51407182E-03  0.57444929E-02  0.11959003E-02
  0.17055301E-02  0.39398362E-02 -0.34001431E-02
  0.69851741E-03  0.31074146E-02 -0.15619228E-02
  0.67911750E-02 -0.45544578E-02  0.81786246E-02
 -0.10001635E-03 -0.57270268E-02 -0.51591162E-02
  0.47188469E-02 -0.44557298E-02 -0.11651828E-02
 -0.35044672E-02 -0.61590299E-03  0.45114124E-02
  0.69114829E-02  0.20700230E-03  0.16646807E-02
 -0.40173628E-02  0.68217824E-02  0.17172690E-01
 -0.45023561E-02  0.12890971E-02  0.39977825E-02
 -0.78461306E-02  0.76029304E-02 -0.13666507E-01
 -0.43221551E-02  0.34794751E-02 -0.62091216E-02
  0.82067533E-02 -0.46705691E-02  0.10414002E-01
  0.23021833E-02  0.38674201E-02  0.13576551E-02
  0.36082729E-02  0.33988808E-03  0.24907634E-02
  0.44023459E-02  0.43091498E-02  0.26684402E-02
 -0.25229953E-02 -0.18364131E-02  0.14778197E-02
 -0.42464551E-02 -0.75892158E-02  0.20465403E-03
  0.25507385E-02  0.32940274E-02 -0.59001550E-02
 -0.35748070E-02  0.48161555E-02  0.75314475E-03
  0.25643576E-03  0.51969973E-02  0.52048181E-02
 -0.15523160E-02 -0.13783079E-03 -0.36851670E-02
  0.46116261E-02  0.47628039E-02 -0.29120391E-02
  0.54290495E-02 -0.52894182E-03 -0.84486412E-02
  0.17224275E-02 -0.51852815E-02 -0.34422546E-02
 -0.40431968E-02 -0.61382200E-02  0.34291759E-02
  0.10592331E-01  0.27232563E-02 -0.46101222E-02
  0.20666132E-02  0.38870704E-02  0.55637800E-02
  0.12702968E-03  0.67191817E-02 -0.42289038E-02
 -0.20470465E-02  0.68384094E-02  0.13119955E-01
 -0.76515104E-02  0.22659271E-02  0.23050783E-02
 -0.59323246E-03 -0.20500547E-02 -0.93221576E-02
  0.72270326E-02 -0.19157608E-02 -0.98649658E-03
  0.48578298E-02 -0.63466340E-02 -0.36627737E-02
 -0.68322695E-02 -0.38990424E-02 -0.10883486E-02
  0.20831046E-02  0.27829811E-02  0.36049962E-02
  0.30413380E-02  0.51066765E-02  0.75234300E-02
  0.13021081E-02  0.16716265E-02  0.58565945E-02
  0.39685833E-02  0.27321373E-02  0.81097532E-03
 -0.21716958E-02 -0.27744670E-02  0.29886014E-03
 -0.54412494E-02  0.92489049E-02  0.72110858E-02
  0.34879451E-04 -0.85062076E-03  0.21757410E-02
  0.37229034E-02 -0.28645179E-03 -0.40239066E-03
 -0.39117877E-04 -0.30583590E-02 -0.18197394E-02
  0.47869695E-02  0.12271608E-01 -0.27430146E-02
 -0.58957223E-02 -0.26905922E-02  0.47377514E-02
  0.74422338E-02 -0.64449110E-02 -0.63402628E-02
 -0.70037385E-02  0.36542809E-02  0.21147965E-02
  0.57865947E-02 -0.83487866E-03  0.14555443E-02
 -0.91061778E-03  0.21944088E-02 -0.34328216E-02
 -0.75156002E-02  0.15427595E-02 -0.63378092E-02
  0.84929062E-02  0.18751379E-02 -0.43099207E-02
  0.22613493E-02  0.21669819E-02  0.71843219E-02
 -0.77547444E-03  0.31613081E-02 -0.34894648E-02
  0.84590158E-02  0.32723424E-02 -0.17551632E-02
  0.99850497E-02  0.54517347E-02 -0.64547015E-02
  0.62925179E-02  0.79004648E-02  0.10291092E-02
 -0.78086192E-02 -0.88177963E-02 -0.21948684E-02
 -0.82248342E-02  0.15114911E-02 -0.59715671E-02
 -0.80894686E-02  0.12027124E-01  0.44879754E-03
 -0.45808886E-02  0.50474484E-02  0.31994872E-02
 -0.69382959E-02 -0.64547293E-02 -0.58718218E-02
  0.67442207E-02  0.28624375E-02  0.55609705E-03
  0.42820509E-02  0.68595858E-04  0.74472335E-03
 -0.37813158E-02  0.40445831E-02  0.15251723E-02
  0.35341447E-02  0.46819427E-03  0.60089498E-02
  0.46977239E-03  0.35965151E-03  0.28669156E-02
 -0.16710094E-02  0.18825087E-02 -0.56038147E-03
 
           1
   2.00000000000000     
  0.10303725E+01 -0.54868916E-03  0.00000000E+00  0.00000000E+00
  0.33183768E-01  0.37520057E-01  0.11334186E+00
  0.48352204E+00  0.59334390E-01  0.36572892E+00
  0.70448512E+00  0.75705208E+00  0.87210578E+00
  0.73797619E+00  0.26726409E+00  0.39123693E+00
  0.24460631E+00  0.29438439E+00  0.88703236E+00
  0.21844517E+00  0.76336635E+00  0.74704232E+00
  0.76482523E+00  0.75046488E+00  0.16588467E+00
  0.25224900E+00  0.24945515E+00  0.11594167E+00
  0.95294230E+00  0.26316761E+00  0.73260233E+00
  0.71041002E+00  0.32324851E-01  0.12526419E+00
  0.74113161E+00  0.76142710E+00  0.50007826E+00
  0.50824158E+00  0.31834061E-01  0.76038882E+00
  0.47370780E+00  0.31172240E-01  0.99456013E+00
  0.49333691E+00  0.45429980E+00  0.51322456E+00
  0.73725062E+00  0.97923577E+00  0.88927361E+00
  0.73182102E+00  0.96558458E+00  0.37652399E+00
  0.98801254E+00  0.20789904E+00  0.24192969E+00
  0.13183470E-01  0.25839630E-01  0.61493384E+00
  0.22417453E+00  0.74613963E+00  0.25716789E+00
  0.94991826E+00  0.74314063E+00  0.79480265E+00
  0.47161361E+00  0.69677562E-02  0.12844178E+00
  0.21325563E+00  0.77014390E+00  0.38375902E+00
  0.26319857E+00  0.99581455E+00  0.62663074E+00
  0.48634295E+00  0.48433320E+00  0.63771530E+00
  0.49119176E+00  0.79499890E+00  0.15969803E-01
  0.80233671E+00  0.27207799E+00  0.63084146E+00
  0.99296430E+00  0.58757047E+00  0.20832533E-01
  0.91901384E-02  0.53293368E+00  0.49029354E+00
  0.37367496E-02  0.75430666E+00  0.29132806E+00
  0.74415512E+00  0.70072787E+00  0.77069738E-02
  0.48666998E+00  0.96557942E+00  0.49010466E+00
  0.20444894E+00  0.78673852E+00  0.88689241E+00
  0.23352651E+00  0.32569876E-01  0.38221027E+00
  0.75702614E+00  0.46850203E+00  0.87444268E+00
  0.98695853E+00  0.88538591E+00  0.24031014E-01
  0.24780828E+00  0.26517523E+00  0.35734906E+00
  0.75191306E+00  0.76154159E+00  0.75321841E+00
  0.49751415E+00  0.25779571E+00  0.27025120E+00
  0.72798336E+00  0.52768573E+00  0.62378462E+00
  0.47872507E+00  0.51383384E+00  0.87477056E+00
  0.98213750E+00  0.93782145E+00  0.21877278E+00
  0.68270558E+00  0.24992802E+00  0.74520548E+00
  0.46775036E+00  0.32887053E-01  0.89187499E+00
  0.80603980E+00  0.22963556E+00  0.12325674E+00
  0.48018091E+00  0.47995279E+00  0.25212233E+00
  0.11632172E-01  0.34604712E-01  0.49597610E+00
  0.26336205E+00  0.74646283E+00  0.61653381E+00
  0.75533676E+00  0.26226738E+00  0.26156155E+00
  0.21090259E+00  0.25961010E+00  0.63880428E+00
  0.51260994E+00  0.52422580E+00  0.40905429E+00
  0.22518366E+00  0.52454232E+00  0.62984295E+00
  0.48477845E+00  0.72915460E+00  0.24427138E+00
  0.25159448E-01  0.27431412E-01  0.74930123E+00
  0.95536940E+00  0.49051469E+00  0.76811570E+00
  0.85273360E+00  0.46948109E+00  0.38014200E+00
  0.48793531E+00  0.96961029E+00  0.61005432E+00
  0.97077431E+00  0.22953820E+00  0.99835181E+00
  0.21936595E+00  0.24955334E+00  0.49176060E+00
  0.50047799E+00  0.39646624E+00  0.95582770E-02
  0.28768874E+00  0.26253454E+00  0.74724860E+00
  0.98296877E+00  0.41790195E+00  0.13702047E+00
  0.67664102E+00  0.76176236E+00  0.61584516E+00
  0.22199917E+00  0.29539354E+00  0.98867360E+00
  0.36385622E+00  0.71140387E+00  0.48111368E+00
  0.32033886E+00  0.77242989E+00  0.12420836E+00
  0.24009389E+00  0.10349250E-01  0.89869132E+00
  0.46904352E+00  0.56000923E+00  0.12260275E+00
  0.99226691E+00  0.50243319E+00  0.63118381E+00
  0.73624763E+00  0.73774793E+00  0.29262500E+00
  0.73667589E+00  0.23186459E+00  0.33614610E-02
  0.98083890E+00  0.52207172E+00  0.89494570E+00
  0.33192192E-01  0.39385802E-01  0.86616254E+00
  0.20301721E+00  0.54310309E+00  0.11576490E+00
  0.56245974E+00  0.23399856E+00  0.48692936E+00
  0.72457676E+00  0.23463105E+00  0.85543320E+00
  0.48790518E+00  0.77081227E+00  0.75575309E+00
  0.26095810E+00  0.25594080E+00  0.23027923E+00
  0.48227190E+00  0.98090124E+00  0.25561170E+00
  0.98298454E+00  0.45828994E+00  0.26566025E+00
  0.96830128E+00  0.21749401E+00  0.51546133E+00
  0.24741141E+00  0.52712778E+00  0.88128278E+00
  0.95669183E+00  0.99753029E+00  0.35109594E+00
  0.98593128E+00  0.77006365E+00  0.49483816E+00
  0.22908749E+00  0.78934407E+00  0.91842481E-02
  0.75227724E+00  0.98788121E+00  0.63177347E+00
  0.73062222E+00  0.48236484E+00  0.13487686E+00
  0.47189951E+00  0.46743640E+00  0.76441884E+00
  0.24533584E+00  0.54583428E+00  0.38387252E+00
  0.22176363E+00  0.16544111E-02  0.25510151E+00
  0.70488847E+00  0.54105033E+00  0.75548542E+00
  0.25947967E+00  0.15103543E-01  0.75938101E+00
  0.74816066E+00  0.48742396E+00  0.26127058E+00
  0.22514730E+00  0.40724296E-01  0.11844957E-01
  0.75297002E+00  0.52677703E+00  0.48852163E+00
  0.26243760E+00  0.80953328E-02  0.50198712E+00
  0.76125506E+00  0.45623809E+00  0.99219910E+00
  0.75400185E+00  0.99374145E+00  0.76052480E+00
  0.23507143E+00  0.51161785E+00  0.25554022E+00
  0.20785975E+00  0.50346650E+00  0.75711062E+00
  0.72763967E+00  0.10962303E-02  0.25141699E+00
  0.26555074E+00  0.48703406E+00  0.50344696E+00
  0.73544832E+00  0.97148012E+00  0.99422060E+00
  0.75742055E+00  0.95840092E-02  0.50105394E+00
  0.27209096E+00  0.54111995E+00  0.44020605E-02
  0.11970878E-01  0.21907367E+00  0.38383462E+00
  0.46035619E+00  0.76572792E+00  0.88670027E+00
  0.48915292E+00  0.24143134E+00  0.62943571E+00
  0.18231277E-02  0.72410076E+00  0.13182647E+00
  0.98857070E+00  0.27580140E+00  0.86553042E+00
  0.48936859E+00  0.77394458E+00  0.37660113E+00
  0.99551992E+00  0.75459525E+00  0.63788312E+00
  0.51161268E+00  0.27481632E+00  0.13758917E+00
  0.15284617E+00  0.43980350E+00  0.44683684E-01
  0.64727063E+00  0.91101523E+00  0.54813986E+00
  0.62795427E+00  0.83741117E-01  0.94661441E+00
  0.15945770E+00  0.61076371E+00  0.45945371E+00
  0.34586001E+00  0.42176777E+00  0.95207020E+00
  0.85378156E+00  0.91032804E+00  0.44709788E+00
  0.85230689E+00  0.58438580E-01  0.51351600E-01
  0.37749012E+00  0.56733349E+00  0.56688169E+00
  0.84587060E+00  0.93617394E-01  0.19449355E+00
  0.31588017E+00  0.60629497E+00  0.70065230E+00
  0.84192799E+00  0.89090639E+00  0.28850862E+00
  0.33236896E+00  0.41378808E+00  0.81468476E+00
  0.15064513E+00  0.61913209E+00  0.31023714E+00
  0.64314474E+00  0.91938320E-01  0.81395436E+00
  0.12201646E+00  0.40832772E+00  0.19664432E+00
  0.65462417E+00  0.89041742E+00  0.70749175E+00
  0.84310017E+00  0.58986638E+00  0.94576811E+00
  0.37175050E+00  0.11239038E+00  0.46369400E+00
  0.87403577E+00  0.44153376E+00  0.55582746E+00
  0.33620475E+00  0.94962157E+00  0.59099321E-01
  0.14794963E+00  0.11153385E+00  0.54616437E+00
  0.64534462E+00  0.52668258E+00  0.51909928E-01
  0.12343457E+00  0.92531564E+00  0.96224725E+00
  0.64607287E+00  0.41436216E+00  0.44154737E+00