Na88 Ge16 P8 Se96                       
   1.00000000000000     
    13.9614333504000001    0.0000000000000000    0.0000000000000000
     0.0000000000000000   13.9614333504000001    0.0000000000000000
     0.0000000000000000    0.0000000000000000   27.9228667008000002
   Na   Ge   P    Se
    88    16     8    96
Direct
  0.0148730282446206  0.0026694346623484  0.1278149467047846
  0.4839764883866285  0.5389492688637609  0.5238827748387497
  0.5382740201839694  0.5171643610586564  0.8741513976567481
  0.0154158791805374  0.0096144274654254  0.3862722085596097
  0.2432827640970214  0.9639824974588347  0.8748247139884425
  0.9758369143799913  0.5144854788552158  0.3732947033800034
  0.1137448352921943  0.5350259320321483  0.1431629209020595
  0.2638166265308425  0.2345784571093401  0.2567602541681011
  0.7463628677647185  0.7371811676447012  0.6359964764654853
  0.7046381879200414  0.2652343985245014  0.8863387986696777
  0.7365239549884958  0.7326937103225696  0.3886853181050033
  0.2096480388404057  0.2462404336619888  0.9456679102743927
  0.8194092808844814  0.2513557681404208  0.1220776175726872
  0.2436376311609866  0.7844732809216386  0.6162796836531910
  0.9746979904882281  0.9997142396412183  0.8756682016980334
  0.2546692250517761  0.4915349925143175  0.3798818339486081
  0.2898484762594098  0.0459863296029420  0.6066741782545670
  0.0267009124251700  0.4778479928530958  0.6430104234918079
  0.4304351136773026  0.0174282341833642  0.0964216162741924
  0.9923446633157060  0.5390166717587277  0.8799753792077319
  0.5355103022315820  0.0180024504247768  0.3612194061930015
  0.3122670216258725  0.2468183826979173  0.3613000008470882
  0.7488572725814060  0.7503269371672315  0.8975102886901980
  0.7812847511334259  0.2539344120877460  0.6285059870533433
  0.2702144213113414  0.7377431146588407  0.1180050452370427
  0.1950255214462924  0.2308063553887643  0.7809589853330366
  0.7241187349804552  0.7797433794209407  0.1315342525363765
  0.7520897837709096  0.4734909941132416  0.3729411250540416
  0.3420460864397826  0.7044786103836072  0.4685170194114098
  0.4897518891711781  0.9929610182006415  0.9935711887407552
  0.9863237998891997  0.5187503083960919  0.4988610498540481
  0.4802635678529139  0.7209390904201158  0.7407650490416003
  0.9989584706219405  0.7466647372293869  0.2678157688203389
  0.4578665353329952  0.2165608322439086  0.7538272467504090
  0.0016700600977583  0.9306827025462708  0.0148330272852566
  0.5040308193591556  0.8848291648404301  0.4739374200235991
  0.5306049519898780  0.7576371548827239  0.9911188662214231
  0.5155842691814293  0.2886464649732819  0.2390512385198419
  0.0118526762990464  0.7542728707897950  0.7767004206382301
  0.5357407224245598  0.7771547014743851  0.2395113755679416
  0.0066320849618189  0.9765762149040665  0.2378834079648230
  0.5116123613733794  0.4453591367438507  0.7245323258226271
  0.4785575843359184  0.0006258744601626  0.7537865461814943
  0.9652465476918008  0.4804554437237709  0.2616026602129966
  0.3144105008701174  0.2480987432238320  0.0416931879924380
  0.8034966285280356  0.7137229881400050  0.5169560040468307
  0.1373259960059017  0.7580609292579656  0.5096787592583272
  0.7056300206044486  0.2551603496545188  0.9997269448058481
  0.0044812232822583  0.9785613028919760  0.7404338469988153
  0.4841430309594317  0.5057174244018665  0.2342867606427703
  0.9789542684076538  0.4586060039434038  0.7779524201952791
  0.5392934026530861  0.0325647590993238  0.2316256726078494
  0.2747474860531944  0.2771860252162334  0.4986313577130702
  0.8408413312682408  0.7305740617179626  0.0381548805641895
  0.7718568208053115  0.2368362050911468  0.4802167607217929
  0.2563445348591141  0.7232912466055287  0.9900385002511527
  0.0122611497983555  0.2263198994640586  0.0063187949355183
  0.5294459426065145  0.2065540116604966  0.4859052138156107
  0.4938272305336261  0.4358139526386753  0.0234570706513187
  0.0047446723675680  0.9624238559359432  0.4976483369007500
  0.4907846735620222  0.0297754993250790  0.8685050670365614
  0.0486381860191231  0.2542872288587142  0.4999313456323591
  0.0073940469858907  0.5145956749872643  0.0032790424949243
  0.5273366397206448  0.9759778264330976  0.5974953474308743
  0.9742269799304930  0.2578414140835746  0.2299433898316227
  0.7675103284689367  0.7640708004145549  0.7698194969866811
  0.2661749997216751  0.7344786820571375  0.2517553187006943
  0.7643206092787636  0.2395572566018586  0.7443136364362425
  0.7479051159679979  0.7431133634513589  0.2431068196010489
  0.9947300003450066  0.2150629790213700  0.7439873722429364
  0.7536220850801718  0.2521034771423520  0.2473168010447638
  0.2559468973106067  0.7485861448894866  0.7413410570816973
  0.3186769863333920  0.4128577177650448  0.1249052297790722
  0.8370938999005629  0.9858638761138303  0.6213107237947227
  0.7371290305259981  0.9800477871959105  0.8820031877301588
  0.2231802010875741  0.7703704132823772  0.3690885080869971
  0.2757124437037090  0.5116770394197400  0.8901288708956996
  0.7823596624876987  0.0311077840901780  0.3919425457454114
  0.7062082776848896  0.0199944745575219  0.1247438418004786
  0.3000315951542270  0.4887668338644800  0.6285180672102325
  0.7561856598450483  0.4795183896192760  0.8792572159916263
  0.2423324475282762  0.0120936991116865  0.3631200284241127
  0.7145547886426613  0.4863939847122827  0.6285097419353984
  0.2214798992597476  0.9456297879846408  0.1202026303847500
  0.2654051985078714  0.2519775183096333  0.6383606698359933
  0.7249932830873390  0.5298770140794711  0.1168884423015784
  0.2452628940789406  0.7280114503968091  0.8679051374663442
  0.5287256258530033  0.5216584566355117  0.3729093719479936
  0.2697358722292481  0.9824068339988250  0.2407233892377468
  0.7742311673406300  0.5099249977846091  0.7565582281174369
  0.2605010726084350  0.9845997117726440  0.7419909235134909
  0.7139790155341477  0.5071950501256457  0.2502254138110745
  0.2631485713178632  0.9849943239958651  0.9863604888196568
  0.7326598774135870  0.4832041873761897  0.4968808649049868
  0.2419363770920551  0.0117169842946310  0.4872123828200038
  0.7337434852205227  0.5197437508105571  0.0031643755245421
  0.7523762661303843  0.0220424752760753  0.7469039989824309
  0.2370776951664880  0.4888759028335232  0.2519700573423280
  0.2523005852336640  0.4931764389876905  0.7546500285410505
  0.7759084793413386  0.0071700012815723  0.2564115581426522
  0.2346970037182934  0.5196826748222150  0.4977701756570157
  0.7601313024900186  0.0109441407868808  0.0014137785947704
  0.7278951277902108  0.9741764878588044  0.4996670472728290
  0.2599661044888678  0.4858147163030823  0.0031402915187329
  0.0354549999297076  0.2433001670753205  0.3772246777367533
  0.4984871953218412  0.7638421263396939  0.8703167465982903
  0.5110987857582456  0.2462409195287166  0.6157560329746452
  0.9785703936892184  0.7439278868959184  0.1307470066400117
  0.9747465997485528  0.2658414016943590  0.8814603044943080
  0.4919381893997563  0.7814055586964219  0.3725975306643616
  0.9921099836227731  0.7653656970328182  0.6384630620445523
  0.5213955490858594  0.2606462984539956  0.1166984487098052
  0.1610264298664013  0.3790465117536862  0.0440435516040237
  0.6753219391423497  0.8617881797619477  0.5565501997764205
  0.6462442037835571  0.1009096273534236  0.9527937026096160
  0.1445878693581726  0.6248233689087501  0.4443660621197705
  0.3640731042368943  0.3773304130007141  0.9623049398293319
  0.8359406502298554  0.8868668984076075  0.4422673426574902
  0.8639632069070238  0.1014107902523621  0.0549768637513050
  0.3058582599879484  0.6292080319058758  0.5553270499824121
  0.8680783819963039  0.0955746384069583  0.1980447972780962
  0.3602470205101563  0.5931786312200599  0.7058401996024378
  0.8691207250913594  0.9034281001222008  0.3046253272661452
  0.3765380247192662  0.4037523215256586  0.8044837198176787
  0.1322320344847354  0.5764068697709817  0.2974396447942876
  0.6353970147694112  0.1298806535861699  0.7956722027285548
  0.1519553494539305  0.3800498163819805  0.1948340063281982
  0.6585484916996286  0.9034323741156133  0.7043107680882058
  0.8478964019767906  0.6038300370379839  0.9584316484728070
  0.3100536643012400  0.1241869689513831  0.4346246300747404
  0.8326558526182515  0.3965621484396686  0.5448221836848989
  0.3656792457102497  0.8676277444996413  0.0367145785819679
  0.1600126367336306  0.1202677002594648  0.5407535374163388
  0.6382927084922274  0.6298665678886343  0.0430636333917646
  0.1546294023957460  0.8810034775988828  0.9401079471598766
  0.6242789586245343  0.3873215205181441  0.4602591617795891
  0.6120794097378182  0.4191008487662425  0.3006127470100790
  0.1446126755521364  0.8843570567570915  0.7916297299883094
  0.1604320563447358  0.0714253055890115  0.6898224378827730
  0.6232469578406299  0.6199516781570497  0.1963712407583168
  0.8484794992334981  0.4301026987007756  0.6938585108681758
  0.3730791672870645  0.9032733729073992  0.1885111329602302
  0.3769870522256685  0.0801746838909931  0.2844111147032186
  0.8510938857376189  0.6113078837007963  0.8205238547803188
  0.1637584241344067  0.0766020798001930  0.0375948094666325
  0.6726592909948614  0.5918036774774335  0.5543207725329810
  0.6365300450007474  0.4249325710344088  0.9500103001184179
  0.1646318710456647  0.9034790167805389  0.4333381927277810
  0.3648515137351703  0.0946815111528172  0.9448294273337614
  0.8394322892559899  0.5874073884584688  0.4445814671772329
  0.8314469929151755  0.4234219029582393  0.0553487222847617
  0.3337912085582281  0.9066856022381499  0.5333029194424538
  0.1630423710537627  0.0792679982234980  0.1847047125602445
  0.6805852673596475  0.6178525184044256  0.7123848755184852
  0.1754848008455946  0.8768482152410988  0.2867586181567610
  0.6826714856937103  0.3958069767653953  0.7998782306155183
  0.8159052894184047  0.6112235580662050  0.2977828586994783
  0.3349808122055808  0.0859807420490177  0.7978398473451415
  0.8129049513325944  0.4216052178664723  0.2023301171097464
  0.3545228516197078  0.8852510557839498  0.6868149717638009
  0.8672346590714763  0.9247463358061586  0.9536945903027083
  0.3659905479747807  0.4430649561439963  0.4599620303962168
  0.8343984007250761  0.0866680458107815  0.5406970124854851
  0.3515986572569703  0.5840324484453835  0.0563702420057484
  0.1393426346126669  0.4187876416294954  0.5479776027405007
  0.6650591406473199  0.9087559214263730  0.0467437941455099
  0.1530810176825936  0.5887950878565696  0.9553273438104524
  0.6173669764046992  0.0488580129400212  0.4507396742646143
  0.3362175154426736  0.3995594776339825  0.3003447675667846
  0.8642983744763444  0.9309723506581044  0.8099776275582122
  0.8654535073635585  0.1078891387946401  0.6994074345674388
  0.3289314840766492  0.5741940515577633  0.1900345745538240
  0.1504766900676359  0.4013845787004899  0.7066525308405894
  0.6816217662054460  0.9048832809472553  0.2046766712116378
  0.6683088651969255  0.1160316322252364  0.2990100690067863
  0.1560666484398923  0.5782302128489540  0.8151541988838239
  0.1140892485389796  0.1549083185136822  0.3234041801777857
  0.6069985672329689  0.6741889355157836  0.8263647865586702
  0.5924364847540576  0.3253806746618144  0.6737114275127726
  0.0980090602377279  0.8149691274922499  0.1675154972952232
  0.4266935803177692  0.1487689019900592  0.6594557678084557
  0.9011274712445626  0.6637595065399217  0.1799168117421228
  0.9228430649152620  0.3366792755458056  0.3392891583845986
  0.3982969862164379  0.8411406016739910  0.8289768490906910
  0.0609868382133646  0.1450240606193987  0.9124339856384193
  0.5416851021269857  0.7049425610129464  0.4349018027124508
  0.0467645982781479  0.8836859766130468  0.5914566704177948
  0.5393888056862426  0.2030422293235530  0.0440171932432337
  0.9209551986470887  0.6499012955700051  0.5965300738254712
  0.3753683349277853  0.2047009777337944  0.1398518591308703
  0.9035735956826345  0.3554411017011853  0.9382388646627881
  0.3672448557231547  0.8657163554418477  0.3979372668845709
  0.8939306968766818  0.8116944423059443  0.6923410313644707
  0.5198200868123176  0.4083461805156559  0.1339839797553541
  0.8952728681154644  0.2014954647345518  0.8259521581102895
  0.4276670717731619  0.6735796796523736  0.3294379443873147
  0.0826529332327975  0.3487154868751223  0.8520892095000138
  0.6168787086278594  0.8483001489967370  0.3320266926109444
  0.1111951770766810  0.6765230362340902  0.6701361538425530
  0.6432137735055869  0.2083141245681857  0.1604330596320910
  0.4192297513823383  0.3222641655695993  0.5635657275525729
  0.8834048719018851  0.8581645423684188  0.1034695246363585
  0.9544095087060369  0.1522599357324141  0.4362863009824069
  0.4210717916328720  0.6686921268856358  0.9167754292649475
  0.1323228172759941  0.3543374882013769  0.4104143714244973
  0.5791532165641240  0.8609249125828059  0.9165818743081762
  0.6293988279870171  0.1673126725646772  0.5777414978413745
  0.0625542311455105  0.7001142785795444  0.0639997797051085
 
 -0.31532496E-02 -0.10359526E-01 -0.68338457E-03
 -0.13560440E-01  0.10737398E-01 -0.40366010E-03
  0.27662921E-02 -0.89308043E-02 -0.11722950E-01
 -0.11231828E-01  0.63436554E-02  0.10933944E-02
 -0.32386201E-03  0.62097029E-02  0.38227396E-02
  0.42792660E-02  0.55372673E-02  0.11122083E-02
 -0.19298667E-02  0.91856841E-03  0.55162983E-03
 -0.13268901E-01  0.25815426E-02  0.29541266E-02
 -0.12047282E-01 -0.18949409E-02 -0.30298839E-02
 -0.72092182E-02  0.18222811E-02 -0.53439468E-02
  0.27605655E-02  0.13599684E-02 -0.32900330E-02
  0.14341861E-02  0.18353724E-02  0.33944872E-02
 -0.32524063E-02 -0.13978292E-02 -0.87533681E-03
 -0.27881059E-02  0.82265645E-02 -0.84265839E-04
  0.44727644E-02  0.57192065E-02  0.59370795E-02
 -0.45396430E-02 -0.44444795E-02 -0.44774039E-02
  0.24272115E-02 -0.57495112E-02  0.25803150E-03
 -0.11186684E-02  0.17583951E-02 -0.10361435E-01
  0.86019166E-02  0.96266598E-03 -0.76630665E-02
  0.82759059E-03  0.42892663E-02 -0.20995094E-02
 -0.62606687E-02 -0.39077738E-02 -0.14286777E-02
  0.55636696E-02  0.33797565E-02 -0.13922203E-02
 -0.11165959E-01 -0.91630384E-02 -0.74852781E-02
 -0.66396347E-02 -0.94687541E-02 -0.46897823E-02
  0.53859839E-02 -0.16005704E-02  0.27715901E-02
  0.49703208E-02 -0.49479464E-02  0.47087805E-03
 -0.11881170E-02  0.63145805E-02 -0.52462275E-02
  0.10108924E-02 -0.45786570E-02 -0.63332958E-02
  0.52410986E-02  0.37442096E-02 -0.43358069E-02
 -0.16751069E-02  0.12645695E-02  0.43806639E-02
 -0.85564035E-02 -0.20886823E-02 -0.76240576E-02
 -0.11364794E-01  0.46803434E-02  0.35676404E-03
  0.40224632E-02  0.10567105E-02 -0.30927066E-02
  0.48172679E-02  0.59503514E-04  0.97840998E-04
  0.69954793E-03 -0.11156288E-02  0.48328027E-02
  0.74238048E-02  0.20190616E-02 -0.77256222E-02
  0.44618509E-02  0.10234099E-02 -0.36593329E-02
  0.16810705E-02  0.42031482E-02 -0.29213132E-02
  0.68246858E-04 -0.37723081E-02 -0.14424265E-02
 -0.20354814E-02  0.18592283E-02  0.25024616E-03
 -0.58533286E-02 -0.43935110E-02 -0.19039765E-02
  0.13542757E-02  0.35381939E-02  0.27410852E-02
  0.12848053E-01  0.81856763E-02 -0.39037569E-02
  0.82557436E-04  0.74603660E-02 -0.19734083E-02
  0.48835828E-02  0.28996476E-02  0.10153180E-02
  0.23349193E-02 -0.32518951E-02 -0.20884497E-03
 -0.18091845E-02 -0.10566369E-02 -0.45468466E-02
  0.99644952E-03 -0.94799067E-03 -0.39464682E-02
 -0.61606351E-02 -0.10702011E-02  0.66563833E-02
 -0.72259081E-02 -0.43751398E-02  0.47245867E-02
  0.38985274E-02 -0.59979144E-02  0.15361774E-02
  0.27837473E-03  0.51546350E-03 -0.70684328E-02
  0.65002380E-02 -0.48756698E-03  0.39022896E-02
  0.14145896E-02 -0.47656115E-02 -0.14275373E-02
 -0.29269372E-02 -0.65219051E-02  0.49755671E-03
 -0.10290429E-02 -0.64412359E-02  0.56334268E-02
  0.37359803E-02 -0.52267478E-02 -0.58849005E-02
  0.30201624E-02 -0.72849555E-02  0.59703565E-02
 -0.81812166E-03 -0.93719954E-02  0.28777966E-02
 -0.59446145E-02 -0.38115793E-03  0.10587795E-01
 -0.45991812E-03  0.12980306E-02  0.77489548E-03
  0.18153792E-02  0.69855876E-02  0.20996857E-02
  0.41102247E-02  0.61042779E-02 -0.31830146E-02
 -0.24693918E-02 -0.10805515E-02  0.62856165E-02
 -0.41117045E-02 -0.78223942E-02  0.64573619E-03
 -0.47249619E-02  0.27851479E-02  0.72689172E-02
 -0.16578316E-02 -0.25720949E-04 -0.37969089E-02
  0.15573128E-02  0.35664202E-02 -0.37584720E-02
 -0.24810029E-02 -0.17991860E-01  0.50068436E-02
 -0.20197445E-02  0.15524650E-01 -0.51676244E-02
  0.18060624E-02 -0.21478061E-03 -0.37656874E-02
  0.96265015E-04  0.34290955E-02  0.63628476E-02
  0.16903606E-02 -0.31421377E-02 -0.25456308E-02
  0.43200103E-02 -0.74723683E-02 -0.15072120E-02
 -0.47166117E-02 -0.62029558E-02  0.48853278E-02
 -0.38661635E-04 -0.59557023E-02 -0.53581637E-03
  0.58893877E-02  0.12659240E-02  0.50431975E-04
 -0.69182094E-02 -0.31332146E-02  0.24107263E-02
 -0.41121574E-02 -0.11650442E-02 -0.12996045E-01
 -0.19757972E-02 -0.74786391E-02 -0.37810963E-02
 -0.38089404E-02  0.39046004E-02  0.22218657E-02
 -0.40524944E-02  0.18861754E-03 -0.56866805E-02
  0.21084515E-02 -0.19223947E-02 -0.23172674E-03
 -0.13296473E-01 -0.98866134E-03  0.37095033E-02
  0.43089575E-02 -0.45001227E-02 -0.98284329E-02
  0.12816347E-01  0.35325741E-02  0.13192016E-02
  0.60955287E-02 -0.52460093E-02  0.32905796E-02
 -0.35449571E-02  0.44757648E-02 -0.31930569E-02
  0.57632814E-02 -0.76613670E-02  0.30996520E-03
 -0.28893515E-02  0.16082824E-02 -0.12197378E-03
  0.13984934E-02  0.87859663E-03  0.18699045E-02
 -0.12373586E-02 -0.65328011E-03  0.31692519E-02
 -0.37819506E-03  0.18795379E-02 -0.12584810E-02
 -0.62467977E-02 -0.13160117E-02  0.12248125E-02
 -0.72239547E-02  0.26381044E-02  0.34443428E-02
 -0.35022231E-02  0.22641692E-02  0.44155539E-02
  0.11397872E-02  0.15056833E-03 -0.72278406E-03
  0.36172756E-03  0.90818739E-03 -0.56660976E-02
  0.17708914E-02  0.79869347E-03 -0.63518605E-02
  0.45918105E-02  0.17269877E-04 -0.21994508E-02
 -0.28385355E-02  0.35479320E-02 -0.36085003E-02
  0.32253295E-02 -0.44083233E-03  0.13813350E-02
  0.15556581E-02  0.30103357E-02 -0.10036761E-02
 -0.47193840E-02 -0.21423728E-02  0.37340372E-02
  0.22224119E-02  0.72590612E-03 -0.22395969E-02
  0.25306837E-02 -0.43660889E-02 -0.27614518E-02
  0.35219458E-02  0.44888918E-02  0.98458455E-03
  0.18701538E-02  0.11660920E-03  0.19399062E-02
 -0.70587550E-03 -0.56721059E-02  0.24636793E-02
  0.17600677E-02  0.34281476E-02  0.10781418E-02
  0.34367361E-03 -0.18194133E-02  0.92612941E-02
 -0.30595549E-03 -0.38205038E-03  0.58500668E-02
  0.34077901E-02 -0.68071579E-03 -0.17832461E-02
  0.48864849E-02  0.12061724E-02 -0.13323416E-02
  0.12736613E-02 -0.23112111E-02  0.13863420E-02
  0.11193132E-02 -0.27790469E-02  0.24801086E-02
  0.28121446E-02  0.14902620E-02 -0.12128264E-02
  0.26556309E-02  0.45335679E-02 -0.25431022E-02
  0.27716245E-02 -0.13071452E-02 -0.48041723E-02
  0.92626413E-05  0.43650719E-02  0.71512581E-03
 -0.49600663E-02  0.21098560E-02  0.63780625E-04
 -0.36562935E-03  0.19014483E-02  0.21349769E-02
 -0.23107886E-02  0.21205061E-02 -0.25771548E-02
 -0.12259253E-02  0.14032260E-02  0.31318210E-02
 -0.18092053E-02  0.10399525E-02  0.82134130E-03
 -0.15045089E-02 -0.32532812E-02 -0.42215151E-02
  0.22296782E-02 -0.14326732E-02 -0.84339015E-03
 -0.24939314E-02 -0.29685273E-02  0.33847778E-02
 -0.39748289E-04 -0.37003839E-02 -0.35258351E-02
 -0.10234675E-03  0.22544644E-02  0.11884758E-02
 -0.15761178E-02 -0.14135866E-03  0.16858714E-03
  0.12478836E-02 -0.14041335E-02  0.22715569E-02
  0.11325521E-02  0.18990434E-02  0.47854472E-03
 -0.53555046E-02  0.40175886E-03  0.82080451E-04
  0.11374399E-02 -0.52122225E-02 -0.12306194E-02
  0.24653709E-02 -0.24722743E-02  0.16339662E-02
 -0.14081814E-02 -0.24306151E-02 -0.29606896E-03
 -0.18437185E-02 -0.10219980E-01 -0.76870666E-03
  0.32849146E-02  0.69269383E-03  0.29788150E-02
 -0.24088515E-03  0.33992414E-02  0.12363881E-02
  0.22809095E-02  0.28910707E-02 -0.20768367E-04
  0.30031934E-02  0.50010836E-02  0.17472916E-02
 -0.10698430E-03 -0.39880290E-03  0.30487436E-02
  0.20392806E-02 -0.26853602E-02  0.17765003E-02
 -0.17992955E-02  0.11348408E-02 -0.12605334E-02
 -0.55593487E-02  0.18977657E-02  0.12074164E-02
 -0.57135352E-03 -0.38649001E-02 -0.12324289E-02
  0.21078526E-02 -0.19506586E-02  0.45409270E-02
 -0.39388915E-02  0.14366737E-02 -0.33813129E-03
  0.48762551E-03  0.32126543E-02  0.45832306E-02
  0.16701656E-02  0.55114110E-02 -0.88468221E-03
  0.39657842E-02  0.52946508E-02 -0.73732063E-03
  0.45043070E-04 -0.83419302E-03 -0.20827255E-02
  0.22610928E-02  0.66186115E-03 -0.46125994E-02
 -0.20517293E-03  0.41414975E-02  0.47041643E-02
  0.47582027E-02 -0.23799289E-02  0.36697560E-02
  0.29599100E-02 -0.31895226E-03 -0.37928994E-02
  0.22009007E-02 -0.74338244E-03 -0.87722382E-03
 -0.30818054E-02  0.46628623E-04 -0.49874156E-02
 -0.27689358E-03  0.26325212E-02 -0.27131063E-02
  0.56525143E-03  0.55324304E-03  0.74301042E-03
 -0.95276972E-05 -0.44762921E-02 -0.30802118E-02
 -0.18142505E-02 -0.41110529E-03 -0.15003838E-02
  0.15881125E-02 -0.36535632E-02 -0.47228975E-03
  0.15874097E-02 -0.51981739E-02  0.55217082E-02
 -0.37317455E-02 -0.18307224E-02 -0.71027083E-03
  0.23165846E-02 -0.45236108E-02 -0.36303326E-02
  0.47386140E-04  0.12058039E-02  0.35049933E-02
 -0.66061256E-03  0.11835376E-02  0.87644584E-03
  0.10934590E-02  0.16361333E-02 -0.44151967E-02
  0.20871825E-02 -0.43662767E-03  0.28864253E-02
 -0.28774326E-02 -0.28463243E-02  0.50952322E-02
 -0.12365461E-02 -0.17321508E-02 -0.45816282E-03
  0.74255995E-04 -0.12349334E-02  0.12505657E-02
 -0.11528550E-02 -0.30446005E-02  0.11668094E-03
  0.28901334E-03  0.27393319E-02 -0.17499698E-02
  0.12233696E-02  0.45076544E-02 -0.86602276E-03
  0.36311030E-02 -0.15439374E-02  0.49575540E-02
  0.51530439E-02  0.23403583E-02  0.52410726E-03
 -0.78433387E-03 -0.84074223E-03 -0.13383615E-02
 -0.18449429E-03  0.48329250E-02 -0.12476784E-02
  0.25025603E-02  0.36860726E-02 -0.37009591E-02
  0.29750932E-02  0.23118154E-02 -0.17746899E-03
  0.18251946E-02 -0.33824012E-02  0.43503023E-02
 -0.15100067E-02 -0.29075707E-02  0.11011343E-02
 -0.20156398E-02  0.11038503E-02  0.21457002E-02
 -0.26675944E-02  0.25147544E-02  0.38516977E-02
  0.75737855E-03  0.45636524E-03  0.24079109E-02
 -0.24954978E-03  0.17852460E-02 -0.12722266E-02
 -0.41025238E-02  0.54596731E-02  0.35342513E-02
 -0.76126536E-03 -0.29517053E-02  0.23894179E-03
 -0.10945954E-03 -0.18135731E-02  0.33164559E-02
 -0.23405035E-04 -0.45244093E-03 -0.17097876E-02
  0.33920566E-02  0.83543034E-03 -0.13696066E-02
 -0.81979518E-04 -0.26302458E-02  0.16563234E-02
  0.21938945E-02  0.70306547E-03 -0.13010449E-02
 -0.92623472E-03  0.42355885E-03  0.27690119E-02
 -0.14986951E-02  0.39894280E-02  0.13855901E-02
  0.60629927E-03  0.35817578E-03  0.16020520E-03
  0.13425692E-02 -0.96349882E-03 -0.15201104E-02
 -0.24965778E-02  0.49120996E-02 -0.22237689E-03
  0.31372838E-02  0.17420797E-02 -0.11353985E-02
 -0.76519316E-03  0.48392143E-03  0.96098398E-03
  0.31469867E-03 -0.56867055E-02 -0.53834019E-02
 -0.38631575E-02  0.74516465E-03 -0.38454900E-02
 -0.31373131E-03  0.94833769E-03  0.38821243E-03
  0.85525505E-03  0.35641247E-02  0.21590382E-03
 -0.31865250E-02 -0.20060214E-02  0.25597121E-02
 
           1
   2.00000000000000     
  0.67611001E+00 -0.75964157E-03  0.00000000E+00  0.00000000E+00
  0.14421320E-01  0.11854143E-02  0.12776600E+00
  0.48203393E+00  0.54048742E+00  0.52385386E+00
  0.53867030E+00  0.51588501E+00  0.87331173E+00
  0.13806900E-01  0.10523167E-01  0.38635052E+00
  0.24323637E+00  0.96487205E+00  0.87509852E+00
  0.97644993E+00  0.51527870E+00  0.37337437E+00
  0.11346838E+00  0.53515752E+00  0.14320243E+00
  0.26191583E+00  0.23494827E+00  0.25697185E+00
  0.74463707E+00  0.73690971E+00  0.63577946E+00
  0.70360545E+00  0.26549544E+00  0.88595603E+00
  0.73691941E+00  0.73288853E+00  0.38844967E+00
  0.20985349E+00  0.24650335E+00  0.94591104E+00
  0.81894337E+00  0.25115553E+00  0.12201492E+00
  0.24323823E+00  0.78565175E+00  0.61627365E+00
  0.97533872E+00  0.53352609E-03  0.87609345E+00
  0.25401891E+00  0.49089831E+00  0.37956114E+00
  0.29019618E+00  0.45162702E-01  0.60669266E+00
  0.26540661E-01  0.47809989E+00  0.64226828E+00
  0.43166735E+00  0.17566138E-01  0.95872742E-01
  0.99246322E+00  0.53963112E+00  0.87982500E+00
  0.53461345E+00  0.17442655E-01  0.36111708E+00
  0.31306403E+00  0.24730254E+00  0.36120028E+00
  0.74725773E+00  0.74901432E+00  0.89697415E+00
  0.78033361E+00  0.25257800E+00  0.62817008E+00
  0.27098597E+00  0.73751383E+00  0.11820356E+00
  0.19573753E+00  0.23009755E+00  0.78099271E+00
  0.72394854E+00  0.78064795E+00  0.13115849E+00
  0.75223460E+00  0.47283509E+00  0.37248750E+00
  0.34279688E+00  0.70501498E+00  0.46820646E+00
  0.48951193E+00  0.99314217E+00  0.99388496E+00
  0.98509808E+00  0.51845110E+00  0.49831497E+00
  0.47863554E+00  0.72160956E+00  0.74079060E+00
  0.99953470E+00  0.74681611E+00  0.26759425E+00
  0.45855662E+00  0.21656936E+00  0.75383425E+00
  0.17702716E-02  0.93052289E+00  0.15179181E-01
  0.50509429E+00  0.88511840E+00  0.47338407E+00
  0.53124412E+00  0.75778376E+00  0.99085676E+00
  0.51582509E+00  0.28924857E+00  0.23884200E+00
  0.11862453E-01  0.75373248E+00  0.77659711E+00
  0.53544914E+00  0.77742104E+00  0.23952930E+00
  0.57935853E-02  0.97594684E+00  0.23774703E+00
  0.51180636E+00  0.44586599E+00  0.72472866E+00
  0.48039809E+00  0.17984871E-02  0.75350694E+00
  0.96525837E+00  0.48152415E+00  0.26146131E+00
  0.31511008E+00  0.24851412E+00  0.41765911E-01
  0.80383111E+00  0.71325715E+00  0.51694105E+00
  0.13706683E+00  0.75790956E+00  0.50935309E+00
  0.70577276E+00  0.25502455E+00  0.99944428E+00
  0.35987014E-02  0.97840799E+00  0.74091062E+00
  0.48310791E+00  0.50509068E+00  0.23462516E+00
  0.97951274E+00  0.45774679E+00  0.77806245E+00
  0.53933328E+00  0.32638600E-01  0.23111939E+00
  0.27567866E+00  0.27711618E+00  0.49891086E+00
  0.84104397E+00  0.72989138E+00  0.38052632E-01
  0.77143753E+00  0.23590193E+00  0.48025240E+00
  0.25619712E+00  0.72236853E+00  0.99044200E+00
  0.12796336E-01  0.22557116E+00  0.58972837E-02
  0.52987859E+00  0.20551043E+00  0.48633285E+00
  0.49371003E+00  0.43447140E+00  0.23663195E-01
  0.38930958E-02  0.96236925E+00  0.49840670E+00
  0.49071879E+00  0.29961445E-01  0.86856057E+00
  0.48898242E-01  0.25528793E+00  0.50008174E+00
  0.79828439E-02  0.51547012E+00  0.30510563E-02
  0.52698289E+00  0.97582304E+00  0.59794556E+00
  0.97363797E+00  0.25672084E+00  0.22998964E+00
  0.76683347E+00  0.76446978E+00  0.77034014E+00
  0.26593751E+00  0.73447500E+00  0.25148336E+00
  0.76454370E+00  0.24006815E+00  0.74404443E+00
  0.74754971E+00  0.74053600E+00  0.24346544E+00
  0.99444067E+00  0.21728691E+00  0.74361724E+00
  0.75388081E+00  0.25207271E+00  0.24704708E+00
  0.25596069E+00  0.74907737E+00  0.74179680E+00
  0.31891913E+00  0.41240760E+00  0.12472290E+00
  0.83771275E+00  0.98479345E+00  0.62120277E+00
  0.73645337E+00  0.97915920E+00  0.88235310E+00
  0.22317466E+00  0.76951725E+00  0.36905013E+00
  0.27655611E+00  0.51185839E+00  0.89013248E+00
  0.78136862E+00  0.30658946E-01  0.39211522E+00
  0.70561920E+00  0.19827580E-01  0.12381299E+00
  0.29974856E+00  0.48769551E+00  0.62824724E+00
  0.75564002E+00  0.48007773E+00  0.87941636E+00
  0.24175192E+00  0.12120719E-01  0.36271271E+00
  0.71485683E+00  0.48611860E+00  0.62849314E+00
  0.21957516E+00  0.94548816E+00  0.12046833E+00
  0.26602246E+00  0.25133287E+00  0.63765670E+00
  0.72682925E+00  0.53038306E+00  0.11698293E+00
  0.24613609E+00  0.72725995E+00  0.86814083E+00
  0.52821780E+00  0.52229962E+00  0.37268067E+00
  0.27056147E+00  0.98130933E+00  0.24074559E+00
  0.77381726E+00  0.51015539E+00  0.75654949E+00
  0.26070141E+00  0.98472557E+00  0.74212486E+00
  0.71380176E+00  0.50710147E+00  0.25045241E+00
  0.26309439E+00  0.98526357E+00  0.98627035E+00
  0.73176501E+00  0.48301567E+00  0.49696859E+00
  0.24090153E+00  0.12094897E-01  0.48745909E+00
  0.73324179E+00  0.52006810E+00  0.34806435E-02
  0.75253954E+00  0.22064044E-01  0.74685223E+00
  0.23712951E+00  0.48900600E+00  0.25156422E+00
  0.25255427E+00  0.49329085E+00  0.75419507E+00
  0.77656626E+00  0.71724752E-02  0.25625402E+00
  0.23429038E+00  0.52019092E+00  0.49751171E+00
  0.76059334E+00  0.10880991E-01  0.15127179E-02
  0.72811798E+00  0.97460772E+00  0.49959516E+00
  0.25929004E+00  0.48550782E+00  0.34077452E-02
  0.35773364E-01  0.24340415E+00  0.37706426E+00
  0.49884972E+00  0.76321668E+00  0.87011896E+00
  0.51160331E+00  0.24688396E+00  0.61582655E+00
  0.97883830E+00  0.74394459E+00  0.13088595E+00
  0.97464548E+00  0.26502886E+00  0.88163677E+00
  0.49219032E+00  0.78189665E+00  0.37267475E+00
  0.99215922E+00  0.76510506E+00  0.63912641E+00
  0.52135172E+00  0.26059157E+00  0.11711746E+00
  0.16151460E+00  0.37894900E+00  0.43915825E-01
  0.67602194E+00  0.86196097E+00  0.55645477E+00
  0.64642666E+00  0.10057854E+00  0.95289300E+00
  0.14474821E+00  0.62442527E+00  0.44454370E+00
  0.36447595E+00  0.37754390E+00  0.96221807E+00
  0.83632107E+00  0.88751634E+00  0.44208519E+00
  0.86436025E+00  0.10122354E+00  0.54632761E-01
  0.30585959E+00  0.62983334E+00  0.55537827E+00
  0.86736784E+00  0.95876879E-01  0.19804937E+00
  0.36019464E+00  0.59345102E+00  0.70599312E+00
  0.86878970E+00  0.90373187E+00  0.30444074E+00
  0.37636241E+00  0.40395334E+00  0.80470804E+00
  0.13197286E+00  0.57655584E+00  0.29749847E+00
  0.63518149E+00  0.12941462E+00  0.79536983E+00
  0.15227475E+00  0.37984458E+00  0.19477360E+00
  0.65819123E+00  0.90300713E+00  0.70455321E+00
  0.84789071E+00  0.60329995E+00  0.95817911E+00
  0.31003900E+00  0.12450992E+00  0.43470976E+00
  0.83243007E+00  0.39654190E+00  0.54483426E+00
  0.36585801E+00  0.86742660E+00  0.36877281E-01
  0.16017488E+00  0.12053974E+00  0.54078781E+00
  0.63752552E+00  0.62992412E+00  0.43069512E-01
  0.15479234E+00  0.88025682E+00  0.94001980E+00
  0.62463213E+00  0.38696736E+00  0.46037620E+00