Na88 Ge16 P8 Se96                       
   1.00000000000000     
    13.9614333504000001    0.0000000000000000    0.0000000000000000
     0.0000000000000000   13.9614333504000001    0.0000000000000000
     0.0000000000000000    0.0000000000000000   27.9228667008000002
   Na   Ge   P    Se
    88    16     8    96
Direct
  0.2887161775037304  0.7438242015259009  0.1485147162913936
  0.5353114051219532  0.5052680544431483  0.3521524451137152
  0.5292139105096626  0.4753414983885941  0.1280527712071462
  0.7261622717457658  0.9735234843032715  0.3796364770882545
  0.9946982599958401  0.0313186079364171  0.8115374446951918
  0.7391196984997531  0.5041250831637183  0.3767668329497188
  0.5291797754046916  0.4443701575429960  0.0143355985210396
  0.0473514634255942  0.7576887438819175  0.2691967685241464
  0.1769069747356755  0.2791437068645022  0.6384589404498564
  0.7211375026829036  0.5071524296718989  0.8721931830612814
  0.7498900364192471  0.7313903920695956  0.2548118251962394
  0.4482002359129258  0.4401056107132977  0.9004907596355193
  0.4894579805028715  0.9947673565849098  0.0299121139983033
  0.1487269068768170  0.7443477238983208  0.5313123426653626
  0.2329167838100297  0.2277289546401957  0.7585010985292315
  0.2858354195397815  0.9174911101673767  0.3971531325350846
  0.4822566085813049  0.9767897528393157  0.4961741964261314
  0.0056501593180854  0.5422418971188486  0.7534689343421135
  0.4900361532479067  0.9914083404303720  0.9008379680869048
  0.7168416228800414  0.7546285213656543  0.8883688484935446
  0.1229636029472059  0.0714280714761095  0.3312381173225197
  0.2257159897531262  0.2556953144290563  0.2668384267624315
  0.5663379326128667  0.2331173775948746  0.0012078093954842
  0.9756171541630895  0.4629899662323692  0.5177718982670771
  0.9885001981467172  0.0010003818212652  0.0037689605838793
  0.0077136984794577  0.2393244383265551  0.5261995323886296
  0.5289305329499095  0.6874204002367240  0.0473902123238641
  0.7722778864891496  0.2612818600290182  0.5055090521227670
  0.9792382211899390  0.8669290036444822  0.5105757893457005
  0.2108382062925902  0.7436181174745334  0.8621953299400916
  0.2076496268417988  0.5121734839384097  0.6232852698901329
  0.7228235261678262  0.3112516211560202  0.7246970115929359
  0.0075827020440623  0.5370167015476631  0.2053543987286344
  0.4561266460857107  0.9721786967181685  0.7604109875313879
  0.0650446296577413  0.4833700282406921  0.0045608123969991
  0.7486736862669002  0.0081109558652396  0.6067645938020364
  0.1854750319000589  0.7120664175175693  0.0427453070534859
  0.2672716608764780  0.2506726311544137  0.3948085395556998
  0.9484167133243218  0.1940880836974144  0.9940309044678675
  0.5264788947390661  0.9218065659479842  0.2718667176411647
  0.8258172881876030  0.8764984480485548  0.1271263117949504
  0.5270153368126167  0.5090397995577980  0.7598969118624255
  0.7356019491233377  0.0212905678108553  0.8674695679728812
  0.9919315245753776  0.5011099019442607  0.3768531772976306
  0.8497017891416724  0.5225535524815634  0.1076036466800868
  0.4766136239950960  0.4593240240280156  0.6065820550091728
  0.9290685609259186  0.9843124665144446  0.6570018409680017
  0.7587874517913694  0.2430943791308791  0.9074504266732831
  0.2417414084687706  0.2333330848122231  0.5159621518947594
  0.8135887192226935  0.2448164637928626  0.1264569666573749
  0.9980081197090889  0.2577035301850326  0.7288965708902256
  0.5185475697256003  0.2001368765436536  0.2810516830768148
  0.2392071910440847  0.4687252307533744  0.3785939963307771
  0.0360912542442187  0.4818642606010420  0.8825769086892044
  0.6871659114961985  0.4419626440291827  0.6416318912985448
  0.2164490582992553  0.3501408020013723  0.8458368246943286
  0.0220617810646939  0.9844307899120132  0.2470676495127847
  0.4506042572827563  0.3595636520858485  0.2160456920647884
  0.2637990911102413  0.7411028779333095  0.7634747568071643
  0.4849378043938829  0.2466224170773084  0.4914249654047745
  0.2569063133109293  0.2173745882333579  0.9961558990814803
  0.7354196576612780  0.7401684807764195  0.4986054891213850
  0.0598068178795737  0.9758310739101991  0.1282735252289094
  0.4908551954596418  0.9542820163859665  0.6001487419851645
  0.7753300327889499  0.2881446006016095  0.2616721029302724
  0.5162414373956762  0.7400506496355156  0.7529477172370778
  0.3475661145728620  0.7154550309095892  0.2874631401142939
  0.9901710553914048  0.0220327595935903  0.4245953153205694
  0.8004416905858587  0.7479056582766247  0.0177706103916955
  0.4827124583038464  0.2077478470438896  0.7594090263603692
  0.2761749378694000  0.1259420773926212  0.1418939216556006
  0.7511589197090963  0.7494719610609850  0.7420101377719264
  0.9910204289390276  0.7105152739964904  0.9479713878836302
  0.8346557829783053  0.6403090016984812  0.6409664703487061
  0.6123724569314947  0.1342997664098124  0.6883535813593454
  0.2436829117594176  0.7307989766243909  0.4066289281944244
  0.3387808329286200  0.7461752103849328  0.9530943395497984
  0.6905143630910745  0.2081725829720301  0.3726829958241433
  0.6710935281739413  0.1086062892796017  0.1831098897617217
  0.2423935338717943  0.7295244957457118  0.6429393205353755
  0.2441210223925685  0.9924293836287224  0.6383850348878811
  0.9986169342287240  0.2469659434423383  0.2507673702346830
  0.4897099442164237  0.5793753046488637  0.4863742660610572
  0.2584588091630801  0.4962940592654148  0.1294023501537227
  0.0015095186613819  0.7877672712840159  0.7398496196349792
  0.5329558691671288  0.9506742432475506  0.1339530667849224
  0.2289857278561218  0.9861789178736476  0.8878326101115193
  0.8364839227233392  0.7556149352972346  0.3802029192331771
  0.2572329885724753  0.9913303678050563  0.2587527839042200
  0.7457540581543352  0.5445459096780734  0.7608712613858991
  0.2385442602495152  0.9929440786100414  0.7515528302340773
  0.7572957550387425  0.4841387567920405  0.2485686148520248
  0.2452347066604163  0.9808717897788310  0.0253010327927718
  0.7366129129975341  0.4864862566826555  0.5121571920301843
  0.2134756056482471  0.0074289460766198  0.5118280838271608
  0.7762495331259673  0.4675681718472092  0.0043998771687156
  0.7447200721469571  0.0455690577308708  0.7431859171618346
  0.2777274000173238  0.4995123232116206  0.2623249769227633
  0.2670976798195180  0.4968405252885950  0.7567771353055746
  0.7915045178298341  0.9979317377283421  0.2338504874198239
  0.2440296000799734  0.4901192935634616  0.5135390041632835
  0.7409317032536429  0.9935133970189929  0.0052900221518771
  0.7434191498630414  0.9893221854470361  0.4966484563728064
  0.2961856648681540  0.4498461137986913  0.0100649007610259
  0.9930530672949019  0.2596963320011628  0.3765898857813602
  0.5009349348266788  0.7753021019366649  0.8792462211040122
  0.4577065344576398  0.2389079198718846  0.6393843904515637
  0.9870675212813345  0.7277364046337863  0.1278145479445792
  0.0102170452823646  0.2353506113241512  0.8796115339876591
  0.5171465315163137  0.7554238691240326  0.3834910228401466
  0.9860659105938131  0.7450233341177959  0.6151075960264949
  0.5193682363810677  0.2208854442169482  0.1317046525313873
  0.1868392683946410  0.3739267177983737  0.0573948601895228
  0.6480657678342747  0.8891974419272789  0.5410554799420181
  0.6443367706316874  0.0964047479202180  0.9516883374140843
  0.1279818251692591  0.5561782111808444  0.4559866151345380
  0.3920657380338505  0.3392606176058556  0.9817123539921201
  0.8310828323949713  0.8926048642411256  0.4444761835161666
  0.8393523647010173  0.0934973454085254  0.0606924063717728
  0.3193461840269554  0.6166912150303665  0.5578628054391679
  0.8892925727147077  0.0884310907234780  0.1823587549076552
  0.3515738815285667  0.5853446783556955  0.6934891689910577
  0.8501815030540751  0.9092567877449445  0.3016232108946896
  0.3779659953655859  0.3916537067512920  0.7961919873987227
  0.1775746905595556  0.6194582753774980  0.3033935210437602
  0.6381267732035715  0.1304485388663488  0.7875495298490762
  0.1562869388023183  0.4203887893279835  0.2135606114109547
  0.6463974156120170  0.9302938039618999  0.7021203151358548
  0.8526256810448579  0.5818941047212211  0.9527172691956477
  0.3330513540668586  0.0992901191764218  0.4719339435663280
  0.8438204534459827  0.3884424724947285  0.5571091379637992
  0.3374514359123243  0.9243331391700749  0.0928894116278548
  0.0987435263800681  0.0799466514057547  0.5740742639048518
  0.6815276116509880  0.5665694456037584  0.0548730547444381
  0.1512055428518612  0.8514033613609296  0.9711567307143785
  0.6429450103903286  0.3916613134963327  0.4602175033621025
  0.6351618428147711  0.3990144294128160  0.3018421454957515
  0.1375368386315035  0.8792406067348885  0.7997296033925936
  0.1284438017951492  0.0794685583445016  0.7142261518701243
  0.6560119453710174  0.5911036241282759  0.2070637843590670
  0.8434206153658645  0.4632974815394866  0.7095867879342466
  0.3638900473995357  0.8842427802692474  0.2259877532394742
  0.3329199112107816  0.1088903798555834  0.3122240730862874
  0.8475467630256159  0.6480372716279840  0.8120817686212836
  0.1206347478224627  0.0898420824261196  0.0442536648171045
  0.6377666428777753  0.5870312866852444  0.5595465382965654
  0.6664284513705491  0.3858454416046986  0.9498538687533353
  0.1331477878154895  0.8995725018056351  0.4630314716500130
  0.3397558397469035  0.0570138630203166  0.9701728217195638
  0.8373833829951203  0.5894913562275216  0.4498518526541751
  0.8892626147325783  0.3807741587317031  0.0524313272091615
  0.3293515384368469  0.9003657158969498  0.5488274342674835
  0.1574011247764593  0.0935413601174115  0.2047330175530778
  0.6376930289517669  0.6188454104410928  0.6972715240682670
  0.1685831326938002  0.8951389132891240  0.3132716999906493
  0.6655728874477908  0.4086928468240834  0.8002851621083591
  0.8616114518660782  0.5994454900211976  0.2989833061166696
  0.3422324687324794  0.0765565312710179  0.8218248672147929
  0.8619880331933127  0.3963119500361256  0.1948381777657467
  0.3470041218936362  0.8777283322882049  0.7001324813965949
  0.8238577828935681  0.8925194544306406  0.9467053658453622
  0.3407778314687112  0.3944938020362412  0.4659185025039357
  0.8874564747286859  0.0518363794571510  0.5353532635947700
  0.3784788304783512  0.5769674908804183  0.0566612466342634
  0.1260233630202608  0.3818573117580442  0.5579679550037596
  0.6448214252739850  0.8546892250562512  0.0410446089297823
  0.2465372952182054  0.5706130872642513  0.9581580455059628
  0.6324841480835681  0.0838723360702982  0.4593535837301838
  0.3776186535225544  0.3822388051197915  0.3064126673921571
  0.8412013168750007  0.9427442159828257  0.7869282693344635
  0.8284792741068525  0.1302375377219787  0.6763505076030878
  0.3755505692376050  0.5729951089719841  0.1989756748154513
  0.1406511524869347  0.3978773593016889  0.7207298372965676
  0.6710934392436640  0.8895778652992217  0.1951555321379931
  0.6965750943735636  0.1017236548191423  0.2892888927750947
  0.1783985275840846  0.5798063331905298  0.8135723344275120
  0.8652289741761874  0.3235555081738307  0.4031672791525320
  0.5380322875534236  0.7717487107335317  0.9537523310845291
  0.5476056487064579  0.3427068402796889  0.6807174975270487
  0.8545609576557733  0.6932421682783660  0.1593227380255462
  0.3898137655851913  0.1242655827635344  0.6823993747264578
  0.0610320613157636  0.5943844364336368  0.0982298120302572
  0.1014629753147514  0.1905756039676273  0.4273526404405394
  0.6003381366035914  0.8803021656880650  0.8398637041873886
  0.8966445184716055  0.3468293139867719  0.8550957159634298
  0.4056978217338215  0.6499008095771304  0.4093252974291373
  0.8455984369748031  0.8268914485183366  0.6357888694069036
  0.5958767959605357  0.1189568516560499  0.0804835565321733
  0.0833975365091290  0.8670160543029188  0.6057841401348247
  0.3797653263881274  0.2730449450947159  0.1065767385726676
  0.0991225947791965  0.2935187158662349  0.9353783264042195
  0.5503956386432414  0.7479116276843767  0.3034741115425104
  0.9453260603262318  0.6783827727442474  0.5461791191364558
  0.6293728203987407  0.3234462876974519  0.1598601564218828
  0.0835156401710106  0.2164932476950272  0.8144198282468241
  0.6622248401937716  0.7053463614438545  0.4120927060996250
  0.9402123798156267  0.0946287383985254  0.9050493307146741
  0.4687360519153771  0.9101682290601085  0.4084245865048375
  0.0524927393657077  0.6482288757410437  0.6726737694088443
  0.4776022208432276  0.1173577117847947  0.1959131482339828
  0.3472623681315990  0.3285390890299685  0.6032578329222075
  0.9841274963901030  0.8261574764371756  0.0670106316863435
  0.9473771345258273  0.1284380442090602  0.3402813923002148
  0.5283807123624793  0.6222598919849823  0.8515159546781557
  0.0616349608559668  0.3569600515392690  0.3239647958287136
  0.3738454578198138  0.8400732073791357  0.8445015076647215
  0.5542793884011892  0.1571777985117379  0.5875693191591752
  0.1145192512179399  0.7817050029825794  0.1738807846494793
 
 -0.27375464E-02  0.14171671E-02  0.87571706E-03
 -0.66277117E-02  0.48516027E-03  0.64598205E-02
 -0.51091975E-03  0.28019377E-02  0.13012911E-02
  0.11236016E-01 -0.76447713E-02  0.11807834E-01
  0.24529033E-02 -0.33400251E-02 -0.42955975E-02
  0.77691045E-02  0.67414731E-02  0.19600331E-02
  0.53699663E-02  0.10031703E-02  0.94572934E-03
 -0.30856842E-02 -0.62368206E-03 -0.14740452E-01
 -0.27864836E-02 -0.59356767E-02  0.25840234E-02
 -0.52335270E-03 -0.79974823E-02  0.14517034E-01
  0.60810336E-02 -0.23011041E-02 -0.18750313E-02
  0.21590242E-02  0.63365756E-03  0.28789845E-03
 -0.24951957E-02 -0.52936217E-02 -0.93625581E-02
  0.97993613E-02  0.54270300E-02  0.11385266E-02
 -0.62189471E-02 -0.14186748E-02 -0.98933792E-02
 -0.47078583E-03  0.57123210E-02 -0.79481088E-02
  0.48798218E-02  0.46586857E-02 -0.45926513E-02
  0.23285471E-02 -0.36387198E-04 -0.28184344E-02
  0.28760445E-02  0.29008312E-02 -0.24294929E-02
 -0.50152354E-02 -0.55661497E-02  0.14016280E-01
 -0.42991271E-02 -0.34478561E-02  0.37349618E-02
 -0.92399854E-02  0.84336000E-02 -0.88037043E-02
 -0.33088926E-02 -0.52097824E-02  0.96624266E-02
  0.47922475E-03  0.11070367E-01  0.15525834E-03
 -0.22704203E-03 -0.22442900E-02  0.24173843E-02
 -0.10913373E-01 -0.50554883E-02  0.71071567E-02
  0.16989540E-02 -0.11064069E-01 -0.11637340E-01
 -0.19193783E-02  0.10822591E-01 -0.82675755E-03
  0.49790297E-02 -0.14146415E-01 -0.63051736E-02
 -0.14949853E-02  0.47913320E-02 -0.63472771E-02
  0.39327253E-02  0.24152119E-03  0.37401602E-02
 -0.10243045E-02 -0.59252614E-02  0.11065763E-01
 -0.10653432E-01  0.94554870E-02 -0.10965240E-01
 -0.23809809E-03  0.83915891E-03  0.25262376E-03
  0.16995675E-02  0.22418985E-02 -0.61567428E-02
 -0.63925272E-02  0.32845175E-02  0.66663990E-02
  0.15830094E-01  0.16474491E-03  0.11914536E-01
  0.14867413E-02 -0.19411814E-02  0.48518836E-03
 -0.22372826E-02  0.15276117E-02  0.72748344E-02
 -0.82159503E-02  0.31621767E-02 -0.12179716E-02
 -0.37395258E-02  0.20925324E-02  0.10557133E-01
  0.11887183E-01  0.39664231E-02  0.17439639E-02
 -0.50630222E-02  0.88587105E-02 -0.46636015E-02
  0.27825356E-02  0.46212040E-02 -0.47662033E-02
 -0.75750143E-02  0.86258813E-02 -0.50754296E-02
 -0.16059697E-02  0.74022034E-02 -0.70475618E-03
  0.71718974E-02  0.57064783E-02  0.10854688E-02
 -0.40238729E-03  0.15560514E-01 -0.66188194E-02
 -0.17280873E-02  0.83950051E-02 -0.13044990E-02
  0.10179371E-01  0.32548917E-02  0.75998535E-02
  0.87107148E-03 -0.11711352E-02  0.22157575E-03
  0.11791034E-02 -0.88656017E-04 -0.27859070E-02
  0.97980210E-02 -0.68740205E-02 -0.22831829E-02
  0.15170408E-02 -0.22594241E-02 -0.94780082E-02
  0.90761466E-02 -0.10614750E-01  0.87715489E-02
  0.43952165E-02  0.16020099E-02  0.77625568E-02
  0.82739651E-03 -0.20869760E-02 -0.49747198E-02
  0.37543786E-02 -0.10435178E-02 -0.72634978E-02
 -0.47259827E-02  0.72511290E-02 -0.55892517E-03
 -0.77843522E-02 -0.33084590E-02 -0.17290270E-02
 -0.31495478E-02  0.57798166E-02  0.66214925E-03
  0.20936733E-02 -0.26299293E-02 -0.22712329E-02
 -0.11108019E-01 -0.94665698E-02  0.54017435E-03
  0.24270211E-02  0.20282770E-02  0.43955756E-03
 -0.22527295E-02 -0.22193772E-02 -0.34835228E-02
  0.30098545E-02  0.18749256E-02  0.60544266E-03
  0.57648052E-02 -0.10754865E-01  0.96582368E-03
 -0.19973207E-02  0.39314403E-02 -0.12823784E-01
 -0.33391886E-02  0.35320382E-02  0.31424699E-02
 -0.22547908E-03  0.90121021E-02 -0.61786318E-02
 -0.12552272E-02 -0.14450896E-01  0.58799828E-02
 -0.31653151E-03 -0.77772293E-02 -0.92987418E-02
 -0.61851053E-02 -0.36907274E-02  0.74776236E-02
  0.55666165E-02  0.50155872E-03  0.18160861E-02
 -0.13125539E-02  0.11531219E-01 -0.12765486E-01
 -0.15863186E-02  0.84760053E-02 -0.47847839E-02
 -0.29110251E-02 -0.64954064E-02  0.52273864E-02
 -0.67734147E-02 -0.74326935E-02  0.93588244E-02
 -0.62046759E-02 -0.20490847E-02  0.32650505E-02
 -0.13605385E-02  0.19005147E-02  0.42456977E-02
 -0.71300624E-02 -0.45637923E-02 -0.33712317E-02
 -0.13031161E-01 -0.19894264E-02 -0.74113766E-02
 -0.10532397E-01 -0.10446186E-02 -0.55466311E-02
  0.17472140E-01 -0.44456017E-02 -0.30095690E-02
  0.56373478E-02 -0.75103948E-02 -0.47529593E-02
 -0.17061504E-02  0.56847781E-03 -0.10811311E-01
 -0.37180933E-02 -0.56095357E-02  0.17494254E-02
 -0.14210531E-01 -0.62084521E-02  0.19262945E-02
 -0.27127948E-02 -0.11985944E-02  0.51955313E-02
 -0.26731072E-02  0.48991394E-02 -0.33569298E-02
  0.17029639E-02 -0.21819753E-02  0.35985001E-02
 -0.99940930E-03  0.23794193E-02  0.39008698E-03
  0.48762756E-02  0.15173739E-02 -0.55589903E-02
  0.20023207E-03 -0.14427477E-02  0.10844522E-02
  0.77849832E-02 -0.25887476E-02 -0.53738181E-02
  0.57942055E-02  0.84173833E-02 -0.17768712E-02
  0.36623584E-02  0.10752213E-03  0.27624497E-02
 -0.29800351E-03  0.49742705E-03 -0.42871916E-02
  0.47119697E-02  0.23719076E-02 -0.24568690E-02
 -0.22890276E-02  0.43469282E-02  0.44012268E-02
 -0.93789831E-03  0.36083061E-03 -0.22846506E-02
  0.16852912E-02 -0.84507201E-02  0.57266835E-02
  0.19360376E-03 -0.16904016E-02  0.43290776E-02
  0.15760828E-02  0.45715494E-02  0.21116431E-02
  0.81225184E-02 -0.35020164E-02 -0.37035256E-02
 -0.63400100E-02 -0.17108408E-02 -0.16724818E-02
  0.17837460E-02 -0.39612112E-02  0.18678469E-02
  0.26319708E-02  0.17614215E-02  0.12857924E-03
  0.23285499E-02 -0.82975635E-02 -0.61782088E-02
  0.19113051E-02  0.69181762E-03 -0.61015400E-02
  0.11516183E-01 -0.79104752E-02 -0.39414255E-02
  0.13288525E-02  0.84014657E-03 -0.20338370E-02
  0.13071993E-02 -0.63203948E-02 -0.17135856E-02
 -0.14170418E-02 -0.17381351E-04  0.32982744E-02
  0.36189063E-02 -0.12090328E-02  0.38916346E-03
  0.10751904E-02 -0.12528944E-02 -0.13217093E-02
 -0.13941657E-02  0.14197222E-02 -0.20773743E-02
 -0.35457481E-02  0.53263190E-03  0.39817974E-02
  0.13829491E-02 -0.14044484E-02 -0.55210375E-02
 -0.13737444E-02 -0.21513695E-03  0.66912708E-02
  0.12292255E-02 -0.51777224E-02 -0.26413690E-02
  0.57347182E-02  0.49573862E-03  0.30360315E-03
  0.23569378E-02  0.67446768E-02 -0.63639663E-04
 -0.51065941E-02 -0.65211175E-02 -0.57580154E-02
 -0.60928424E-02 -0.13727382E-02 -0.91727204E-03
 -0.84481851E-03 -0.27738604E-02  0.25527969E-03
 -0.28240084E-02  0.43493883E-02 -0.38535423E-02
  0.22917836E-02  0.56224570E-03  0.34347173E-02
 -0.82159147E-02 -0.27160102E-02  0.32894232E-02
 -0.99299884E-03  0.25245379E-02  0.29504402E-02
  0.13652069E-02 -0.18642284E-02  0.65789151E-03
  0.30314261E-02 -0.32139378E-02 -0.68245574E-02
 -0.20633546E-02  0.88527409E-03 -0.43362719E-02
 -0.11861972E-02  0.24283313E-02  0.37040818E-02
 -0.75734677E-03  0.14753551E-02  0.42222601E-03
 -0.96066784E-03  0.31757837E-02 -0.60234108E-02
 -0.24566257E-03  0.68592162E-02 -0.19278789E-02
 -0.12878610E-02 -0.15806491E-03 -0.29004676E-02
 -0.70762162E-02  0.81557424E-02  0.45979992E-02
  0.43820968E-02 -0.13293169E-02  0.10128659E-03
  0.21388566E-02 -0.74445019E-02  0.21116815E-02
 -0.24972200E-02  0.19268753E-02  0.18397879E-02
 -0.23108476E-02 -0.10222704E-02 -0.49696097E-03
  0.22660345E-02  0.10320206E-03  0.18083917E-02
 -0.30202275E-02  0.12990840E-03 -0.16522157E-02
 -0.36590499E-02  0.48311387E-03  0.68156137E-03
  0.23523777E-02 -0.57211879E-02  0.28756312E-02
 -0.34275668E-02 -0.93080438E-03 -0.24099801E-03
  0.10086096E-02 -0.29145573E-03  0.46442714E-02
  0.55054546E-02 -0.39438661E-02 -0.45931407E-02
 -0.63487169E-02 -0.82008410E-03  0.30844250E-02
 -0.24734544E-02  0.44570433E-02 -0.64237386E-03
 -0.15742753E-02 -0.98078495E-03 -0.27202834E-02
 -0.28175892E-02  0.80231669E-02  0.11084029E-02
  0.27299377E-02 -0.48114207E-02  0.68046323E-02
  0.80333913E-03  0.50204133E-02 -0.52075448E-05
 -0.41773236E-02  0.11565647E-02  0.97775089E-03
 -0.62174043E-03 -0.20787677E-02 -0.65890167E-02
 -0.78658868E-02  0.67598840E-03  0.23865060E-02
 -0.54200079E-02 -0.25490006E-03  0.32458570E-02
  0.15731956E-02 -0.40776600E-02 -0.54267812E-02
  0.40782242E-02  0.91834616E-03  0.21998538E-02
 -0.13269923E-02  0.52331532E-02 -0.40568372E-02
  0.25155220E-02 -0.18218792E-02  0.10372825E-02
 -0.16053096E-02 -0.11179766E-02 -0.49038413E-02
  0.20565457E-02  0.16918129E-02 -0.30591009E-02
 -0.76158347E-03  0.93316978E-03  0.63741557E-04
 -0.11199295E-03 -0.14808394E-02 -0.87781146E-03
  0.69452766E-02 -0.19331073E-02  0.23051191E-02
  0.26303795E-02  0.51130561E-05  0.38576051E-02
 -0.96334872E-03  0.29852661E-02  0.23143489E-02
  0.49051086E-03  0.28185647E-02 -0.14431606E-02
 -0.40465988E-02 -0.36758778E-02  0.38538063E-02
  0.31425422E-02 -0.21760956E-03 -0.52032781E-03
 -0.34833231E-02 -0.49412010E-03  0.16376262E-02
  0.23791616E-02 -0.21133769E-02  0.62524772E-03
  0.44811736E-03 -0.32728021E-02 -0.55781923E-02
  0.72738945E-04 -0.85425220E-03 -0.20787974E-02
  0.39816867E-02 -0.84165505E-03 -0.35762574E-02
  0.42353412E-02 -0.46328559E-02 -0.27452245E-03
 -0.33761361E-02 -0.32606691E-02 -0.47601718E-02
  0.46998296E-02  0.22604585E-02  0.34306188E-02
 -0.14484689E-02 -0.64886899E-02  0.33605766E-03
  0.41948694E-02  0.26292565E-02  0.29241440E-02
  0.18342817E-02  0.66803691E-03  0.52585992E-03
  0.89379487E-02 -0.89594853E-02  0.19756901E-02
 -0.13073449E-02  0.16900463E-03  0.10057483E-03
  0.23166919E-02 -0.21290128E-02  0.22821756E-03
  0.18579697E-02  0.38318668E-02  0.27774452E-02
 -0.96630428E-03  0.63427274E-02  0.49546290E-02
 -0.98417694E-04 -0.28456824E-02  0.30505347E-02
 -0.21788164E-03 -0.30689409E-02  0.84607608E-02
  0.49068630E-02  0.47910318E-02  0.12311726E-03
 -0.28773989E-02  0.30828544E-02  0.26338953E-02
  0.16074270E-02 -0.10791818E-02  0.36376599E-02
 -0.41078928E-02  0.47971691E-02 -0.16191585E-02
 -0.10619814E-02 -0.47351209E-03 -0.35947351E-02
  0.46235054E-04  0.18287919E-02  0.45220060E-02
  0.33224958E-02 -0.14993547E-02 -0.30132753E-02
  0.37332247E-03 -0.16850335E-02 -0.99326124E-03
 -0.39349388E-03 -0.51484904E-02  0.46580489E-04
 -0.22198087E-02  0.59942271E-02  0.50950578E-03
 -0.14509852E-02  0.35717799E-02 -0.52843787E-03
 -0.18012087E-02  0.52735484E-02  0.37078286E-02
 -0.11573973E-02  0.36952822E-02  0.20840673E-02
  0.27360192E-02  0.12606545E-02  0.20566590E-02
 -0.21398360E-02  0.51593229E-03 -0.53680794E-03
 -0.74234417E-02 -0.19574907E-02 -0.49500717E-02
 
           1
   2.00000000000000     
  0.44526978E+00  0.10441098E-02  0.00000000E+00  0.00000000E+00
  0.28832402E+00  0.74402721E+00  0.14857744E+00
  0.53436197E+00  0.50533755E+00  0.35261514E+00
  0.52914072E+00  0.47574288E+00  0.12814598E+00
  0.72777185E+00  0.97242836E+00  0.38048222E+00
  0.99504964E+00  0.30840143E-01  0.81122977E+00
  0.74023264E+00  0.50509081E+00  0.37690722E+00
  0.52994903E+00  0.44451386E+00  0.14403337E-01
  0.46909434E-01  0.75759940E+00  0.26814097E+00
  0.17650781E+00  0.27829341E+00  0.63864402E+00
  0.72106253E+00  0.50600678E+00  0.87323298E+00
  0.75076116E+00  0.73106075E+00  0.25467752E+00
  0.44850952E+00  0.44019638E+00  0.90051138E+00
  0.48910054E+00  0.99400904E+00  0.29241513E-01
  0.15013068E+00  0.74512516E+00  0.53139389E+00
  0.23202591E+00  0.22752573E+00  0.75779248E+00
  0.28576798E+00  0.91830941E+00  0.39658384E+00
  0.48295565E+00  0.97745712E+00  0.49584524E+00
  0.59837278E-02  0.54223668E+00  0.75326706E+00
  0.49044815E+00  0.99182389E+00  0.90066395E+00
  0.71612318E+00  0.75383116E+00  0.88937278E+00
  0.12234775E+00  0.70934160E-01  0.33150564E+00
  0.22439235E+00  0.25690344E+00  0.26620785E+00
  0.56586393E+00  0.23237107E+00  0.18998892E-02
  0.97568580E+00  0.46457582E+00  0.51778302E+00
  0.98846767E+00  0.67888332E-03  0.39421079E-02
  0.61503386E-02  0.23860023E+00  0.52670859E+00
  0.52917391E+00  0.68583545E+00  0.46556678E-01
  0.77200293E+00  0.26283222E+00  0.50544983E+00
  0.97995148E+00  0.86490250E+00  0.51012418E+00
  0.21062405E+00  0.74430448E+00  0.86174070E+00
  0.20821300E+00  0.51220808E+00  0.62355316E+00
  0.72267679E+00  0.31040282E+00  0.72548961E+00
  0.60565791E-02  0.53837122E+00  0.20456900E+00
  0.45609254E+00  0.97229891E+00  0.76042908E+00
  0.65288096E-01  0.48369118E+00  0.41198303E-02
  0.74775795E+00  0.85814688E-02  0.60724208E+00
  0.18774272E+00  0.71209002E+00  0.43598696E-01
  0.26748464E+00  0.25039455E+00  0.39484329E+00
  0.94809622E+00  0.19430692E+00  0.99455197E+00
  0.52530195E+00  0.92225955E+00  0.27177948E+00
  0.82528159E+00  0.87679821E+00  0.12788248E+00
  0.52871820E+00  0.50960800E+00  0.76002182E+00
  0.73487666E+00  0.22559594E-01  0.86713553E+00
  0.99233013E+00  0.50177190E+00  0.37651179E+00
  0.84861665E+00  0.52378923E+00  0.10724011E+00
  0.47638357E+00  0.46038440E+00  0.60653158E+00
  0.93009595E+00  0.98512993E+00  0.65707959E+00
  0.75872981E+00  0.24532345E+00  0.90697635E+00
  0.24149386E+00  0.23453568E+00  0.51586872E+00
  0.81504693E+00  0.24528273E+00  0.12700131E+00
  0.99813290E+00  0.25753576E+00  0.72891244E+00
  0.51871648E+00  0.20012418E+00  0.28085214E+00
  0.24061077E+00  0.46774052E+00  0.37843046E+00
  0.36308573E-01  0.48154059E+00  0.88189804E+00
  0.68846609E+00  0.44044206E+00  0.64226016E+00
  0.21707868E+00  0.35037029E+00  0.84639282E+00
  0.22180307E-01  0.98413183E+00  0.24671133E+00
  0.45114208E+00  0.35941417E+00  0.21552544E+00
  0.26312209E+00  0.74214161E+00  0.76343472E+00
  0.48382268E+00  0.24614847E+00  0.49130112E+00
  0.25645514E+00  0.21820256E+00  0.99620333E+00
  0.73571958E+00  0.73979174E+00  0.49844281E+00
  0.58215575E-01  0.97447497E+00  0.12831222E+00
  0.49120287E+00  0.95457257E+00  0.60018023E+00
  0.77500733E+00  0.28782667E+00  0.26142259E+00
  0.51667260E+00  0.74031924E+00  0.75299108E+00
  0.34839193E+00  0.71391438E+00  0.28753232E+00
  0.98988494E+00  0.22595945E-01  0.42367680E+00
  0.79996335E+00  0.74841163E+00  0.17995693E-01
  0.48268016E+00  0.20903885E+00  0.75896648E+00
  0.27599512E+00  0.12387196E+00  0.14231508E+00
  0.75111358E+00  0.74835786E+00  0.74134411E+00
  0.99013440E+00  0.70998657E+00  0.94850698E+00
  0.83545321E+00  0.64038085E+00  0.64109655E+00
  0.61218443E+00  0.13595163E+00  0.68743924E+00
  0.24345567E+00  0.73201318E+00  0.40628621E+00
  0.33836382E+00  0.74524473E+00  0.95346876E+00
  0.68954406E+00  0.20710784E+00  0.37335333E+00
  0.67020470E+00  0.10831275E+00  0.18334375E+00
  0.24219863E+00  0.72979675E+00  0.64324342E+00
  0.24309963E+00  0.99177561E+00  0.63814357E+00
  0.99675020E+00  0.24668095E+00  0.25023652E+00
  0.48820116E+00  0.57922566E+00  0.48597698E+00
  0.26096172E+00  0.49565722E+00  0.12918679E+00
  0.23170787E-02  0.78669139E+00  0.73950918E+00
  0.53271146E+00  0.95075568E+00  0.13317870E+00
  0.22845310E+00  0.98537534E+00  0.88795791E+00
  0.83444824E+00  0.75472556E+00  0.38034089E+00
  0.25684438E+00  0.99115867E+00  0.25912492E+00
  0.74537113E+00  0.54524772E+00  0.76063082E+00
  0.23878821E+00  0.99263151E+00  0.75181058E+00
  0.75715259E+00  0.48447961E+00  0.24859656E+00
  0.24593324E+00  0.98108916E+00  0.24902865E-01
  0.73664160E+00  0.48627958E+00  0.51223487E+00
  0.21459082E+00  0.70581034E-02  0.51144318E+00
  0.77707956E+00  0.46877398E+00  0.42726072E-02
  0.74524471E+00  0.45584460E-01  0.74338378E+00
  0.27768471E+00  0.49958358E+00  0.26201790E+00
  0.26777268E+00  0.49718031E+00  0.75660116E+00
  0.79117661E+00  0.99855444E+00  0.23416573E+00
  0.24389524E+00  0.49017098E+00  0.51337536E+00
  0.74117312E+00  0.99230282E+00  0.57002009E-02
  0.74344688E+00  0.98908003E+00  0.49695853E+00
  0.29641144E+00  0.45050100E+00  0.10216149E-01
  0.99421663E+00  0.25919466E+00  0.37632462E+00
  0.50002672E+00  0.77505702E+00  0.87912643E+00
  0.45796206E+00  0.23834047E+00  0.63951818E+00
  0.98744456E+00  0.72798873E+00  0.12782376E+00
  0.10550614E-01  0.23416197E+00  0.87916901E+00
  0.51742033E+00  0.75552297E+00  0.38305399E+00
  0.98771562E+00  0.74389014E+00  0.61482529E+00
  0.51955860E+00  0.22100580E+00  0.13155898E+00
  0.18702653E+00  0.37302131E+00  0.57272123E-01
  0.64786277E+00  0.88919495E+00  0.54129172E+00
  0.64485519E+00  0.96231552E-01  0.95171621E+00
  0.12813585E+00  0.55599873E+00  0.45589195E+00
  0.39186602E+00  0.33946400E+00  0.98156356E+00
  0.83057490E+00  0.89268116E+00  0.44476138E+00
  0.83955047E+00  0.93296156E-01  0.60296957E-01
  0.31914939E+00  0.61666040E+00  0.55834207E+00
  0.88946866E+00  0.87689373E-01  0.18216956E+00
  0.35239539E+00  0.58541569E+00  0.69351091E+00
  0.85051914E+00  0.91022297E+00  0.30161865E+00
  0.37723447E+00  0.39071955E+00  0.79577956E+00
  0.17670188E+00  0.61926163E+00  0.30332782E+00
  0.63800575E+00  0.13005118E+00  0.78756781E+00
  0.15588239E+00  0.42101185E+00  0.21328460E+00
  0.64672572E+00  0.93037435E+00  0.70236633E+00
  0.85144874E+00  0.58150503E+00  0.95295288E+00
  0.33290911E+00  0.99651764E-01  0.47214527E+00
  0.84401602E+00  0.38817542E+00  0.55715626E+00
  0.33788569E+00  0.92387274E+00  0.92400597E-01
  0.98447947E-01  0.80073468E-01  0.57376367E+00
  0.68135769E+00  0.56691731E+00  0.55138363E-01
  0.15109705E+00  0.85161471E+00  0.97118697E+00
  0.64280739E+00  0.39211625E+00  0.45978607E+00