Na88 Ge16 P8 S96                        
   1.00000000000000     
    13.3422163233000006    0.0000000000000000    0.0000000000000000
     0.0000000000000000   13.3422163233000006    0.0000000000000000
     0.0000000000000000    0.0000000000000000   26.6844326466999995
   Na   Ge   P    S 
    88    16     8    96
Direct
  0.0176958790932683  0.9883368465286013  0.1342687864831827
  0.5000916517851586  0.4962016390834841  0.7410189439535633
  0.2475349219351923  0.4549079517524671  0.8757416435900153
  0.0106915725152544  0.9722682364307572  0.3686435371459372
  0.6750442177899586  0.0053121236476815  0.8731418790273283
  0.9903680173797911  0.5293160876417539  0.3770879391622700
  0.9565383744345913  0.4630695601286381  0.1295097007099527
  0.2469158911466473  0.2395470654657748  0.1367408242159436
  0.7197360795749354  0.9690585892331319  0.6096535447803431
  0.7548110707213213  0.2403773913474279  0.7432779512060759
  0.7828137921623074  0.7265838279741780  0.3858622401861846
  0.2385189426624395  0.1984753172435219  0.8702922567787507
  0.7326071539780569  0.2440739085929855  0.1043965169912702
  0.2424143144234656  0.7480967469455111  0.6224616740428689
  0.0003093831283921  0.9794676433356966  0.8878343364316086
  0.5275899321327278  0.4809913920414265  0.3896501227778536
  0.9729395821472613  0.0124318580401062  0.6232299165645858
  0.0315680586365741  0.4728386957237376  0.6186396849248536
  0.5122446887064461  0.9781639035994028  0.1259854431721879
  0.0137829924080361  0.4955095740014411  0.8724571435168135
  0.5276030445374187  0.0220125017838672  0.3559008153301280
  0.2449171487567802  0.0256208412386698  0.3755223111903022
  0.7536826736596351  0.4762126670126424  0.8770765667413526
  0.7828930531575412  0.4780920771792663  0.6179997240101742
  0.2511531959178019  0.7707527919435471  0.1325205635368535
  0.2892050312010813  0.2395900600919167  0.5542864058999560
  0.7260071253987405  0.7324143079908199  0.1221569015261990
  0.7716188901456471  0.2466398956411154  0.4708891589129469
  0.4722038633799127  0.7708476549444885  0.4973991372032900
  0.4834377920724590  0.2417546566816304  0.9978272581464709
  0.0109182488584943  0.2429427945413520  0.4911545671524705
  0.7635090496278104  0.7364135587876047  0.7450066846155047
  0.9646589622307835  0.7144458329513375  0.2547583699753359
  0.4986721859961947  0.2298964638771949  0.7684736706628401
  0.9837567054611727  0.9599579267488452  0.0044786154652554
  0.4982944989461399  0.2628793317705262  0.4803504456331119
  0.5115788898583044  0.7618805951322580  0.0068984788345933
  0.8151807121115054  0.2439528911985948  0.2420517574614775
  0.2063716590117183  0.7423758721943247  0.7492005617363852
  0.4830187664238015  0.7072410610368117  0.2323854514069477
  0.0183676515880448  0.0012537114974710  0.2553663826329369
  0.4688278921156125  0.4591832468247833  0.8706805051132182
  0.4718373129541046  0.9817102643316896  0.7790239882669363
  0.9815228653749266  0.4738461073012664  0.2673725495370474
  0.2234741763139571  0.2033767392220518  0.9939838205768190
  0.7496754844405079  0.7330274104356282  0.4971875777691184
  0.1529631528663292  0.7582083949253549  0.5084281502688898
  0.7493848336263871  0.2526866921027471  0.9894343827619231
  0.9787679819707463  0.9155296914045168  0.7321884222898593
  0.5004117793658416  0.5045411258867313  0.2593890620535437
  0.0072761006876000  0.5439554025363527  0.7534832535150059
  0.5317454546408079  0.9665479431997993  0.2523604003421686
  0.2556512753206913  0.2736139737809765  0.3851851377352124
  0.7626594211143164  0.7602811508155584  0.9902796379276243
  0.7294283874214456  0.2453749443791483  0.6180607133630228
  0.2297016691509816  0.7337518460903496  0.0050246731911385
  0.9845357772128639  0.2419530114326323  0.0135619159006476
  0.4857452595970915  0.5152498651272907  0.5150463297833356
  0.4921090344377418  0.5531469091931093  0.1329471886733187
  0.0060849529592561  0.5037611816675404  0.5095629504636430
  0.4787539114673033  0.0010515947455524  0.9998415773775030
  0.9953464651379776  0.9739689185140917  0.5170018291144179
  0.9954309947255936  0.5350128521598637  0.0140155353388448
  0.4648751993257472  0.0303832616623344  0.5148530742792641
  0.5383147941261687  0.2327775238366342  0.2539221707178576
  0.7289757413595119  0.7517357392578170  0.8711740382556423
  0.2312843393839841  0.7498713130624565  0.2438902716227268
  0.9959021796611072  0.2531370253215341  0.7475034236585704
  0.7306546945121256  0.7573754279493309  0.2571570278574953
  0.2402259733784910  0.2609045953588034  0.7227290854199667
  0.2516399592300692  0.2288156792579236  0.2529367448096255
  0.4998697276640199  0.7537359843974056  0.7464738458693762
  0.2530238745906243  0.4715325644730265  0.1183170020281205
  0.4614552792797371  0.0120849075404176  0.6483367915160715
  0.7312810097175076  0.2418243489370639  0.8705575579039794
  0.2661790034810463  0.5113923563185837  0.3645548437629180
  0.2020910863856266  0.7082822451153511  0.8789179021988639
  0.7683812162485478  0.9892707708476483  0.3684802965449387
  0.8106588282818159  0.9783525815104259  0.1049359560759978
  0.3100063261603390  0.4754184255454291  0.6196434606127856
  0.4756858949127510  0.4856931321479334  0.9920899656945931
  0.2395577615541598  0.7599125842376551  0.3837446527979728
  0.7273104042889187  0.7479608648752180  0.6081922334204629
  0.2943927694956061  0.0023785229926293  0.1289682342140394
  0.2115881775799522  0.0282464969079897  0.6307225120674347
  0.7237849929825030  0.5022120637662844  0.1207651918305533
  0.2627812682234094  0.9409853832602680  0.8749218062891951
  0.7519826125612290  0.4437781459047595  0.3741485511651020
  0.2824519297005932  0.9769837962124079  0.2469930715204614
  0.7719483160492240  0.4970206300102924  0.7524532344517196
  0.2112740522206851  0.9951919291819977  0.7495468298604563
  0.7257573469900566  0.4949801197524566  0.2498813859495415
  0.2358164715174256  0.9615525530698819  0.0022198579803862
  0.7507781736100300  0.4825852282061728  0.4977755702851784
  0.2036232352482231  0.0171824527621467  0.4970917015073614
  0.7432063652697525  0.5036644571716201  0.9986606068043405
  0.7402288816989563  0.9791372126114432  0.7513923914488010
  0.2418427794802004  0.4970864886587311  0.2432891129968152
  0.2632088213350776  0.4910574777372761  0.7407566421751112
  0.7759879853650563  0.9794156892007564  0.2341654335911502
  0.2481402701433668  0.4982739484647882  0.4914384104919279
  0.7381664915983276  0.0024165382228869  0.9932824396364268
  0.7275593441079476  0.9864082297126285  0.4862564670940714
  0.2457869182334566  0.4742695705097963  0.0001433811321663
  0.9931611643954221  0.2455188268940057  0.3699792433498182
  0.4886982478160510  0.7379338202630207  0.8730461310914681
  0.4983545187585577  0.2470999112136792  0.6245799923925187
  0.9989763738824061  0.7292127177315438  0.1290555340231520
  0.9790855899059887  0.2401665521491518  0.8812855475537794
  0.5023995936534905  0.7501545395305715  0.3659108094367237
  0.9803926051737802  0.7460156077755201  0.6147721373331092
  0.5125386291474808  0.2320608173767843  0.1268423887233367
  0.1460094686652471  0.3772534552295141  0.0498623426319489
  0.6306927240489020  0.8771832658560430  0.5309990058381210
  0.6357114751097849  0.1061768334673628  0.9517863294574036
  0.1546711882998095  0.5890456966080280  0.4433405758631201
  0.3306062312123504  0.3614038846520362  0.9478785663513555
  0.8308161337296879  0.8915873298758626  0.4448493501642771
  0.8506765614783991  0.1011736365270550  0.0375444376006614
  0.3202409735431565  0.6231927505438672  0.5396079635328106
  0.8718079101457628  0.0770836218115077  0.1913361342005862
  0.3495275030400423  0.5983953837164063  0.6962061348366669
  0.8645215953638932  0.8854124726700722  0.2877499966867318
  0.3552669515172623  0.3936367109854950  0.7964241296421882
  0.1269186402553715  0.6021137179980951  0.2843207753213713
  0.6519589519065605  0.0954370283529156  0.7906846909490650
  0.1415273872927791  0.3988019461720666  0.1953513541676649
  0.6168765840539234  0.8960677850959849  0.7069194062792719
  0.8501090499376331  0.5978852019869112  0.9544192641497881
  0.3138779730416236  0.1259182208144473  0.4533342044857248
  0.8626394566726245  0.3699079668922942  0.5388683988946992
  0.3509202768457205  0.8729941103015707  0.0464734046712806
  0.1171713308671520  0.1197482435102759  0.5529284100091998
  0.6462060783643024  0.6012927106300514  0.0479266702490454
  0.1348395043010859  0.8652905948099913  0.9565952965336013
  0.6450393997134727  0.3754060613795701  0.4590842696109056
  0.6375044480759028  0.3883783628733973  0.2883554336873512
  0.1313041468498434  0.8955380713605738  0.8038242642070508
  0.0815292933562658  0.0796175060742036  0.7091404175255160
  0.6482406107510997  0.6100174981485389  0.1921219928385454
  0.8755540345250320  0.3908836091756520  0.7079455008713542
  0.3805004046680470  0.8770754632360996  0.2002832261017176
  0.3633593692598632  0.0843151969826271  0.2981282940350272
  0.8453908241937158  0.5984436142031162  0.8099962096645844
  0.1585248854033005  0.0536198020695176  0.0624894894456895
  0.6658016472418151  0.5682514068268313  0.5466892510693597
  0.6321401870706325  0.3965590960764332  0.9529612046665618
  0.1401451201633830  0.9119698471399953  0.4393731619169365
  0.3263552796911307  0.0622587618935867  0.9555698207660236
  0.8510516474686568  0.5800300111554112  0.4496236599811572
  0.8271224585494837  0.3974946072947551  0.0473220283066137
  0.3032366627841142  0.9340734952465666  0.5484052741892128
  0.1758177418651627  0.0706549423582332  0.1972413087210875
  0.6952593017191657  0.5830930659884468  0.6978688919232754
  0.1781836218029715  0.9001345090772347  0.2999069009592449
  0.6765603823243729  0.3919724421274294  0.8032329777317400
  0.8201675819825239  0.5944851150061303  0.3046283029172447
  0.3014559421046646  0.1079828088821019  0.7913012505441119
  0.8188383439072751  0.4033533532766532  0.1971059603972071
  0.3226566255140869  0.8958819398017211  0.7040864764976429
  0.8122878809032142  0.9031095117010591  0.9387499774091157
  0.3626587682521706  0.3937053018692511  0.4451549461624753
  0.8177621128224137  0.0713635509866777  0.5442141432420481
  0.3395033134179144  0.5751002783095983  0.0441676272214222
  0.1665117585120958  0.4122967978597019  0.5478804159519109
  0.6555087759333964  0.9302617704230165  0.0529347057801657
  0.1549517330251872  0.5529559017193952  0.9479136577738699
  0.6540547015577687  0.1026400300790874  0.4399009591923252
  0.3317487051135746  0.3850550676195891  0.2860160870482148
  0.8187880183835889  0.8868131903318428  0.8038594198064513
  0.8280726522303724  0.0719073908626569  0.6947979377316020
  0.3395785607167734  0.5941411134146134  0.1956126920779361
  0.1471255424489211  0.4121326029348786  0.6931645335487429
  0.6804302548409363  0.8939476192720711  0.1814873328962421
  0.6879912255207451  0.0793779525537579  0.2831447922895266
  0.1651944087825295  0.5699506629123974  0.8040225914593694
  0.0954674483426215  0.1721305470820986  0.3262798705741148
  0.5773202429513546  0.6331886652548493  0.8349007783491360
  0.5858849019924660  0.3075620429548653  0.6811123930524190
  0.0847392980583608  0.8166248326731194  0.1754814329399344
  0.3706202919923223  0.1968276428826031  0.6543792922532664
  0.8851258431141433  0.6421610658034467  0.1605743066004497
  0.8900247716504655  0.3268601347780561  0.3268469031950933
  0.3887393412323670  0.8172838881108766  0.8300514124873005
  0.0656870103636824  0.1433185676321383  0.9303901306790250
  0.5840732310942783  0.6796050926366898  0.4216106506914111
  0.0861326502923712  0.8492803526159918  0.5911956658252281
  0.5568535846179696  0.3614527268767272  0.0864862919149364
  0.9139754669938893  0.6715131745809924  0.5591787762624711
  0.4180314753428194  0.1479433474595368  0.0839589132543350
  0.9129699633825257  0.3377227898088883  0.9253503134881065
  0.4210802526737423  0.8628138146889752  0.4076700884356660
  0.8849409970788121  0.8390052354695784  0.6544506029960692
  0.4298708834664179  0.3078343332547435  0.1812380270917752
  0.8950994256358957  0.1425942809343889  0.8357318926507024
  0.4145989669638285  0.6586006120573928  0.3250208374685421
  0.0803400643402855  0.3001490992755204  0.8308323969129191
  0.6079896814842278  0.8197271785247073  0.3243840474868336
  0.0599930280778349  0.6535955120575542  0.6618026004187251
  0.6135487676881248  0.1460708949693830  0.1600245686413301
  0.4428453740484306  0.3507777059747466  0.5778706033197157
  0.9232229553780990  0.8113651991761324  0.0730954040066248
  0.9006839456827151  0.1521470281492630  0.4080972564548185
  0.3928232224420607  0.6624759782330009  0.9219752133829043
  0.0651757229837846  0.3439531883951309  0.4221763488630505
  0.5781016919152016  0.8329173468832789  0.9130857016707822
  0.5720974606032977  0.1494732501915356  0.5778558521051059
  0.0945445360127051  0.6330376367652858  0.0969800634660927
 
  0.67478042E-02 -0.62841791E-02 -0.57701593E-02
 -0.58413624E-02 -0.40009172E-02  0.79229442E-02
 -0.41010353E-02 -0.10170355E-03 -0.34178970E-02
 -0.12225636E-02  0.27820307E-03  0.17995813E-02
  0.29668290E-02  0.69110459E-02  0.18859574E-02
 -0.34485381E-02 -0.51125126E-02 -0.62253435E-02
  0.19056423E-02  0.15202703E-02 -0.39932565E-02
 -0.29545172E-03  0.27162843E-03 -0.15105683E-02
 -0.88543726E-04  0.19321064E-02 -0.32971010E-02
 -0.17499080E-02 -0.52255026E-02 -0.35433954E-02
  0.31296985E-02 -0.25687736E-02 -0.13096923E-02
 -0.49723220E-02  0.12695383E-02 -0.33343778E-02
  0.14097870E-02  0.35259571E-02  0.31013152E-02
  0.11550867E-03  0.24233363E-02 -0.37941277E-02
 -0.44898924E-04 -0.94870200E-02  0.12863638E-02
 -0.44260242E-02 -0.56479713E-03  0.41561919E-02
  0.92734198E-02  0.19887465E-02 -0.81242241E-02
 -0.41074188E-02 -0.32125237E-02  0.17570703E-02
  0.41130184E-03  0.36792036E-02  0.28621132E-02
 -0.48529852E-02  0.38228989E-02 -0.95659616E-02
  0.39142369E-02 -0.67707485E-02  0.47058746E-02
 -0.69575617E-02 -0.47094233E-02  0.26410121E-03
  0.55147574E-02 -0.72485461E-03  0.56672543E-02
  0.94468188E-03 -0.22922928E-02 -0.35752468E-02
 -0.35322233E-02  0.26773378E-02 -0.54073748E-02
 -0.30953809E-03 -0.16617798E-02  0.88318433E-02
  0.59038011E-02 -0.62610317E-02  0.23358715E-02
 -0.20153015E-02  0.24780029E-02 -0.49038074E-02
  0.72110998E-02  0.43930035E-02 -0.31980242E-02
 -0.65145425E-03  0.39402866E-02 -0.73241357E-02
  0.25321739E-02 -0.11187930E-01  0.33050623E-02
  0.61935773E-02  0.19826851E-02 -0.21463264E-02
 -0.19456631E-02  0.27311279E-02 -0.83830182E-02
  0.32794639E-02 -0.15860993E-02  0.59245130E-02
  0.95645442E-03 -0.14236207E-02 -0.45123458E-02
 -0.69938444E-02 -0.14059610E-02 -0.53788513E-02
  0.37229939E-02 -0.59379681E-02  0.31690174E-02
  0.40725599E-02 -0.24473892E-02 -0.14547210E-02
 -0.22809731E-02 -0.35371461E-02  0.32849644E-02
 -0.13581182E-02 -0.10143355E-02  0.26912936E-02
 -0.75091749E-03 -0.78448608E-02 -0.22287455E-02
 -0.12185603E-01  0.40541725E-02  0.26964634E-02
 -0.43600957E-02 -0.27679309E-03  0.15458689E-02
  0.11679564E-01  0.47941120E-02  0.26980456E-02
  0.32525434E-02 -0.40729621E-02 -0.61429708E-03
  0.80299876E-02 -0.12523494E-02  0.57203586E-02
  0.16490893E-02  0.67465177E-02  0.59730056E-02
  0.95913284E-02 -0.45356293E-02 -0.49984113E-02
  0.49279768E-02  0.46025973E-03 -0.26412813E-02
 -0.12107163E-01  0.54415731E-02  0.27048910E-02
 -0.24277872E-02 -0.20248798E-02 -0.28139852E-02
 -0.83440404E-03 -0.53514163E-02 -0.29477333E-02
  0.14108989E-02 -0.26530432E-02 -0.16982621E-02
  0.44499127E-02 -0.86610911E-02 -0.80738849E-02
 -0.69197224E-02  0.86046316E-02  0.29765586E-03
  0.67911281E-02 -0.10767218E-01  0.31191921E-02
  0.41555951E-03 -0.96980867E-02  0.60986286E-02
 -0.54295661E-02  0.25558401E-02 -0.12032132E-02
 -0.79970246E-02 -0.20867914E-02  0.37499055E-02
 -0.64410014E-02 -0.49186092E-02  0.11381024E-02
 -0.24548861E-02 -0.77915907E-02 -0.15250819E-02
 -0.34755385E-02 -0.51355456E-02 -0.45630861E-02
 -0.10382939E-02  0.34769262E-02 -0.94040389E-02
 -0.21742730E-02  0.20489708E-02  0.96312192E-02
 -0.35921704E-02 -0.77810712E-03  0.89203582E-02
  0.10803859E-01 -0.18567469E-03  0.13504463E-02
  0.47909282E-02 -0.82929849E-02 -0.98085536E-03
 -0.52396375E-02 -0.54421795E-02  0.16247237E-02
  0.48170436E-02 -0.34919388E-02 -0.23603696E-02
  0.15545201E-02  0.13776368E-02  0.24665409E-02
 -0.12817473E-02 -0.24497938E-03 -0.10166553E-01
 -0.60979165E-03  0.24492323E-02 -0.25511635E-02
  0.29365300E-02 -0.34659888E-02  0.36200120E-02
 -0.13865874E-02  0.10952525E-02 -0.19847240E-02
 -0.54288887E-02 -0.66734731E-03  0.90529671E-02
  0.41987573E-03  0.55680491E-02 -0.47606715E-02
  0.18319161E-02  0.18613352E-02  0.12064393E-02
 -0.48715863E-02  0.12404040E-02  0.13572192E-02
 -0.31428135E-03 -0.19747900E-02 -0.51732656E-02
  0.16563946E-02 -0.43453162E-02  0.79130843E-03
 -0.24772214E-02 -0.82445141E-03  0.31645588E-02
 -0.47210794E-02  0.20304307E-02 -0.21014072E-02
 -0.23274870E-03  0.14255191E-02 -0.22573962E-02
  0.47920482E-02  0.11162314E-02 -0.98494141E-03
  0.69587569E-05 -0.20905795E-02  0.25492229E-02
 -0.84265629E-02 -0.17629907E-02 -0.26317959E-02
 -0.34056118E-02  0.14907265E-02 -0.33595926E-02
 -0.18045259E-02 -0.19865776E-02  0.47908575E-02
  0.42425517E-03  0.71091805E-03  0.12569987E-02
  0.20011643E-02  0.36284143E-02  0.43511794E-02
 -0.16678171E-02  0.10930489E-02  0.13602259E-02
  0.17652708E-02  0.26015863E-02  0.16097483E-02
  0.11690091E-02 -0.18380719E-02 -0.10772460E-02
 -0.31202176E-02  0.33188944E-02  0.91452133E-03
  0.27793730E-02  0.41741300E-02 -0.43753781E-02
  0.24274346E-02 -0.59549884E-04  0.12031914E-02
 -0.22456687E-02  0.16149680E-02 -0.34027304E-03
  0.47426352E-02 -0.18736746E-03  0.76250223E-03
 -0.13989034E-02  0.13400883E-02 -0.22915710E-03
 -0.66281220E-04  0.59002885E-03 -0.38288602E-02
  0.56299104E-03  0.86329340E-03 -0.40699283E-03
  0.79727672E-03 -0.10288421E-02 -0.23542192E-02
 -0.86260135E-03 -0.56215856E-02  0.71986949E-03
 -0.19005389E-02  0.23314045E-02  0.28664507E-02
 -0.68182664E-02 -0.56451262E-02 -0.98763502E-03
 -0.50923321E-03 -0.43624322E-03 -0.18044203E-02
  0.18221476E-03  0.16660372E-03  0.44539140E-02
 -0.26036524E-02 -0.63788231E-02 -0.10060325E-02
 -0.81092964E-02 -0.53290964E-03 -0.35872856E-03
 -0.50417200E-03  0.10436357E-02  0.29537533E-02
 -0.30513824E-02 -0.80183496E-02 -0.92622615E-02
 -0.35754039E-02  0.47128252E-03 -0.31005305E-02
 -0.29782788E-02 -0.47622764E-02 -0.21026389E-02
  0.14285656E-02 -0.19543470E-02 -0.10392140E-01
 -0.66087399E-02  0.11034074E-01 -0.69186999E-02
  0.20140746E-02  0.50154319E-02  0.45807221E-02
  0.27782496E-02 -0.96944220E-04  0.29577069E-02
 -0.53106692E-02  0.36557400E-02  0.42617833E-02
 -0.22151371E-03 -0.41408256E-02 -0.29515990E-02
 -0.14298074E-02  0.17451501E-02  0.20116834E-02
 -0.14999802E-02 -0.84274158E-04 -0.28495217E-02
  0.24376192E-02  0.12355923E-03 -0.80589832E-03
  0.12195913E-02 -0.18047738E-02  0.62988156E-02
  0.19389020E-03 -0.36501067E-02 -0.25126381E-02
  0.66034271E-02 -0.14108499E-02 -0.25063921E-02
  0.70962597E-03  0.16724197E-02 -0.36909676E-02
 -0.20647901E-02  0.12219141E-02  0.76310692E-03
 -0.74467202E-02  0.71355610E-02  0.23235270E-02
  0.34146514E-03 -0.71786739E-02 -0.61448383E-03
  0.70606973E-02 -0.20344142E-02  0.24332703E-02
  0.74946465E-02  0.96649231E-02  0.51597874E-02
  0.14922238E-02  0.25531107E-02 -0.56529319E-02
  0.26450893E-02  0.52559033E-02  0.12463326E-02
  0.33509479E-02  0.10354118E-02  0.69510571E-02
 -0.56056037E-02  0.28982193E-02 -0.60951408E-02
 -0.21308923E-02  0.41720478E-02  0.34344645E-02
  0.23442485E-02 -0.15629654E-02 -0.69764838E-02
  0.17907627E-02  0.20594178E-03  0.24181002E-02
  0.17693895E-02  0.26378674E-03 -0.74258391E-03
  0.31078321E-02 -0.37910639E-02 -0.18715810E-02
  0.13515494E-02  0.11248155E-03 -0.31202761E-02
 -0.10254141E-02  0.28709047E-02  0.78494674E-02
  0.24858674E-02 -0.80639208E-03  0.15159583E-03
 -0.21648934E-02 -0.35500363E-02  0.54584889E-02
 -0.55773421E-02 -0.16780265E-02  0.48852156E-04
  0.29196875E-02  0.65837701E-02 -0.33008687E-02
  0.59882069E-02 -0.49517378E-02  0.98874206E-02
 -0.30689184E-04  0.83968610E-03  0.11005788E-02
 -0.35014858E-03  0.49423571E-02 -0.31652741E-02
  0.65769767E-02  0.55880125E-02  0.97927778E-02
 -0.16053698E-02 -0.15575210E-02  0.48130915E-02
  0.97412917E-03 -0.43494759E-02  0.65679042E-02
 -0.26577826E-02 -0.33296995E-03 -0.42993507E-03
  0.86824804E-02 -0.71164624E-02 -0.31370981E-02
 -0.29715301E-02  0.28877150E-02  0.40357552E-02
  0.38583029E-03  0.22865268E-02  0.42694039E-02
  0.24095254E-02  0.12500587E-03  0.73031725E-02
  0.69979327E-02  0.20745614E-02  0.22610824E-02
  0.30306952E-02 -0.26332598E-02 -0.39437505E-02
 -0.29455471E-04  0.73049784E-02 -0.71127398E-02
 -0.49900027E-02  0.12050362E-02  0.51100454E-03
 -0.76752020E-03  0.11312933E-02  0.10528031E-02
 -0.44218878E-02  0.49359563E-02  0.88049733E-03
 -0.35405320E-02 -0.16413735E-02 -0.32886846E-02
  0.14749603E-02 -0.90012957E-02 -0.23449513E-02
 -0.80258721E-03 -0.47039625E-02 -0.25321988E-02
  0.22394579E-02  0.12207435E-02  0.24428858E-02
 -0.24102437E-02  0.93867874E-03 -0.62313539E-04
  0.24348240E-02  0.30074452E-02 -0.19039736E-02
  0.67279533E-03  0.75730861E-02 -0.95008834E-03
 -0.64972786E-02 -0.35387033E-02  0.54360773E-03
  0.73999196E-03  0.94836404E-03 -0.33428634E-02
  0.23948538E-03  0.96107990E-02 -0.61320082E-02
  0.11050097E-02  0.19227291E-02  0.55633000E-02
 -0.40299715E-03 -0.42772168E-02  0.68199549E-02
  0.41047501E-02 -0.36364839E-02 -0.18592685E-02
 -0.92335877E-03 -0.11820993E-02  0.37537833E-02
 -0.65309631E-03 -0.73359760E-03 -0.15360371E-02
 -0.97448047E-03 -0.20928223E-02 -0.38497319E-03
  0.72319582E-02 -0.86140946E-03  0.54515391E-03
 -0.48808108E-02 -0.28999551E-02  0.46721983E-02
 -0.20329395E-02  0.27620473E-02  0.45908444E-02
 -0.81695010E-03  0.20003786E-02  0.58889214E-02
  0.47671570E-04  0.48997929E-02 -0.23199163E-02
  0.50265925E-02 -0.21885940E-02 -0.55972630E-03
 -0.24755178E-02 -0.16587228E-02 -0.23646677E-02
 -0.53283316E-02 -0.16471280E-02 -0.23372999E-03
 -0.17525948E-02 -0.37983520E-02 -0.86333916E-03
  0.61680303E-02  0.23502655E-02 -0.24905703E-02
 -0.43095692E-02  0.72951705E-02  0.27693966E-03
 -0.81826884E-02 -0.27301469E-02 -0.45621093E-02
 -0.36859022E-02  0.17278889E-02  0.21650428E-02
  0.32393649E-02 -0.37696380E-03  0.56206777E-02
 -0.28311362E-02 -0.39059131E-03  0.47860006E-02
  0.29876913E-02  0.35664890E-02  0.67302760E-03
 -0.16605955E-02  0.32650539E-03 -0.95985366E-03
  0.39996887E-02 -0.41389872E-02 -0.53358774E-02
 -0.34824956E-02  0.65258074E-02 -0.74701529E-02
 -0.15845034E-02 -0.78324847E-03 -0.11645557E-03
  0.54483486E-02  0.14685618E-02  0.29223545E-02
 -0.88781354E-02  0.80173201E-03 -0.30136216E-02
  0.39678365E-02 -0.13918503E-02  0.33101568E-02
  0.24164883E-02  0.23326892E-02 -0.26513123E-02
  0.77560406E-02  0.14433520E-02  0.31146830E-03
  0.59394823E-02  0.29612536E-02 -0.50655048E-02
 -0.45297839E-03  0.88552269E-03 -0.30402181E-02
  0.17251915E-02  0.45764534E-02  0.28461437E-02
 -0.46109866E-02 -0.13627398E-02  0.32227843E-02
 
           1
   2.00000000000000     
  0.97348959E+00  0.10973047E-02  0.00000000E+00  0.00000000E+00
  0.18707376E-01  0.98739485E+00  0.13383631E+00
  0.49921603E+00  0.49560190E+00  0.74161277E+00
  0.24692018E+00  0.45489271E+00  0.87548547E+00
  0.10508310E-01  0.97230994E+00  0.36877842E+00
  0.67548895E+00  0.63480903E-02  0.87328323E+00
  0.98985108E+00  0.52854972E+00  0.37662135E+00
  0.95682403E+00  0.46329745E+00  0.12921041E+00
  0.24687160E+00  0.23958778E+00  0.13662761E+00
  0.71972281E+00  0.96934821E+00  0.60940643E+00
  0.75454876E+00  0.23959409E+00  0.74301237E+00
  0.78328293E+00  0.72619877E+00  0.38576408E+00
  0.23777359E+00  0.19866562E+00  0.87004234E+00
  0.73281848E+00  0.24460245E+00  0.10462896E+00
  0.24243163E+00  0.74846001E+00  0.62217730E+00
  0.30265277E-03  0.97804554E+00  0.88793075E+00
  0.52692647E+00  0.48090673E+00  0.38996163E+00
  0.97432967E+00  0.12729971E-01  0.62262101E+00
  0.30952356E-01  0.47235714E+00  0.61877138E+00
  0.51230634E+00  0.97871542E+00  0.12619996E+00
  0.13055529E-01  0.49608263E+00  0.87174017E+00
  0.52818979E+00  0.20997566E-01  0.35625352E+00
  0.24387421E+00  0.24914898E-01  0.37554211E+00
  0.75450934E+00  0.47610401E+00  0.87750133E+00
  0.78303466E+00  0.47774846E+00  0.61773176E+00
  0.25062372E+00  0.77115413E+00  0.13211528E+00
  0.28915863E+00  0.23934096E+00  0.55494835E+00
  0.72689211E+00  0.73147578E+00  0.12233198E+00
  0.77131680E+00  0.24701135E+00  0.47052162E+00
  0.47328481E+00  0.77150617E+00  0.49715945E+00
  0.48334014E+00  0.24234531E+00  0.99727831E+00
  0.11297822E-01  0.24126572E+00  0.49140228E+00
  0.76443747E+00  0.73671076E+00  0.74484582E+00
  0.96436731E+00  0.71485523E+00  0.25413006E+00
  0.49916378E+00  0.22965871E+00  0.76891771E+00
  0.98390008E+00  0.95974453E+00  0.41404148E-02
  0.49724612E+00  0.26266858E+00  0.47994730E+00
  0.51213697E+00  0.76099049E+00  0.71359969E-02
  0.81579119E+00  0.24358603E+00  0.24194273E+00
  0.20602974E+00  0.74184565E+00  0.74944677E+00
  0.48281518E+00  0.70708901E+00  0.23258716E+00
  0.18255089E-01  0.77765818E-04  0.25519934E+00
  0.46700127E+00  0.45979097E+00  0.87088261E+00
  0.47118373E+00  0.98166877E+00  0.77913985E+00
  0.98327363E+00  0.47456475E+00  0.26757477E+00
  0.22396173E+00  0.20276620E+00  0.99393778E+00
  0.75087918E+00  0.73283968E+00  0.49761632E+00
  0.15321035E+00  0.75921970E+00  0.50887583E+00
  0.75082258E+00  0.25200680E+00  0.98905975E+00
  0.97950669E+00  0.91559868E+00  0.73199046E+00
  0.49859691E+00  0.50535682E+00  0.25959179E+00
  0.69121751E-02  0.54365187E+00  0.75327235E+00
  0.53162038E+00  0.96574577E+00  0.25213947E+00
  0.25586277E+00  0.27321628E+00  0.38505785E+00
  0.76332646E+00  0.75898285E+00  0.98967450E+00
  0.72839112E+00  0.24666478E+00  0.61808302E+00
  0.23071966E+00  0.73213784E+00  0.52584568E-02
  0.98459807E+00  0.24049927E+00  0.14019009E-01
  0.48493137E+00  0.51563299E+00  0.51495615E+00
  0.49091028E+00  0.55283410E+00  0.13322824E+00
  0.51194460E-02  0.50302388E+00  0.50964825E+00
  0.47838592E+00  0.99988363E+00  0.99972727E+00
  0.99482548E+00  0.97319910E+00  0.51665983E+00
  0.99527535E+00  0.53553404E+00  0.13310702E-01
  0.46454928E+00  0.30690403E-01  0.51557493E+00
  0.53777633E+00  0.23266089E+00  0.25459075E+00
  0.73059524E+00  0.75170791E+00  0.87127525E+00
  0.23200250E+00  0.74862819E+00  0.24381676E+00
  0.99511676E+00  0.25232124E+00  0.74762520E+00
  0.73137677E+00  0.75685199E+00  0.25698012E+00
  0.24045900E+00  0.26111110E+00  0.72291395E+00
  0.25144783E+00  0.22877896E+00  0.25217476E+00
  0.49977832E+00  0.75410312E+00  0.74628264E+00
  0.25346406E+00  0.47101301E+00  0.11858832E+00
  0.46124743E+00  0.12249086E-01  0.64818804E+00
  0.73046722E+00  0.24172431E+00  0.87123608E+00
  0.26624194E+00  0.51222701E+00  0.36419803E+00
  0.20236569E+00  0.70856126E+00  0.87900832E+00
  0.76765096E+00  0.98945671E+00  0.36858202E+00
  0.81061172E+00  0.97805656E+00  0.10454822E+00
  0.31025462E+00  0.47476706E+00  0.61970277E+00
  0.47531456E+00  0.48556955E+00  0.99232715E+00
  0.23885007E+00  0.76021695E+00  0.38358715E+00
  0.72727552E+00  0.74817455E+00  0.60802304E+00
  0.29511110E+00  0.25458462E-02  0.12889441E+00
  0.21158922E+00  0.27933119E-01  0.63091358E+00
  0.72252185E+00  0.50194779E+00  0.12056794E+00
  0.26227077E+00  0.94120884E+00  0.87467000E+00
  0.75171211E+00  0.44348036E+00  0.37450763E+00
  0.28251553E+00  0.97709036E+00  0.24708728E+00
  0.77224829E+00  0.49756453E+00  0.75277936E+00
  0.21102405E+00  0.99535578E+00  0.74964878E+00
  0.72602196E+00  0.49537010E+00  0.25000204E+00
  0.23599171E+00  0.96127703E+00  0.21391183E-02
  0.75031045E+00  0.48308273E+00  0.49784411E+00
  0.20403986E+00  0.17808155E-01  0.49676377E+00
  0.74357024E+00  0.50365553E+00  0.99875079E+00
  0.73989226E+00  0.97937930E+00  0.75136689E+00
  0.24255370E+00  0.49705840E+00  0.24334626E+00
  0.26299913E+00  0.49125836E+00  0.74073947E+00
  0.77597805E+00  0.97950413E+00  0.23387846E+00
  0.24822466E+00  0.49840336E+00  0.49140791E+00
  0.73828600E+00  0.22623147E-02  0.99310599E+00
  0.72743004E+00  0.98556555E+00  0.48631042E+00
  0.24550203E+00  0.47461905E+00  0.35822180E-03
  0.99213911E+00  0.24467262E+00  0.36990522E+00
  0.48862191E+00  0.73786843E+00  0.87291089E+00
  0.49838183E+00  0.24712489E+00  0.62491381E+00
  0.99858609E+00  0.72825653E+00  0.12898013E+00
  0.97787001E+00  0.24008667E+00  0.88125866E+00
  0.50232402E+00  0.75031098E+00  0.36613219E+00
  0.97993520E+00  0.74481366E+00  0.61407793E+00
  0.51200268E+00  0.23213146E+00  0.12661000E+00
  0.14556302E+00  0.37653959E+00  0.49704750E-01
  0.63090687E+00  0.87689031E+00  0.53022011E+00
  0.63472082E+00  0.10783084E+00  0.95126777E+00
  0.15497310E+00  0.58979751E+00  0.44368390E+00
  0.33102269E+00  0.36138935E+00  0.94810025E+00
  0.83002006E+00  0.89213533E+00  0.44516877E+00
  0.85064336E+00  0.10055293E+00  0.37323215E-01
  0.32002665E+00  0.62345435E+00  0.53975874E+00
  0.87158306E+00  0.77070989E-01  0.19112256E+00
  0.34989290E+00  0.59841391E+00  0.69614573E+00
  0.86470441E+00  0.88514194E+00  0.28822209E+00
  0.35529602E+00  0.39308956E+00  0.79623581E+00
  0.12790849E+00  0.60190223E+00  0.28413292E+00
  0.65206532E+00  0.95687724E-01  0.79040805E+00
  0.14121787E+00  0.39898511E+00  0.19540855E+00
  0.61576032E+00  0.89713741E+00  0.70709355E+00
  0.85016024E+00  0.59680912E+00  0.95437321E+00
  0.31493637E+00  0.12561326E+00  0.45351658E+00
  0.86376291E+00  0.37135674E+00  0.53925513E+00
  0.35114396E+00  0.87337682E+00  0.46049717E-01
  0.11756783E+00  0.12053610E+00  0.55302182E+00
  0.64670839E+00  0.60144792E+00  0.48447652E-01
  0.13399922E+00  0.86572504E+00  0.95613847E+00
  0.64471998E+00  0.37603145E+00  0.45934168E+00