Na88 Sn16 P8 S96                        
   1.00000000000000     
    13.4813327813000008    0.0000000000000000    0.0000000000000000
     0.0000000000000000   13.4813327813000008    0.0000000000000000
     0.0000000000000000    0.0000000000000000   26.9626655626000016
   Na   Sn   P    S 
    88    16     8    96
Direct
  0.3036785875472655  0.7599776191468764  0.1184409399811908
  0.4924428418352849  0.5182813742987959  0.5952736177028156
  0.5374352680145804  0.5049826696876355  0.7671934801038136
  0.0129856773290145  0.0045968216912369  0.4622151695285816
  0.2498376622729750  0.2423821941923377  0.9934375854450695
  0.0126166887119842  0.5007695036090910  0.3713266872718332
  0.0225312592330715  0.4899404626556415  0.1259008308820664
  0.2995038557390116  0.2531360421440167  0.2251680311736576
  0.7731620774310733  0.0037892502057848  0.6280260333482458
  0.7313682831615963  0.2288995395435708  0.8696313145018982
  0.7571257573401661  0.7418052420216920  0.3459460956259200
  0.5198918077883573  0.2497765861637597  0.9634733298207994
  0.9987245782008120  0.9952490572540412  0.1672879138595610
  0.2226667581824177  0.9806641314126533  0.6272970535076924
  0.0090594835637555  0.9521188329239032  0.8687991518998599
  0.2553236281405160  0.5128720484015491  0.3816587487445377
  0.0036645171625254  0.0080347557324904  0.7613863100220184
  0.0464531024575555  0.5267808219604873  0.8636941495803524
  0.7417570209338771  0.0109737490931715  0.1228526738564104
  0.2760510301485052  0.2853985172188048  0.8733099711793013
  0.5483694870072683  0.0499166666434698  0.3612907907158658
  0.3106126452094367  0.2484677548883605  0.3660974685872682
  0.7920135747330594  0.7240655555579824  0.8791576405233413
  0.8421723200151764  0.5143023584623567  0.6146706503197527
  0.2934499298105038  0.7521441280765766  0.9804262809985353
  0.2740733108138957  0.2196028540792253  0.6153242441821022
  0.7504125186244784  0.5537889657911277  0.1103801939735558
  0.7540932170200821  0.2416492461812259  0.3845754441652224
  0.0101557246302276  0.7394604722305540  0.4827558192377884
  0.5372212056092422  0.7474409711921325  0.9981353811533518
  0.0029587682695631  0.4527624506166342  0.4898511675121596
  0.4911834493972203  0.9976420815129479  0.7437773459515223
  0.0395594196907468  0.7468998653196688  0.2556878406248696
  0.4649299237067314  0.2420543667445185  0.7617354946168552
  0.0234170237306933  0.9905325663962873  0.9841560554650786
  0.4754848153551748  0.6257070073559603  0.5093041018473774
  0.5224992036925484  0.0351310469729341  0.9971632804059151
  0.7999018491540543  0.2826076793019124  0.2541533513334220
  0.7758754785952995  0.7048365211309828  0.7365098233458239
  0.5520326196684596  0.1112129139778178  0.2209551415493387
  0.0320724061949927  0.9953716939625588  0.2819884009249122
  0.0343040373856659  0.7273151242788510  0.7625808747672157
  0.5163271875570449  0.0334631384221802  0.8834774185067822
  0.0150798777426319  0.4950086935103217  0.2438732422768498
  0.2203676416278660  0.0271281031815901  0.1343619418695088
  0.7280710938018572  0.7344716634311870  0.4750878873089038
  0.0129072908015444  0.5017460317436720  0.7220464793218204
  0.7869689775928029  0.2318685559437638  0.9980120866291070
  0.7220011108709692  0.2319177932712014  0.7248522882228055
  0.5265569402737288  0.4770895186378207  0.3590772831184647
  0.0038468893010550  0.2395202477044370  0.7300867168354035
  0.4923585001646614  0.0107440094119432  0.1099411359986344
  0.2854033617861506  0.2525485581494494  0.4834384357674744
  0.8231875316716872  0.7744977005511405  0.0448483636590213
  0.5232232415370925  0.2492892172207947  0.4825820989183077
  0.0550619893574519  0.7710659176444516  0.9854549503679939
  0.0030882761892690  0.2248853216027007  0.0094179753572921
  0.2325864828845271  0.7464441258153350  0.5041290352632704
  0.3283424278621284  0.5423234075427685  0.8671358966011004
  0.9966716452002043  0.2529459519328195  0.5156351210409384
  0.4949436105539426  0.4951247259611041  0.9829928165087792
  0.7353057495651787  0.2372464514531868  0.4902148622086184
  0.9796181725645291  0.5068905575404172  0.0121641262612268
  0.5197132417931495  0.9596210428921702  0.4901275847135161
  0.0567809824678462  0.2360068424555589  0.2602757604859614
  0.4722053500848136  0.7564784807109792  0.7361280265782313
  0.5001538040160174  0.4540480019071051  0.2380504689338221
  0.7764930729751963  0.2583567333748518  0.6114739174638725
  0.5490518905687501  0.7652517511263338  0.2512200645186680
  0.2412016776636290  0.2349501246624618  0.7336486074557953
  0.7566697064975425  0.2764705146674263  0.1318672651384066
  0.2346857230898606  0.7262716821011816  0.6785641048969513
  0.2455315273807371  0.3911484668838181  0.1225689223796338
  0.4975894160157406  0.9644534600676354  0.6212152244316766
  0.7456433646981956  0.9814244670858523  0.8571984735279582
  0.2247791529645433  0.7471341319515428  0.3917136640870213
  0.2840599958154515  0.7504178468799326  0.8144785110890538
  0.7745358512519536  0.9949086907391144  0.3759451318367681
  0.7667364979928367  0.7906942438272403  0.1848595071495575
  0.2413267374915941  0.4606466366839231  0.6168945894218293
  0.7456591774144260  0.4880920136103499  0.8649266347164829
  0.2768987114889621  0.9850084032156177  0.3675434827576980
  0.7634138924736357  0.7433744601305383  0.6195238529352778
  0.2869311690651282  0.7526898462737662  0.2338509515412150
  0.9866792138522269  0.0121201643657262  0.6047528967984880
  0.5053731932462588  0.4799931295762883  0.1163994373767967
  0.2321956421353079  0.0131130595220824  0.8732920063893012
  0.7699741803018053  0.4801933394860300  0.3719107310437122
  0.2969453839274647  0.9953234709765879  0.2491548144323464
  0.7803096469951570  0.4830802619504270  0.7434831780786413
  0.2385900852739250  0.9996926173683031  0.7481160049079910
  0.7702792048883442  0.5485022551593504  0.2459633044782937
  0.2575280161534706  0.9940473661300386  0.0048392264164169
  0.7532491471413789  0.4849099643717935  0.4846644887930004
  0.2529710377716715  0.0137446881224969  0.5046526350538834
  0.7511328285922672  0.4843137362311591  0.9985013993615363
  0.7367035274988939  0.9681730783018395  0.7463126741762612
  0.2344867952307596  0.4919752795888849  0.2504114066642337
  0.2604582198870161  0.4978763542088533  0.7400758244410975
  0.7784683505856680  0.0126380688976049  0.2549332118909937
  0.2643588384465866  0.4826546626653178  0.4969464032951955
  0.7580731334178336  0.9851414272550487  0.9995866567223668
  0.7578714098350908  0.9953665889692812  0.5084946458405630
  0.2461092098835147  0.4959061926633440  0.0028998494717213
  0.0103944961723580  0.2335507397211224  0.3754787101603438
  0.5565175334905489  0.7373724565825452  0.8682567022898671
  0.4959654430888785  0.2666946667351832  0.6213080241005198
  0.0214836198341779  0.7521035397106671  0.1280895323257265
  0.0061030847444598  0.2424466564935752  0.8777911446321601
  0.4834985867001784  0.7374270048616957  0.3829551290775512
  0.9987738251372107  0.7320381236490272  0.6215570723233612
  0.4853397441878449  0.2526435252292855  0.1016866953068760
  0.1415463550908674  0.3812208422315254  0.0443736053731584
  0.6513591455426831  0.8965298100847836  0.5576348405333148
  0.6567720674844389  0.0900725797302053  0.9372520287987254
  0.1465614114786106  0.5962349305249448  0.4545238359187620
  0.3596985622517888  0.3807369958083380  0.9477482544627742
  0.8560017676958283  0.8850403587444049  0.4556989282023242
  0.8746521507937797  0.0738199990397680  0.0474843026397763
  0.3404177510400850  0.5928303846040482  0.5523387160107078
  0.8778502775217258  0.1125750994435856  0.2076815165204025
  0.3811321541822184  0.5819372523564011  0.6897588279572087
  0.8902241222381072  0.8824992490515663  0.2929395425965517
  0.3716002274928047  0.4096443821326046  0.7966893621950910
  0.1342344629765024  0.6046169593289370  0.3003772756214340
  0.6200285645653466  0.1029417946645899  0.7961404475526168
  0.1382937146551478  0.3776797544593243  0.2023006377611975
  0.6276019324915071  0.8727797711478368  0.6941325001914772
  0.8585399959023895  0.5776420067421205  0.9467725005328534
  0.3659515587019126  0.0922855151409698  0.4432199292335572
  0.8489346189551199  0.3691075916801957  0.5347073946293341
  0.3685099563522977  0.8927216312535931  0.0488278551032430
  0.1347013881957149  0.1105779072676364  0.5490425487660022
  0.6471201974111770  0.6103109661068231  0.0348864087990791
  0.1763736817916881  0.8880259843570089  0.9443214874327591
  0.6433477980310864  0.3831750945875838  0.4381208314629519
  0.6707201358314530  0.4281328690184631  0.2960597341637801
  0.1287813035908588  0.8945738184426836  0.7980810100406213
  0.1306628423408430  0.0904318789366571  0.6978375702124541
  0.6503031777672741  0.6300650322513018  0.1960356916976692
  0.8856160987064862  0.3754837881798413  0.6851391694580113
  0.3921178801410449  0.8977664902406963  0.1885992862845979
  0.4044539238577596  0.1187496247392566  0.2924020588273988
  0.8930744946669630  0.5911682163397248  0.7955311377324031
  0.1499962368949894  0.1021084961297192  0.0529339891605044
  0.6604087566869413  0.5872108805101454  0.5480368355379719
  0.6595069932319739  0.3749913577007814  0.9440241806140480
  0.1531942969018144  0.8898324971568727  0.4484794893911526
  0.3659570802037519  0.0938242357533667  0.9382830969188004
  0.8686446474989572  0.5944600643898671  0.4437108438019019
  0.8440289699016522  0.3883906971238414  0.0549305532273092
  0.3453052700261615  0.9160468487715629  0.5531784273692018
  0.1518859843461816  0.0903584907440491  0.2149276599135604
  0.6679696661951120  0.5860136073126520  0.6925958931065358
  0.1931254496375967  0.8871305283152183  0.2951424858802238
  0.7152394103468922  0.3571770123234502  0.7960354913403342
  0.8923371662150625  0.6047223124698468  0.3021785514728287
  0.3294323669192415  0.1038477486182383  0.8012895759163300
  0.8468092330973185  0.4264467354793772  0.1953813227760932
  0.3260115340569936  0.8930783548419574  0.6968667560098485
  0.8619733669563470  0.8791652423258873  0.9549518633278785
  0.3845958674374534  0.4187299169489372  0.4427630764068654
  0.8607291254452599  0.1149909588986701  0.5522741299963111
  0.3710269670735747  0.5924724254206392  0.0524385473921809
  0.1455364262581456  0.3735876614224214  0.5447348324928426
  0.6614005509927058  0.8828282594717028  0.0552936228289264
  0.1472404344975679  0.6106269046346415  0.9582388704348397
  0.6462396299780135  0.0804691001079700  0.4468775721550427
  0.3480125029607005  0.4082865960521235  0.3063297574783331
  0.8524365360025024  0.8903647045078392  0.7967206525482522
  0.8462031982963854  0.0803819014486208  0.7067715190203900
  0.3326222252450869  0.5771336019103519  0.1942678541202446
  0.1485988630675411  0.3810323884330670  0.6961278473193770
  0.6533990441831786  0.9439248123850797  0.2023816886235131
  0.6960633533319610  0.1381465928486872  0.3077333451566798
  0.1794911234810930  0.5874979864206765  0.8023940662111072
  0.0981349005216012  0.1246333331518563  0.3471385261931540
  0.6211537070919595  0.6414107869841739  0.8209411222975032
  0.5580627173256951  0.3656283663984610  0.6702439775667876
  0.1297109119166411  0.8171753598174978  0.1725819476413100
  0.4072021636952797  0.1622495648720077  0.6670149296966517
  0.9388234013030498  0.6524236045451222  0.1693505498000424
  0.9182278091467844  0.3382246974361255  0.3319576817669558
  0.4750477130277918  0.8257454802470054  0.8199292939559812
  0.0931336747266604  0.1382225926754073  0.9164876868267243
  0.5853322114601539  0.6406062842558690  0.4081017476240150
  0.0838448734658314  0.8337813963252493  0.5880816412513308
  0.4258072812550893  0.3593014509254951  0.0615373816682972
  0.9128652674058686  0.6772980297289393  0.5637818685779079
  0.3726748136185280  0.1553904202128027  0.1306447321367104
  0.1031464099185862  0.3070312313481767  0.8331580366163991
  0.4110367159452649  0.7789251885706968  0.4460625476294277
  0.9163517965066524  0.8164202001599258  0.6780255156852310
  0.5645223559265057  0.3135348191538082  0.1587165196375457
  0.9149657179367562  0.3219335659233329  0.9281224519809194
  0.3777710121812767  0.6678652542999233  0.3436687824911639
  0.9200081719128121  0.1457268931358189  0.8408898797617660
  0.5650524674023309  0.8593369101878988  0.3453247679160381
  0.0975314014880835  0.6185631933411917  0.6467991962782794
  0.5949822489076491  0.1813153117037634  0.0698231173034336
  0.4028193241907031  0.3345763549519576  0.5711147843963521
  0.9359252752803993  0.8742819080007078  0.1020219925803103
  0.9113927863491461  0.1730725166854073  0.4340006955130565
  0.4692101413960403  0.6548544256631794  0.9166884116496770
  0.1005190289800017  0.3142314668241296  0.4206941758851440
  0.6370973064574793  0.8332838659978808  0.9082207152933636
  0.5904829801058303  0.1737955966325117  0.5812760402700472
  0.0925045929885862  0.6741693312306025  0.0765096040376748
 
 -0.22879817E-02  0.99548894E-03 -0.48409478E-02
 -0.37612916E-02 -0.19054324E-02  0.37429409E-02
 -0.41929316E-02  0.57739272E-02  0.13235534E-02
  0.13266872E-02 -0.53069547E-02  0.37632773E-02
 -0.91304624E-02  0.69802571E-03 -0.43371994E-02
  0.57357704E-02  0.24702642E-02 -0.28116022E-02
  0.10050955E-01  0.12548107E-02  0.23163205E-02
  0.71705637E-03 -0.48494291E-02 -0.32662816E-02
  0.54460032E-02  0.16184709E-03  0.47923881E-02
 -0.56721976E-02 -0.85543747E-03  0.35383625E-02
  0.31980590E-02 -0.18749011E-02  0.71215587E-02
 -0.24539468E-02  0.39860784E-02 -0.51428809E-02
 -0.52680050E-02  0.63207244E-02 -0.12244562E-01
 -0.14478956E-01 -0.22988403E-02 -0.34392489E-02
  0.84963539E-03  0.12398073E-01  0.18915790E-03
 -0.73212100E-02  0.42115346E-02  0.81963904E-03
 -0.71007078E-02  0.41413301E-03  0.59938655E-02
  0.27060665E-02 -0.34910540E-03  0.37729613E-02
 -0.49707311E-02 -0.15085152E-03 -0.45403187E-02
  0.31540608E-02 -0.15660731E-02  0.12830298E-01
  0.59900290E-02  0.40713860E-02  0.38705830E-02
 -0.26679547E-03 -0.65593169E-03  0.74392981E-03
 -0.21482104E-02 -0.32844793E-02  0.86456169E-02
 -0.24777312E-02  0.67151753E-04  0.50657802E-02
  0.35010295E-03 -0.36033195E-02 -0.10397860E-01
 -0.41233005E-02 -0.42040631E-02 -0.10101584E-02
  0.20390178E-02 -0.85169017E-04 -0.36997773E-02
  0.14813491E-03 -0.68195018E-02 -0.92717536E-03
 -0.31252743E-02 -0.35417670E-02 -0.50123089E-02
  0.92446831E-02  0.12422243E-01 -0.34314372E-02
 -0.14721251E-02  0.34910964E-02  0.95866070E-04
 -0.54131310E-02 -0.52389709E-02  0.34518304E-02
 -0.18631589E-03  0.53747339E-02  0.45247744E-02
  0.23035656E-02 -0.48953569E-02  0.73243825E-04
 -0.40961076E-02 -0.23952710E-02 -0.11748526E-01
 -0.13407186E-02  0.61195646E-02 -0.69447505E-03
  0.49066300E-02 -0.11347923E-01  0.12055032E-02
  0.68727861E-03  0.25787563E-02  0.15655059E-02
  0.30686402E-02  0.24506006E-02  0.38240111E-02
  0.48167007E-03 -0.28060274E-02  0.35450223E-02
 -0.27529815E-02 -0.43748528E-02 -0.35460221E-02
 -0.11568252E-01  0.18086446E-02  0.30919670E-02
 -0.22625934E-02 -0.80904695E-02  0.29356414E-02
  0.31385662E-02  0.38433029E-02 -0.73735468E-02
 -0.14194483E-01 -0.40088098E-02  0.44726223E-02
 -0.79815279E-02 -0.75077413E-03 -0.13623278E-02
  0.60684818E-02  0.57747052E-04 -0.32099382E-02
 -0.58949013E-02 -0.23798612E-02 -0.36803159E-02
  0.13157773E-02 -0.77070878E-02 -0.96824430E-02
 -0.33471330E-02  0.23018543E-02  0.11152875E-01
  0.10365018E-03 -0.20197369E-02 -0.64106681E-02
  0.35263413E-02 -0.17908414E-02 -0.11381432E-01
 -0.20112353E-02 -0.54787709E-02  0.93140169E-02
 -0.22427286E-03  0.57357541E-02  0.20218402E-02
 -0.24532616E-02 -0.55643806E-02 -0.35103253E-02
 -0.69400474E-02 -0.10295586E-01 -0.12629018E-02
 -0.12842816E-02  0.40071930E-02  0.26639581E-02
 -0.57306241E-03  0.21434423E-02 -0.63121965E-02
 -0.39919134E-03 -0.94248392E-02 -0.12495922E-01
  0.12676949E-02  0.42678703E-02  0.27250042E-02
  0.18457477E-02 -0.32926656E-02  0.56265019E-03
  0.30852486E-02 -0.21651651E-02  0.11793023E-02
  0.47530852E-02 -0.92779216E-02  0.73216661E-02
  0.65112040E-02 -0.54136134E-02 -0.50047371E-02
 -0.33960898E-02 -0.89984927E-02  0.90057750E-02
  0.40207675E-02 -0.13750994E-02 -0.39020991E-03
 -0.70518535E-02  0.24627431E-02  0.13518411E-01
 -0.23608446E-02 -0.31946977E-02 -0.87873082E-02
  0.80408107E-02 -0.10035956E-02  0.33403606E-02
 -0.20057539E-02 -0.22719541E-02 -0.32246446E-02
 -0.28454059E-02 -0.67095338E-02 -0.42277991E-02
  0.81642536E-03 -0.45773058E-02 -0.51516354E-02
 -0.32754423E-02  0.83033153E-02  0.24069814E-02
 -0.91179364E-02  0.35968139E-02 -0.34066229E-02
 -0.21346882E-02  0.26268702E-02 -0.79516065E-02
 -0.47979714E-02 -0.12087523E-01 -0.62210111E-03
 -0.26868852E-02  0.91485525E-02 -0.11131188E-01
 -0.90026730E-03  0.42494369E-03 -0.14096168E-02
  0.15423864E-02  0.10227604E-02  0.46142751E-02
  0.78080863E-02  0.35121638E-02  0.58270765E-02
 -0.49002966E-02 -0.15668040E-02 -0.83765323E-02
 -0.33964762E-02  0.27712899E-02  0.29036519E-02
  0.26882459E-02  0.33895401E-02 -0.42012759E-02
 -0.11017335E-01  0.40316428E-02  0.31448042E-03
  0.53884177E-02 -0.13436463E-02  0.25562201E-02
 -0.80434445E-03 -0.72412767E-03  0.42008287E-02
 -0.63878174E-02  0.41087392E-02 -0.43679363E-02
 -0.38598301E-02  0.49473568E-02 -0.34542285E-02
 -0.52955836E-03  0.22823249E-03 -0.22476855E-02
  0.12869564E-02 -0.90128748E-03  0.33688656E-02
 -0.58231152E-03  0.23160733E-02  0.27240237E-02
  0.19336799E-02  0.10158866E-02  0.19593648E-02
 -0.38151546E-02  0.15508781E-02 -0.40733068E-02
 -0.53406031E-03  0.10201086E-02 -0.15615468E-02
  0.37358575E-02  0.42702798E-03  0.46746167E-02
  0.35202072E-02 -0.11556530E-02 -0.35682754E-02
  0.68033591E-03 -0.31267134E-02  0.29043889E-03
 -0.15812159E-02  0.17007677E-02  0.35086874E-03
 -0.62489592E-03  0.17007798E-02 -0.42681596E-02
 -0.22914747E-02  0.18142628E-02 -0.24714504E-02
  0.22273632E-02  0.15119210E-02  0.19052117E-02
  0.81230429E-03 -0.27770364E-02 -0.36707788E-02
  0.14023717E-02  0.25603030E-02  0.12336435E-02
 -0.47573177E-02 -0.14947938E-02  0.17830388E-02
 -0.21906718E-02  0.71251821E-02  0.43140088E-02
  0.13928668E-02 -0.32711904E-02 -0.14669382E-02
  0.61080206E-03 -0.24780010E-02  0.17004200E-02
  0.11104912E-01  0.15740390E-02  0.55667208E-02
  0.97810109E-03  0.13582579E-02  0.23050683E-02
  0.13028896E-02  0.26923918E-02  0.43755915E-02
  0.22566752E-02 -0.81044771E-02  0.55175145E-02
 -0.22981461E-02  0.11923689E-03  0.19167417E-02
  0.19124625E-02 -0.16007322E-02 -0.66181681E-02
  0.18140270E-02  0.48748393E-02  0.12436949E-02
 -0.23859929E-02  0.41696836E-02  0.38040354E-03
  0.43089381E-03  0.60774874E-02 -0.51338617E-02
 -0.19248200E-02 -0.23043271E-02 -0.13344514E-02
  0.34027752E-02  0.66421156E-03  0.25080610E-02
  0.69717251E-02  0.11626173E-02  0.54982199E-02
 -0.56267136E-02 -0.41933548E-02  0.11907069E-01
  0.15627623E-02 -0.38133079E-02  0.27999018E-02
 -0.15594753E-02 -0.50716823E-03  0.75698734E-02
 -0.26126461E-02 -0.10296726E-02  0.95270535E-03
  0.80304836E-03  0.68293920E-02  0.59125539E-02
  0.21130086E-03  0.48816982E-02 -0.12161565E-02
  0.14542270E-03  0.42150231E-02  0.44746379E-02
 -0.30983515E-02 -0.87870311E-02 -0.15768955E-02
 -0.75495434E-02  0.90317422E-02 -0.26551696E-02
  0.11807708E-02 -0.29626005E-02  0.18565724E-02
  0.15855162E-02  0.10150529E-01 -0.85563783E-02
 -0.31856284E-02  0.25881099E-02  0.32583205E-03
  0.48076347E-02 -0.44908835E-02 -0.30822059E-02
  0.20930278E-02 -0.11099239E-01 -0.17992138E-02
  0.15429812E-02 -0.23944841E-02 -0.17903751E-02
 -0.15156049E-02 -0.67045603E-02  0.42592781E-02
 -0.15997292E-02 -0.15511234E-02 -0.26104263E-02
  0.15338013E-03  0.40232783E-02  0.18499538E-02
  0.23498710E-02  0.41974716E-02  0.10897002E-01
  0.34368629E-02  0.23432384E-02  0.13239547E-01
 -0.22384414E-02  0.29337952E-02  0.17822649E-02
 -0.57924451E-02  0.14170773E-02  0.65919062E-02
 -0.27514690E-02  0.66133501E-04 -0.10536678E-01
  0.21434680E-02 -0.34040401E-02  0.36185656E-02
 -0.37046324E-02 -0.75083538E-02 -0.71982070E-03
 -0.46024542E-02 -0.37323633E-02 -0.91990584E-02
 -0.44715893E-02 -0.57634056E-02  0.10212010E-01
 -0.87188203E-02 -0.80456400E-02 -0.29114138E-02
  0.84115645E-02 -0.98764617E-03  0.73540046E-02
  0.96284238E-02 -0.27994926E-02 -0.18677202E-02
  0.36175978E-02 -0.19173788E-02  0.10520747E-02
  0.87399533E-02  0.59650795E-02 -0.34215559E-02
 -0.24152768E-03 -0.71338203E-02 -0.54796559E-02
 -0.14118660E-02 -0.49851140E-02 -0.43840865E-02
 -0.45311624E-02 -0.31470579E-02  0.61288621E-03
 -0.91879154E-02  0.42499279E-02 -0.11394485E-03
 -0.53587840E-02  0.37207226E-02 -0.18716780E-03
  0.77746557E-02 -0.15432073E-02 -0.41571380E-02
 -0.41527791E-03 -0.67562932E-02  0.29930849E-02
  0.96474024E-02 -0.11112096E-01  0.27864991E-03
 -0.17163594E-02  0.27692800E-02 -0.30418949E-02
  0.69779415E-03  0.14239599E-01  0.10308742E-02
 -0.19313186E-02 -0.93655108E-03 -0.18547977E-02
 -0.14145104E-02  0.25361685E-02  0.74739632E-02
  0.50053161E-02  0.66374244E-02 -0.21961931E-02
  0.55017237E-03  0.38545352E-02  0.36275979E-03
 -0.12397180E-01  0.43671117E-03 -0.38114299E-02
 -0.82482392E-03 -0.62188762E-02 -0.98002928E-02
  0.75972560E-02 -0.14240568E-02 -0.76281616E-02
  0.93589823E-02  0.15501613E-02 -0.42259051E-02
 -0.75753888E-02 -0.40169876E-02 -0.64310816E-03
  0.70348413E-02  0.18702814E-02 -0.62244772E-03
 -0.12381597E-02  0.21201395E-02  0.10495883E-03
  0.63659235E-03  0.67413713E-03  0.26246359E-02
 -0.62418220E-02 -0.18957883E-02 -0.14828234E-02
 -0.54623855E-04 -0.29468723E-02 -0.34356491E-02
 -0.38596198E-02 -0.29214515E-02  0.19136570E-02
  0.24940410E-02  0.72398091E-02 -0.53408159E-02
  0.55951674E-02  0.83651473E-02 -0.52068204E-02
  0.36944800E-02  0.17034683E-02  0.70143711E-02
 -0.40244784E-02 -0.36008950E-02 -0.25144225E-02
  0.10915773E-02  0.28671448E-02  0.65784121E-02
  0.36752303E-02  0.58460773E-02  0.30341741E-02
 -0.31043832E-02 -0.49741227E-02 -0.29159773E-02
  0.16135205E-02 -0.73403360E-04  0.12288756E-02
  0.71784773E-02  0.11373621E-02  0.73187359E-02
 -0.48937959E-02 -0.19948539E-02 -0.13711379E-02
  0.67732852E-02  0.21545971E-02 -0.30779464E-03
  0.58270808E-02  0.74536786E-02  0.81398018E-03
  0.34168604E-02  0.41242762E-02 -0.90951980E-02
 -0.10612949E-02  0.63403377E-03  0.50935488E-02
 -0.16564451E-03 -0.15077700E-02 -0.19765689E-02
 -0.84543517E-03  0.13124519E-03  0.16127242E-01
  0.83956824E-02 -0.32765566E-02 -0.50339192E-02
  0.21239058E-02 -0.12519553E-02  0.99567053E-03
  0.25051748E-03  0.53993411E-02 -0.81038311E-02
  0.33557355E-02  0.14883934E-02 -0.26565798E-02
 -0.21652802E-02 -0.65971429E-02 -0.11401342E-01
  0.29960436E-02 -0.20310648E-02  0.92837149E-03
  0.91708228E-03 -0.45157360E-02 -0.43296186E-02
  0.11514288E-01 -0.74637543E-03  0.63162318E-02
 -0.22050188E-02 -0.12908960E-02 -0.15826348E-02
  0.13900193E-02  0.16672571E-02 -0.18830825E-02
  0.24483823E-02  0.67109110E-03  0.40801957E-02
  0.57535110E-02  0.92877099E-02  0.87936807E-02
 -0.38064303E-02  0.28504418E-02  0.80941837E-02
 -0.13499638E-02 -0.20090922E-02 -0.23875419E-02
  0.33149364E-03 -0.18832489E-02  0.50190506E-02
  0.48420064E-02  0.20623565E-02 -0.49064564E-02
 
           1
   2.00000000000000     
  0.88234335E+00 -0.16785131E-02  0.00000000E+00  0.00000000E+00
  0.30333916E+00  0.76012530E+00  0.11808185E+00
  0.49188484E+00  0.51799870E+00  0.59555126E+00
  0.53681323E+00  0.50583925E+00  0.76729166E+00
  0.13182496E-01  0.38095175E-02  0.46249432E+00
  0.24848313E+00  0.24248575E+00  0.99311587E+00
  0.13467609E-01  0.50113598E+00  0.37111813E+00
  0.24022351E-01  0.49012662E+00  0.12607265E+00
  0.29961023E+00  0.25241661E+00  0.22492575E+00
  0.77397001E+00  0.38132608E-02  0.62838152E+00
  0.73052679E+00  0.22877263E+00  0.86989378E+00
  0.75760020E+00  0.74152709E+00  0.34647435E+00
  0.51952776E+00  0.25036793E+00  0.96309185E+00
  0.99794305E+00  0.99618676E+00  0.16637965E+00
  0.22051876E+00  0.98032309E+00  0.62704194E+00
  0.91855298E-02  0.95395813E+00  0.86881318E+00
  0.25423750E+00  0.51349684E+00  0.38171955E+00
  0.26111038E-02  0.80961937E-02  0.76183091E+00
  0.46854556E-01  0.52672903E+00  0.86397402E+00
  0.74101960E+00  0.10951370E-01  0.12251589E+00
  0.27651895E+00  0.28516619E+00  0.87426168E+00
  0.54925813E+00  0.50520670E-01  0.36157790E+00
  0.31057307E+00  0.24837045E+00  0.36615265E+00
  0.79169488E+00  0.72357829E+00  0.87979894E+00
  0.84180474E+00  0.51431232E+00  0.61504641E+00
  0.29350187E+00  0.75160956E+00  0.97965500E+00
  0.27346161E+00  0.21897917E+00  0.61524931E+00
  0.75071501E+00  0.55377633E+00  0.11010576E+00
  0.75411519E+00  0.24063755E+00  0.38450667E+00
  0.96920799E-02  0.73893504E+00  0.48238402E+00
  0.53859268E+00  0.74928385E+00  0.99788085E+00
  0.27403737E-02  0.45328037E+00  0.48985828E+00
  0.49038039E+00  0.99686486E+00  0.74403339E+00
  0.39531779E-01  0.74769722E+00  0.25602347E+00
  0.46527167E+00  0.24132812E+00  0.76174093E+00
  0.22809353E-01  0.99017722E+00  0.98328459E+00
  0.47528592E+00  0.62661486E+00  0.50925259E+00
  0.52322712E+00  0.33447545E-01  0.99725270E+00
  0.80000381E+00  0.28299025E+00  0.25426948E+00
  0.77633072E+00  0.70520008E+00  0.73679348E+00
  0.55210408E+00  0.11079663E+00  0.22121810E+00
  0.31663992E-01  0.99472267E+00  0.28172537E+00
  0.32587849E-01  0.72758344E+00  0.76281023E+00
  0.51599152E+00  0.32262891E-01  0.88369517E+00
  0.15545494E-01  0.49557886E+00  0.24332630E+00
  0.21826184E+00  0.26533383E-01  0.13469371E+00
  0.72688701E+00  0.73436028E+00  0.47498683E+00
  0.13807570E-01  0.50175460E+00  0.72180838E+00
  0.78609445E+00  0.23151550E+00  0.99773909E+00
  0.72219631E+00  0.23077442E+00  0.72413408E+00
  0.52606038E+00  0.47743101E+00  0.35990457E+00
  0.38622661E-02  0.23922061E+00  0.72961120E+00
  0.49288164E+00  0.10478332E-01  0.10909690E+00
  0.28510499E+00  0.25173576E+00  0.48412932E+00
  0.82315426E+00  0.77534862E+00  0.44998337E-01
  0.52285929E+00  0.24846372E+00  0.48232171E+00
  0.54032411E-01  0.76953853E+00  0.98536127E+00
  0.28977488E-02  0.22547980E+00  0.96155788E-02
  0.23250147E+00  0.74676211E+00  0.50366082E+00
  0.32828321E+00  0.54092520E+00  0.86620899E+00
  0.99685971E+00  0.25357910E+00  0.51583725E+00
  0.49521743E+00  0.49463625E+00  0.98303455E+00
  0.73576346E+00  0.23692524E+00  0.49030234E+00
  0.98032331E+00  0.50551415E+00  0.12707223E-01
  0.52067920E+00  0.95881792E+00  0.48975635E+00
  0.56277161E-01  0.23467189E+00  0.26094378E+00
  0.47280184E+00  0.75627448E+00  0.73609908E+00
  0.49910764E+00  0.45441336E+00  0.23905322E+00
  0.77614283E+00  0.25788279E+00  0.61082210E+00
  0.55024477E+00  0.76510286E+00  0.25146784E+00
  0.24090412E+00  0.23461307E+00  0.73340941E+00
  0.75624758E+00  0.27547513E+00  0.13155366E+00
  0.23480684E+00  0.72559262E+00  0.67818197E+00
  0.24504560E+00  0.39238029E+00  0.12274746E+00
  0.49623674E+00  0.96498706E+00  0.62096253E+00
  0.74532668E+00  0.98181417E+00  0.85660865E+00
  0.22406736E+00  0.74534091E+00  0.39166752E+00
  0.28366139E+00  0.75177506E+00  0.81365284E+00
  0.77440229E+00  0.99497173E+00  0.37584057E+00
  0.76696532E+00  0.79084597E+00  0.18520178E+00
  0.24248509E+00  0.46116768E+00  0.61732682E+00
  0.74493220E+00  0.48785957E+00  0.86430529E+00
  0.27639483E+00  0.98541953E+00  0.36775887E+00
  0.76381270E+00  0.74387731E+00  0.61921222E+00
  0.28529671E+00  0.75328795E+00  0.23387428E+00
  0.98747860E+00  0.11920830E-01  0.60494251E+00
  0.50525387E+00  0.47988570E+00  0.11671104E+00
  0.23124799E+00  0.13722604E-01  0.87296801E+00
  0.76940156E+00  0.48092730E+00  0.37165451E+00
  0.29686682E+00  0.99535733E+00  0.24898809E+00
  0.78050057E+00  0.48294655E+00  0.74373307E+00
  0.23850370E+00  0.36214453E-04  0.74831806E+00
  0.77056607E+00  0.54865297E+00  0.24610864E+00
  0.25696203E+00  0.99427744E+00  0.45370822E-02
  0.75316992E+00  0.48506130E+00  0.48454866E+00
  0.25352526E+00  0.13808039E-01  0.50499938E+00
  0.75165506E+00  0.48414229E+00  0.99823672E+00
  0.73680446E+00  0.96770922E+00  0.74633422E+00
  0.23425222E+00  0.49222759E+00  0.25043743E+00
  0.26036551E+00  0.49812867E+00  0.73975923E+00
  0.77812840E+00  0.12907221E-01  0.25474989E+00
  0.26468928E+00  0.48287896E+00  0.49708773E+00
  0.75819364E+00  0.98472944E+00  0.99931437E+00
  0.75807946E+00  0.99574642E+00  0.50858615E+00
  0.24540345E+00  0.49568444E+00  0.30321093E-02
  0.10069503E-01  0.23460778E+00  0.37579871E+00
  0.55672417E+00  0.73688716E+00  0.86814789E+00
  0.49605606E+00  0.26632705E+00  0.62143416E+00
  0.23131070E-01  0.75233705E+00  0.12850245E+00
  0.62481893E-02  0.24264816E+00  0.87796213E+00
  0.48369187E+00  0.73782643E+00  0.38327970E+00
  0.99910861E+00  0.73083580E+00  0.62196634E+00
  0.48499881E+00  0.25266121E+00  0.10182887E+00
  0.14183008E+00  0.38098337E+00  0.43882692E-01
  0.65162826E+00  0.89725301E+00  0.55772709E+00
  0.65641810E+00  0.90691166E-01  0.93728025E+00
  0.14662534E+00  0.59713655E+00  0.45414302E+00
  0.35941301E+00  0.38039514E+00  0.94764927E+00
  0.85650658E+00  0.88513890E+00  0.45588497E+00
  0.87568643E+00  0.73992477E-01  0.47892142E-01
  0.33958301E+00  0.59220829E+00  0.55322194E+00
  0.87808212E+00  0.11200938E+00  0.20788920E+00
  0.38090080E+00  0.58186201E+00  0.69032034E+00
  0.88983653E+00  0.88234649E+00  0.29301021E+00
  0.37171936E+00  0.41065754E+00  0.79712794E+00
  0.13426581E+00  0.60534118E+00  0.30028707E+00
  0.62005014E+00  0.10356711E+00  0.79647236E+00
  0.13783406E+00  0.37637617E+00  0.20218367E+00
  0.62648193E+00  0.87411966E+00  0.69393555E+00
  0.85871517E+00  0.57720250E+00  0.94691021E+00
  0.36618678E+00  0.93791379E-01  0.44258525E+00
  0.84846202E+00  0.36949155E+00  0.53473156E+00
  0.36922318E+00  0.89205539E+00  0.48599227E-01
  0.13501190E+00  0.10893130E+00  0.54890909E+00
  0.64734910E+00  0.60995574E+00  0.34753605E-01
  0.17614884E+00  0.88703134E+00  0.94463743E+00
  0.64311047E+00  0.38294498E+00  0.43792720E+00