Na88 Ge16 P8 S96                        
   1.00000000000000     
    13.3422163233000006    0.0000000000000000    0.0000000000000000
     0.0000000000000000   13.3422163233000006    0.0000000000000000
     0.0000000000000000    0.0000000000000000   26.6844326466999995
   Na   Ge   P    S 
    88    16     8    96
Direct
  0.9170796477806915  0.9293974226250726  0.1631493048766949
  0.5473092185439465  0.5445134784877400  0.7487250394660568
  0.2379510883185716  0.4551307967238454  0.8811535098520921
  0.9750871133398619  0.0078562238976461  0.3884588228784887
  0.7378857945720479  0.0165535145509270  0.8697195664315258
  0.9741867594134029  0.5424595845459411  0.3780364205925814
  0.9941922085909948  0.4695233484600377  0.1331049250015201
  0.2351327930953896  0.2408039986240861  0.1179964799466656
  0.7430327754825879  0.0223501995224116  0.6182165596502106
  0.7488904197576319  0.2370992513064234  0.7309733500983504
  0.7585790065027908  0.7318551002501104  0.3617645809554815
  0.2804518537832437  0.2237176132374915  0.8572308706872189
  0.7832884134209354  0.2542398214890602  0.1131103228424650
  0.2843278414712322  0.7326376472681625  0.6371078605159982
  0.9998024212440558  0.9957430762705214  0.8551007296849317
  0.4720426789518608  0.4900047831354852  0.3862492212665944
  0.0001168673658935  0.9939499998284456  0.6118147937141266
  0.0218349774160362  0.4745762469431104  0.6437890478552166
  0.5028941764217735  0.9833584379694363  0.1126782749033626
  0.8015825779169271  0.4657477091830242  0.8781885258858486
  0.4666811244277843  0.9984815074995299  0.3721418314091197
  0.2368931969960725  0.0010918424370001  0.3680941292266754
  0.7738861407448222  0.7607259254323486  0.8692062409991458
  0.5297043852526497  0.5107215040916149  0.6401183568879655
  0.2548153909491628  0.7252972839702948  0.1270980790722503
  0.2321860964953770  0.2552360952566662  0.4956349206275547
  0.7391490906353817  0.7432393833876000  0.1172779119175020
  0.7277083179215768  0.2200792940995904  0.4995458782605655
  0.5063673038890516  0.7343088612142648  0.5163170195763093
  0.4742693584614179  0.8201154004352122  0.9933037489779517
  0.9826558538110300  0.2437959528801381  0.5058875567271186
  0.9705011015810630  0.7515517999097620  0.7431385529349696
  0.9798206125678786  0.7446476013428492  0.2632880087637755
  0.5119646880989125  0.2688130630011536  0.7683529736703850
  0.0331700031304131  0.9792494406274929  0.9850025331171732
  0.4992317884827808  0.1848979343598309  0.4882884510094337
  0.5046614456761255  0.4822602644110611  0.9939671908206501
  0.7959416136547551  0.2496184902376360  0.2661735026198467
  0.3053564459452056  0.7539705180752256  0.7485349407527725
  0.4546139708309759  0.7248762920610146  0.2469747611768981
  0.9985087645608454  0.0738701063964323  0.2651393530307405
  0.5096356554140226  0.4877514050237866  0.8684934115066750
  0.4990090858602813  0.9959285936916757  0.7428002471434247
  0.9674455194319210  0.4777312525699022  0.2594188397509962
  0.2489016404275665  0.2061395586138106  0.9896012795321486
  0.7382711850457954  0.6941427172558360  0.4890424457540896
  0.2492133567263513  0.7782326126808452  0.4994256045503556
  0.7649744296876994  0.2542825021392905  0.9957286928514036
  0.9858728631077281  0.9703445801950630  0.7346422698491941
  0.4592427028413910  0.4471565875677495  0.2413675130789751
  0.0122787845328649  0.4697515190034732  0.7658086916898248
  0.5099036010344103  0.9687640645885605  0.2490029565222610
  0.2593427924711841  0.2623041734072833  0.3724972977818454
  0.9743622694609620  0.7228269605682577  0.9891410978412082
  0.7615213999389083  0.5092443630994425  0.6152393013162598
  0.2237262590440041  0.7049408075038121  0.0122090546838694
  0.0211039842789127  0.1847458639929227  0.0075534696944449
  0.4771368328475478  0.4753882857771500  0.5075028291467570
  0.4887820715090947  0.5105230800145214  0.1161493752927909
  0.9805028592737214  0.5476803506853110  0.5151737619609211
  0.5049727679151895  0.0203230882537533  0.8738494210303714
  0.9915205209573098  0.9052077900442864  0.5082152015797876
  0.9975004626780866  0.4480007004674942  0.9816813984336866
  0.4903370080103175  0.9450607891975744  0.4916303904910195
  0.4764072086254935  0.2068518598202598  0.2352634631079350
  0.7283024852077505  0.7725036670088895  0.9882094168424668
  0.2337565676356303  0.7472412681167074  0.2464568000965802
  0.0118224111348902  0.2601000309349400  0.7373791703752371
  0.7311295742282838  0.7471654224008194  0.2447290580057972
  0.2849334054950746  0.2602454045704851  0.7384737640489959
  0.1538038916972268  0.2451638895165713  0.2687917404718095
  0.7082541879946402  0.7541562512206570  0.7467030871377655
  0.2202235759678238  0.4888307356023437  0.1279255314050619
  0.4962299347440718  0.9730245572922591  0.6295600700739531
  0.7457027820407196  0.2467510405054247  0.8665651434856082
  0.2276762308704033  0.5286602637663147  0.3677042747088564
  0.2466637379235509  0.7278693193861729  0.8714226700794827
  0.7333401540784128  0.0120418733767289  0.3631614763403843
  0.7256508158182453  0.0265127976070316  0.1199588155620908
  0.2996206765853442  0.4231652892466899  0.6342686532855175
  0.5240654612919534  0.2334103453809278  0.9907696620028017
  0.2215573344533062  0.7448017676156028  0.3919935073165550
  0.7285950688765680  0.7423765077179519  0.6144649244439048
  0.1858177358861427  0.9548629774191122  0.1250554421829645
  0.2654141367364913  0.0803069713336237  0.6129335656787827
  0.7206512271596059  0.4880836274298191  0.1318029932739482
  0.2612961141188045  0.9709715015218061  0.8734851092712416
  0.7481767001053948  0.4107975535233948  0.3710680356301390
  0.2558834265270642  0.0104234723359004  0.2462920576371251
  0.7809952259802441  0.4877056832590341  0.7485269555583297
  0.2494221524596260  0.0082128538995887  0.7413026522636372
  0.6958275125117637  0.4895932804536323  0.2598912282522345
  0.2580278847668944  0.9501235834757612  0.0039643808460585
  0.7304632809757192  0.4659258320025688  0.4958171953292113
  0.2308298487009145  0.0158880743817915  0.4885639911680186
  0.7232668189176701  0.5159716826847183  0.0033986912641787
  0.7468090879878440  0.0043506552442085  0.7468205021807027
  0.2099821010243462  0.4741936532827893  0.2418406132597182
  0.2787940463397205  0.4999139898536261  0.7523834059767616
  0.7453497783838707  0.9952917515714524  0.2389229196385971
  0.2323896873706490  0.5257355443628640  0.4982860223756080
  0.7528073388791473  0.0185123580088629  0.9929222372871139
  0.7336590924351961  0.9666214748775289  0.4988136358801996
  0.2432328193024123  0.4536881325293645  0.0060004960335352
  0.9862642834956284  0.2712254890028163  0.3729687305579197
  0.5043130602922424  0.7527535998846437  0.8751518484207201
  0.5150912687550754  0.2451076089490432  0.6256564156837627
  0.9956300003450831  0.7158707848007650  0.1239880878913479
  0.0107791431343145  0.2372575740424613  0.8748536244366326
  0.4697604391673044  0.7479999686635385  0.3793478777240592
  0.0258135111135517  0.7389597090588779  0.6308774098327921
  0.4858986237249981  0.2469492155348918  0.1133694307321849
  0.1387947801313278  0.3460787285840758  0.0453198629614630
  0.6408850623313833  0.8808912128124061  0.5568894773952309
  0.6655027866857322  0.1213693000640818  0.9410763383016000
  0.1264342311455835  0.6121830064035937  0.4504926808515256
  0.3552023319218676  0.3737007222336278  0.9569087222709934
  0.8047931230361596  0.8645351769090462  0.4418792641199896
  0.8625158796782082  0.0969815753097708  0.0428299143852207
  0.3397652059421531  0.6137802094992649  0.5461621584120053
  0.8484064643283716  0.0937815242165835  0.1902911771919711
  0.3756392079314641  0.5819261689976819  0.7025084119154883
  0.8594677664190857  0.9030729536816976  0.2891659790954813
  0.3663238679380287  0.3979028922808769  0.8030425448366904
  0.1137779306982409  0.5917936942795109  0.2941596318034765
  0.6466258394117418  0.1106535861233077  0.7863844911788208
  0.1072849631030932  0.3789241382553699  0.1946676493767897
  0.6616275355101766  0.9123247441639881  0.6878129309969733
  0.8275511944099804  0.6183911104636561  0.9542510484056720
  0.3336389405562514  0.1190418939767011  0.4428292784306468
  0.8308087814071951  0.3732635275364701  0.5483619615865980
  0.3309316756124841  0.8545762226262757  0.0610175247991290
  0.1152091928445548  0.1098879440320026  0.5363063920508658
  0.6402322971843886  0.6114046232759329  0.0551807998549662
  0.1532706153867236  0.8584689446706744  0.9472820611452168
  0.6072515801007664  0.3823803646096874  0.4524410875016758
  0.5962116479856915  0.4002076090188139  0.3067738384679468
  0.1579449501468023  0.9070991197867679  0.7887211990200090
  0.1482830514666821  0.1178434256447466  0.7008326982284195
  0.5872365889259376  0.5920209659882310  0.2148414408188835
  0.8741681236771877  0.3903362157580172  0.6995753698771977
  0.3480810494252339  0.8985087772385099  0.1975771913609113
  0.3481366555165575  0.1078654215382743  0.2961969937397023
  0.8540608292701727  0.5950838824533133  0.7967056764092812
  0.1533280628278063  0.0602104714723076  0.0457822781435006
  0.6369954275992454  0.5760389600975800  0.5445192985986249
  0.6612419820072125  0.4207316683039991  0.9474961043865704
  0.1331251487101507  0.9171519499158470  0.4415056279477053
  0.3586912496677697  0.0273291395603887  0.9571135968613930
  0.8253031417595937  0.5398288824042060  0.4457862878872598
  0.8400243203343914  0.4372433577673314  0.0434608442357395
  0.3266855654272473  0.9453131590581751  0.5459441436899517
  0.1661771656479422  0.1013407567923523  0.1966004346264986
  0.6935106740376702  0.5962680161384686  0.6943250789517716
  0.1449210700389133  0.8941939202340067  0.2921940656593907
  0.6744120433401092  0.3895570194774168  0.7999006651217639
  0.8072022006547057  0.5981915485064869  0.2952662106093269
  0.3411762433501654  0.0833773499439971  0.7978714110869199
  0.7954728097263556  0.3985034703046012  0.2127239759107995
  0.3365695862773392  0.9285202125900983  0.6849358717555939
  0.8429656678625643  0.9245827890132946  0.9443799479197921
  0.3161801662682127  0.4103517397913300  0.4513264100746945
  0.8569772163265928  0.0481758669183864  0.5304079157505297
  0.3254312338149165  0.5746335932086838  0.0526776922028692
  0.1475671604276515  0.4299111118943594  0.5521113414921178
  0.6298871985368496  0.9429521467973444  0.0342420903750936
  0.1581928765377268  0.5634578881881853  0.9560909023516723
  0.6466670352448883  0.0638470138284432  0.4521183277649349
  0.2972657882606042  0.3945750696782357  0.2938308202190729
  0.8372157167498950  0.9065572973615781  0.8057927219966069
  0.8541305565023732  0.0941254287534243  0.6975087216701421
  0.2986216445325647  0.5873324462182579  0.2044148747879501
  0.1629674170892472  0.4174706706291522  0.7068307141787348
  0.6628777550299404  0.8813437017357252  0.1852783190145556
  0.6525877563562050  0.0955211268801145  0.2801900868450599
  0.2048379806311657  0.5999595173179731  0.8063546956610322
  0.0894323266862666  0.1602041361740630  0.3490740305693454
  0.6037989538570110  0.6727848268896623  0.8300538243345621
  0.5879782287321073  0.3449715135575718  0.6728472348273283
  0.0925329523044299  0.7951651573080766  0.1705856964887399
  0.4227245426292536  0.1557490639629654  0.6667534708758691
  0.8935664426967135  0.6394646425316101  0.1708516764020833
  0.9181164591418253  0.3578418337160146  0.3197704279695264
  0.4061450867184419  0.8441778511316680  0.8293880961083054
  0.1156599803136852  0.1457238790512130  0.9098583689960494
  0.5641171537309460  0.6836300608205331  0.4261577219034382
  0.1147849756356769  0.8305173037469814  0.5898447943478806
  0.5777277090442355  0.3462438725934728  0.0743043423330828
  0.9253385355384318  0.6464081953133534  0.5954192872888774
  0.4007407205882276  0.1576655976316502  0.0630415958057108
  0.9103056438972190  0.3008459018059748  0.9254448218694331
  0.3856398547345848  0.8510177332058365  0.4202100406889503
  0.9149152533252568  0.8324878609201660  0.6589867980154558
  0.3877646423717693  0.3219659988101542  0.1667438529033673
  0.9158777118690666  0.1601413188538344  0.8273511255384642
  0.3801055305023573  0.6548971923074134  0.3381243246798264
  0.0857634577266629  0.3436017745144493  0.8366247645654427
  0.5298932860888859  0.8465602503556863  0.3296019310511857
  0.1139983332237617  0.6733208540849334  0.6818643309818971
  0.5819768777954101  0.1522179630511540  0.1522460625698972
  0.4275944596291857  0.3224652233023252  0.5659482209308987
  0.9134367669455667  0.8127091942452589  0.0835564423559251
  0.8825927582579897  0.2004172953967311  0.4123775433675447
  0.4150474773833293  0.6517945308819808  0.9136516164570602
  0.0848660221158819  0.3497989573393113  0.4166755136217606
  0.5905729934850463  0.8511471009312374  0.9214596090047947
  0.5898766428040702  0.1455966291729969  0.5818224570633412
  0.0691425508129665  0.6251573877248252  0.0722238207741412
 
  0.69925304E-02 -0.81908382E-02 -0.53385041E-02
  0.68201061E-02  0.58508136E-03  0.34212039E-03
  0.76828848E-03 -0.15768527E-01  0.18847561E-02
 -0.12442043E-02 -0.55101462E-03  0.10071909E-01
  0.65248174E-02 -0.69454162E-03 -0.12141463E-02
 -0.63583379E-03  0.24971564E-02 -0.86743978E-02
 -0.70741489E-02 -0.11523553E-02 -0.55862464E-02
 -0.34785808E-02  0.57693477E-02  0.89285250E-04
 -0.26032132E-02 -0.34713362E-02  0.55911692E-02
  0.72880430E-02 -0.17506203E-02  0.26762021E-02
 -0.13574034E-02 -0.10731814E-02  0.40764345E-02
  0.47828850E-02  0.62756707E-02 -0.67396423E-02
 -0.28077525E-02  0.86179903E-02  0.23432320E-02
  0.58262426E-02  0.79128311E-02  0.55178101E-02
  0.40057669E-02 -0.18340832E-02  0.21845357E-02
 -0.10027575E-02 -0.42778286E-02  0.72392339E-02
 -0.11320481E-02 -0.51322478E-02  0.62138375E-02
  0.69894639E-02  0.56373464E-02  0.62326370E-02
  0.42068251E-02  0.81155783E-02 -0.22412644E-02
 -0.19665949E-02  0.22972173E-02 -0.25661477E-02
 -0.10525595E-01 -0.43533286E-02  0.56396119E-02
  0.47888500E-02  0.34216221E-03 -0.33792913E-02
 -0.11091704E-02 -0.18432276E-02  0.69875576E-02
 -0.16111755E-02 -0.22026955E-03  0.27375576E-02
  0.94597755E-03 -0.42403736E-02 -0.52193503E-03
  0.38261120E-02 -0.15591985E-02  0.24812746E-02
 -0.30584590E-02 -0.59988010E-02  0.42261085E-02
 -0.63129672E-02 -0.48659632E-02 -0.61779532E-02
 -0.20179621E-02  0.12324708E-02 -0.48950328E-02
 -0.26376699E-02 -0.42639066E-02 -0.68015582E-03
 -0.28337794E-02 -0.11977508E-01  0.25527160E-02
  0.27350242E-02  0.24148849E-02  0.12645400E-01
  0.59650948E-03  0.59307867E-02  0.58661414E-02
 -0.65096627E-02  0.66941857E-02  0.34796042E-02
  0.98052450E-02  0.35517351E-02  0.64465521E-02
 -0.29689946E-02 -0.79648975E-02 -0.50634103E-02
  0.59534944E-04 -0.23825672E-03 -0.22274920E-02
 -0.72830437E-02  0.52469866E-02 -0.98920470E-02
 -0.54332350E-02  0.15555469E-02  0.19472573E-03
  0.21446438E-02  0.14087206E-02  0.27132160E-03
 -0.66516488E-02 -0.73298749E-02 -0.23649659E-02
 -0.56463632E-02 -0.22447772E-02  0.23052517E-02
 -0.81344429E-02  0.10076176E-02 -0.25669286E-02
 -0.19298729E-02 -0.34150340E-02 -0.12177880E-02
 -0.61865884E-02  0.13979266E-02  0.79950058E-02
  0.56246412E-03  0.63436477E-02 -0.25810232E-02
 -0.27615660E-02  0.62034218E-02  0.17188362E-02
 -0.13342231E-02  0.64687230E-02 -0.17660358E-02
  0.18886422E-02  0.15152515E-02  0.57847070E-03
  0.17480813E-02  0.20174824E-03  0.96042850E-03
 -0.22112718E-02 -0.45077406E-02  0.38832718E-02
 -0.18801626E-02 -0.53888423E-02  0.55870040E-02
 -0.45988944E-04 -0.44068615E-02 -0.48213410E-02
 -0.23198517E-02  0.13812321E-02  0.27222544E-02
 -0.23649141E-02 -0.34517051E-02  0.13815011E-02
 -0.12065127E-02  0.50066048E-02 -0.44989933E-02
  0.14667093E-02  0.13399268E-02 -0.70709501E-02
 -0.28141191E-02 -0.60151679E-02  0.62163645E-02
 -0.39144097E-02  0.72060830E-02  0.42421691E-03
  0.38115816E-02 -0.36319381E-02 -0.35645066E-03
 -0.28246796E-02 -0.37007203E-02 -0.31635023E-02
  0.15405951E-03  0.40467880E-02 -0.45599943E-02
  0.42227740E-02  0.21095273E-02 -0.25822990E-02
  0.65133644E-02 -0.67373686E-02 -0.66327870E-02
  0.54745749E-02 -0.12022582E-02 -0.75129769E-02
  0.37907621E-02 -0.41454365E-02  0.13616256E-01
 -0.40998710E-03 -0.46551882E-02 -0.27005374E-02
 -0.65184706E-02 -0.27077582E-02  0.29345718E-02
  0.14485367E-02  0.10564565E-01 -0.32060320E-02
  0.12922970E-03 -0.29694752E-02 -0.22683732E-02
  0.59269326E-02 -0.81769965E-02 -0.19174323E-02
  0.19952626E-03  0.88224261E-02 -0.38563976E-02
  0.55788451E-03  0.80387482E-02 -0.11557770E-01
 -0.37512668E-02  0.44992094E-02 -0.14326305E-02
 -0.14176616E-02 -0.68948471E-02  0.16017610E-02
  0.17777330E-02 -0.49929084E-02  0.52332242E-02
 -0.14269364E-04  0.50864610E-02  0.61065226E-03
 -0.37784071E-02 -0.16483372E-02 -0.43423155E-02
 -0.18236589E-02 -0.27142365E-02 -0.12638675E-01
 -0.44430093E-02 -0.83295721E-03  0.51342915E-02
 -0.61564198E-04  0.48411250E-02 -0.47221307E-02
  0.55001683E-02  0.78715230E-02  0.15974637E-02
 -0.37354316E-03 -0.25645548E-02 -0.12541046E-01
 -0.13555207E-01  0.67051614E-02 -0.30624463E-02
 -0.23372821E-02  0.13736321E-01  0.44941149E-02
  0.16084816E-02  0.67478787E-02  0.26685484E-02
  0.13466190E-01  0.11556670E-01  0.19181978E-02
 -0.12110794E-01  0.46750312E-02  0.45916780E-02
  0.19856013E-03  0.13601288E-03  0.35659319E-02
 -0.41907333E-02 -0.69569440E-03  0.50848511E-03
  0.36263963E-02 -0.26279969E-03  0.15475804E-02
 -0.22325200E-03  0.32798253E-03  0.23116945E-02
  0.28148866E-02 -0.14400590E-02  0.22674581E-03
 -0.15280179E-02  0.26503149E-02  0.38621001E-02
 -0.86672997E-03  0.22168235E-02  0.53877019E-03
 -0.24028644E-02 -0.17091040E-02 -0.16767523E-02
 -0.75078954E-03 -0.58793415E-03  0.47010235E-02
 -0.38383508E-02  0.23038761E-02 -0.21455553E-02
 -0.20147787E-02  0.13442669E-02 -0.21673687E-02
 -0.37056555E-03  0.28500755E-02  0.56880832E-02
  0.15503612E-02  0.93905208E-03 -0.74723278E-03
  0.13216130E-02  0.31153497E-02  0.23397869E-02
  0.27005526E-02  0.79789345E-03  0.18041437E-02
 -0.26677121E-03  0.36684012E-02 -0.47167047E-02
  0.31435799E-03 -0.27181402E-02 -0.20240755E-02
 -0.13479569E-02 -0.39509477E-03 -0.83154840E-03
 -0.30657590E-02  0.38176635E-02 -0.59076274E-02
 -0.41945028E-02 -0.21878568E-02 -0.51949238E-03
  0.18167507E-02 -0.59315201E-02 -0.61774083E-03
 -0.46322373E-02  0.47825380E-02 -0.69503805E-03
 -0.20061036E-02  0.74903206E-02  0.96763715E-03
  0.13411847E-02 -0.13979388E-02  0.45729524E-03
 -0.24192003E-02  0.74507107E-02 -0.32046527E-02
 -0.87705010E-03  0.45631842E-02 -0.14045806E-02
 -0.56300524E-03 -0.42391531E-02 -0.40876604E-02
  0.23247095E-02  0.61631471E-02  0.47635406E-02
 -0.24340776E-04 -0.82383325E-02  0.55605015E-02
 -0.88115605E-03 -0.14425549E-02 -0.37256505E-03
  0.38237450E-02 -0.79277165E-04 -0.33669255E-02
  0.49755820E-02  0.78788990E-02  0.56996117E-02
 -0.53598796E-02  0.44922420E-02  0.28318923E-02
  0.67266870E-02  0.24056541E-02 -0.45281951E-02
 -0.10617381E-02 -0.17175176E-02 -0.48559799E-02
  0.72823289E-02 -0.22387295E-03 -0.26091364E-02
  0.43569603E-02 -0.22979384E-02  0.56591839E-03
 -0.32706422E-02 -0.22033094E-02 -0.14332746E-02
  0.50283888E-02 -0.30523367E-02 -0.70569673E-02
 -0.44909287E-02  0.73091339E-02 -0.15075986E-03
  0.16902519E-02 -0.48954676E-02 -0.19017969E-02
 -0.38208431E-02  0.40241694E-02  0.22785603E-02
  0.33344215E-02 -0.23275078E-02  0.45744680E-02
 -0.85737747E-03 -0.43786213E-02  0.91602827E-03
  0.30820831E-02 -0.72398366E-02  0.40235722E-02
 -0.38525045E-02  0.11300581E-02 -0.67535673E-03
  0.49034018E-02  0.11935515E-02 -0.16527291E-02
  0.23791556E-02 -0.89122799E-02 -0.78666201E-06
  0.63567072E-02 -0.25050555E-03 -0.55258144E-03
 -0.75019618E-02 -0.19556323E-02 -0.18165121E-02
 -0.41102367E-02 -0.64255723E-02 -0.63156045E-03
  0.19047554E-02 -0.10923691E-02  0.14482821E-02
 -0.47474947E-03  0.37338909E-03 -0.18684370E-03
  0.26947418E-03 -0.36843796E-02  0.20583928E-02
  0.32655211E-02 -0.68416518E-02 -0.56641451E-03
  0.13979953E-02 -0.28425170E-02  0.55792474E-02
  0.15645115E-02 -0.34979904E-02 -0.68665522E-02
  0.13816050E-02 -0.75329080E-02 -0.28913213E-02
 -0.21101336E-02  0.27310985E-02 -0.63383169E-02
 -0.36686077E-02  0.83993246E-02 -0.97876307E-03
  0.14682621E-02  0.25640984E-02  0.47886132E-02
 -0.19467636E-02  0.87396250E-03 -0.74193348E-02
  0.31239562E-02  0.27554304E-02 -0.44971949E-03
  0.13261821E-02  0.33368431E-02  0.56016991E-02
  0.79030029E-02 -0.50006921E-02  0.58453298E-03
 -0.82337489E-03 -0.62365102E-02 -0.20024564E-02
  0.20444902E-02  0.24203037E-02 -0.10970640E-01
 -0.15287358E-02 -0.24446209E-02 -0.20044495E-02
  0.40839586E-03 -0.15604992E-02  0.10524914E-02
  0.24591666E-02 -0.33660529E-02 -0.17768000E-02
  0.44855405E-02  0.49622344E-02 -0.99230342E-03
 -0.16990007E-03 -0.59756517E-02 -0.39992651E-02
 -0.12299624E-03 -0.13667012E-03 -0.74713061E-04
  0.10568870E-02  0.13105913E-02  0.30168706E-02
 -0.45961824E-02  0.82069156E-03 -0.30754019E-02
 -0.14013532E-02 -0.34304748E-02  0.20258446E-02
 -0.37385228E-03 -0.48507742E-03 -0.15756232E-02
 -0.47987453E-03  0.94474941E-03  0.49975966E-02
 -0.15928321E-02 -0.92192184E-03 -0.13447471E-02
 -0.11328798E-02 -0.25768536E-02  0.32250148E-02
  0.32071765E-02 -0.20779631E-02 -0.36768202E-02
  0.41296868E-02 -0.61565040E-02  0.25467147E-02
 -0.61569055E-02 -0.13330915E-02  0.24644129E-02
 -0.16661706E-02 -0.18201301E-02 -0.10763679E-02
 -0.18523496E-02  0.74570187E-02  0.23456423E-02
  0.22037041E-02 -0.14141030E-02  0.32424576E-02
 -0.48541716E-04  0.87066527E-03 -0.22443688E-02
 -0.52070437E-04  0.90012513E-02 -0.10793166E-02
  0.69469835E-02 -0.39963588E-02 -0.22799948E-02
  0.11872213E-02 -0.47812419E-03  0.34969111E-02
  0.21022043E-02 -0.18573165E-02 -0.29885315E-02
 -0.16536050E-02  0.78286122E-03 -0.17019404E-02
  0.79155995E-02  0.14613987E-02 -0.31976424E-02
 -0.55560690E-02 -0.66383602E-02  0.46406187E-02
  0.39963795E-02  0.96302988E-03  0.86729651E-03
  0.48636411E-03 -0.62514737E-02  0.17223973E-03
  0.38021015E-02  0.43235122E-02  0.39525019E-02
 -0.15929719E-02 -0.12976037E-04  0.45367747E-02
 -0.50293111E-02 -0.54456456E-03 -0.23066414E-02
  0.98876270E-02  0.20171019E-02  0.35112378E-02
  0.78071676E-02  0.13237107E-02  0.29087830E-02
  0.36534394E-02 -0.17388529E-03  0.45248350E-02
  0.47073744E-02  0.17327380E-02 -0.11308488E-02
  0.10201495E-02 -0.20169075E-02  0.63627681E-03
 -0.18456734E-02 -0.42629888E-02 -0.35171496E-02
  0.38619147E-02  0.11086007E-02  0.34976957E-02
 -0.23101873E-02  0.27618314E-02 -0.54826523E-02
  0.33726404E-02 -0.21678698E-02 -0.47641451E-03
 -0.39504198E-02  0.38010409E-02 -0.24167013E-02
 -0.16050188E-02 -0.17432576E-02 -0.28106531E-02
 -0.31793412E-02 -0.40818918E-02  0.51045856E-02
  0.19560263E-02 -0.52882560E-03 -0.18488700E-02
  0.21063606E-02  0.77745336E-03 -0.87630227E-03
  0.55685856E-04 -0.29994272E-02 -0.82192231E-02
 -0.12943377E-01 -0.13865605E-02 -0.13175542E-02
 -0.10243364E-02 -0.27816478E-03  0.26226342E-02
 -0.31056128E-02  0.20532235E-02 -0.90266045E-03
 -0.42697376E-02 -0.19449567E-02 -0.22964321E-02
  0.85574607E-02 -0.50613247E-02  0.98050388E-03
 -0.69446236E-02 -0.45650709E-03 -0.21436480E-02
 
           1
   2.00000000000000     
  0.97849299E+00  0.12945002E-02  0.00000000E+00  0.00000000E+00
  0.91812783E+00  0.92816961E+00  0.16274918E+00
  0.54833155E+00  0.54460118E+00  0.74875068E+00
  0.23806625E+00  0.45276709E+00  0.88129477E+00
  0.97490061E+00  0.77736267E-02  0.38921371E+00
  0.73886387E+00  0.16449403E-01  0.86962857E+00
  0.97409145E+00  0.54283391E+00  0.37738627E+00
  0.99313179E+00  0.46935061E+00  0.13268624E+00
  0.23461135E+00  0.24166882E+00  0.11800317E+00
  0.74264255E+00  0.21829846E-01  0.61863562E+00
  0.74998290E+00  0.23683683E+00  0.73117393E+00
  0.75837553E+00  0.73169423E+00  0.36207011E+00
  0.28116881E+00  0.22465834E+00  0.85672573E+00
  0.78286753E+00  0.25553166E+00  0.11328595E+00
  0.28520120E+00  0.73382378E+00  0.63752142E+00
  0.40288624E-03  0.99546815E+00  0.85526446E+00
  0.47189237E+00  0.48936354E+00  0.38679180E+00
  0.99994717E+00  0.99318068E+00  0.61228052E+00
  0.22882699E-01  0.47542129E+00  0.64425618E+00
  0.50352478E+00  0.98457496E+00  0.11251029E+00
  0.80128779E+00  0.46609206E+00  0.87799619E+00
  0.46510334E+00  0.99782894E+00  0.37256452E+00
  0.23761105E+00  0.11431326E-02  0.36784085E+00
  0.77371988E+00  0.76044963E+00  0.86972996E+00
  0.52946287E+00  0.51068849E+00  0.64032354E+00
  0.25495719E+00  0.72466165E+00  0.12705896E+00
  0.23275963E+00  0.25500237E+00  0.49582089E+00
  0.73869063E+00  0.74234016E+00  0.11759466E+00
  0.72676200E+00  0.21934989E+00  0.49908284E+00
  0.50606481E+00  0.73449361E+00  0.51595014E+00
  0.47387397E+00  0.81947624E+00  0.99325277E+00
  0.98223107E+00  0.24200052E+00  0.50607888E+00
  0.97091108E+00  0.75191379E+00  0.74408633E+00
  0.97991003E+00  0.74553663E+00  0.26372768E+00
  0.51098889E+00  0.26981652E+00  0.76861377E+00
  0.34639811E-01  0.97978185E+00  0.98548570E+00
  0.49878674E+00  0.18370400E+00  0.48790895E+00
  0.50467037E+00  0.48222455E+00  0.99380024E+00
  0.79484988E+00  0.25040501E+00  0.26543209E+00
  0.30454200E+00  0.75420369E+00  0.74854954E+00
  0.45493545E+00  0.72508746E+00  0.24699510E+00
  0.99751168E+00  0.72771357E-01  0.26496210E+00
  0.50878926E+00  0.48741491E+00  0.86866619E+00
  0.49778973E+00  0.99607964E+00  0.74260786E+00
  0.96715623E+00  0.47721934E+00  0.25932757E+00
  0.24797427E+00  0.20634911E+00  0.99020051E+00
  0.73835550E+00  0.69509363E+00  0.48884900E+00
  0.24879940E+00  0.77916251E+00  0.49955443E+00
  0.76477443E+00  0.25525216E+00  0.99559633E+00
  0.98615597E+00  0.97057172E+00  0.73468563E+00
  0.45950474E+00  0.44718683E+00  0.24143950E+00
  0.11947315E-01  0.46907581E+00  0.76609974E+00
  0.50962176E+00  0.96795628E+00  0.24942170E+00
  0.25933590E+00  0.26164358E+00  0.37213594E+00
  0.97401452E+00  0.72303401E+00  0.98934513E+00
  0.76116690E+00  0.50872695E+00  0.61534284E+00
  0.22354540E+00  0.70569130E+00  0.11871855E-01
  0.21323844E-01  0.18494672E+00  0.70235015E-02
  0.47671500E+00  0.47448661E+00  0.50796875E+00
  0.48819530E+00  0.51160327E+00  0.11618117E+00
  0.98107422E+00  0.54713592E+00  0.51514705E+00
  0.50454935E+00  0.19768350E-01  0.87361232E+00
  0.99154361E+00  0.90581440E+00  0.50787343E+00
  0.99813346E+00  0.44831692E+00  0.98148785E+00
  0.49131336E+00  0.94405086E+00  0.49113326E+00
  0.47722785E+00  0.20667164E+00  0.23470036E+00
  0.72887072E+00  0.77188227E+00  0.98922996E+00
  0.23369511E+00  0.74654345E+00  0.24625439E+00
  0.10845292E-01  0.25969414E+00  0.73759912E+00
  0.73134671E+00  0.74874905E+00  0.24448877E+00
  0.28495278E+00  0.25980028E+00  0.73830375E+00
  0.15469234E+00  0.24393816E+00  0.26864803E+00
  0.70828410E+00  0.75547873E+00  0.74641405E+00
  0.22030720E+00  0.49003575E+00  0.12705928E+00
  0.49566762E+00  0.97369899E+00  0.62945269E+00
  0.74549027E+00  0.24571750E+00  0.86668520E+00
  0.22794271E+00  0.52791183E+00  0.36809651E+00
  0.24666160E+00  0.72863178E+00  0.87146844E+00
  0.73277377E+00  0.11794787E-01  0.36283602E+00
  0.72537745E+00  0.26105933E-01  0.11901155E+00
  0.29895467E+00  0.42304043E+00  0.63465347E+00
  0.52405623E+00  0.23413603E+00  0.99041574E+00
  0.22238181E+00  0.74598171E+00  0.39211324E+00
  0.72853907E+00  0.74199208E+00  0.61352497E+00
  0.18378581E+00  0.95586808E+00  0.12482591E+00
  0.26506378E+00  0.82366048E-01  0.61327040E+00
  0.72089234E+00  0.48909514E+00  0.13200300E+00
  0.26331470E+00  0.97270385E+00  0.87362888E+00
  0.74636129E+00  0.41149834E+00  0.37141218E+00
  0.25591319E+00  0.10443861E-01  0.24655932E+00
  0.78036703E+00  0.48760140E+00  0.74856507E+00
  0.24996575E+00  0.81734602E-02  0.74141864E+00
  0.69579405E+00  0.48964245E+00  0.26006449E+00
  0.25844984E+00  0.94990772E+00  0.39813755E-02
  0.73023423E+00  0.46632311E+00  0.49610666E+00
  0.23069993E+00  0.16220377E-01  0.48860437E+00
  0.72290663E+00  0.51571549E+00  0.32730186E-02
  0.74669654E+00  0.42625238E-02  0.74717284E+00
  0.20940673E+00  0.47453900E+00  0.24167980E+00
  0.27849203E+00  0.50011550E+00  0.75222096E+00
  0.74529423E+00  0.99571898E+00  0.23934924E+00
  0.23262209E+00  0.52587631E+00  0.49823002E+00
  0.75300545E+00  0.18979349E-01  0.99309760E+00
  0.73406391E+00  0.96674108E+00  0.49894886E+00
  0.24319283E+00  0.45423803E+00  0.56469787E-02
  0.98631141E+00  0.27081804E+00  0.37281703E+00
  0.50411100E+00  0.75269438E+00  0.87508952E+00
  0.51463171E+00  0.24567988E+00  0.62521364E+00
  0.99500124E+00  0.71554282E+00  0.12394915E+00
  0.11051474E-01  0.23636844E+00  0.87480732E+00
  0.46906607E+00  0.74871687E+00  0.37929578E+00
  0.25512796E-01  0.74008251E+00  0.63094993E+00
  0.48609967E+00  0.24673966E+00  0.11340371E+00
  0.13843214E+00  0.34719559E+00  0.45079674E-01
  0.64075359E+00  0.88157523E+00  0.55678420E+00
  0.66541839E+00  0.12073385E+00  0.94076997E+00
  0.12678271E+00  0.61310686E+00  0.45084971E+00
  0.35519868E+00  0.37246580E+00  0.95732548E+00
  0.80466104E+00  0.86431894E+00  0.44185134E+00
  0.86308906E+00  0.96969692E-01  0.42577563E-01
  0.34051105E+00  0.61496126E+00  0.54658934E+00
  0.84760302E+00  0.94454912E-01  0.19050343E+00
  0.37664754E+00  0.58228678E+00  0.70216902E+00
  0.85930861E+00  0.90281550E+00  0.28880202E+00
  0.36741549E+00  0.39786933E+00  0.80284699E+00
  0.11443104E+00  0.59144923E+00  0.29420205E+00
  0.64613557E+00  0.11032331E+00  0.78627707E+00
  0.10803872E+00  0.37846659E+00  0.19413873E+00
  0.66095434E+00  0.91342038E+00  0.68780163E+00
  0.82780456E+00  0.61765728E+00  0.95410851E+00
  0.33306620E+00  0.11964512E+00  0.44300006E+00
  0.83130861E+00  0.37291463E+00  0.54870482E+00
  0.33080315E+00  0.85391987E+00  0.61086181E-01
  0.11567120E+00  0.10880269E+00  0.53660796E+00
  0.63965481E+00  0.61157402E+00  0.55130182E-01
  0.15400564E+00  0.85864786E+00  0.94715819E+00
  0.60760822E+00  0.38104441E+00  0.45244103E+00