Na88 Ge16 P8 Se96                       
   1.00000000000000     
    13.9614333504000001    0.0000000000000000    0.0000000000000000
     0.0000000000000000   13.9614333504000001    0.0000000000000000
     0.0000000000000000    0.0000000000000000   27.9228667008000002
   Na   Ge   P    Se
    88    16     8    96
Direct
  0.7256961561964238  0.7906593585437461  0.9937837698083908
  0.5421142832497260  0.3300036387608400  0.5277579435896990
  0.4893031589685562  0.5086548900723872  0.9157014766473388
  0.0432852642421969  0.0033175165593540  0.2530894063359421
  0.1849607570549670  0.0141710555385644  0.8772656114238766
  0.9757377123621354  0.4902497411962624  0.3622480444160348
  0.2242532122505944  0.5117755932905556  0.1192174010293762
  0.4189916335231490  0.2566463916523147  0.2326447148278507
  0.7786174088713036  0.7592809884990933  0.7029366828481469
  0.7060333493947022  0.2886344825717344  0.8717964883373367
  0.7611975750478249  0.7367869139588591  0.3950742154432711
  0.2240666110166686  0.4930238066347811  0.8677933465655321
  0.7605123116238273  0.2289646038818147  0.1317094434234113
  0.5005800116999858  0.5385636359292757  0.6101188104655207
  0.0011419069287886  0.7494276884036413  0.0019619861306664
  0.2711023731975788  0.5080666786081611  0.3680282427386472
  0.1122846098116965  0.9746615588097133  0.6424894397619941
  0.0242087267463907  0.4816045152608642  0.6217377203316916
  0.5257384488934410  0.9947081533790219  0.1258465519554300
  0.0010311278814575  0.5219425029223449  0.8607569616907362
  0.5026520021137010  0.0756861316075222  0.5183360253832237
  0.2614045101349189  0.2428837122505040  0.3730193740043432
  0.8310432896378637  0.0550010504466085  0.8710292327892901
  0.0122641125689095  0.2359345913056187  0.5040495396485036
  0.2828346393275766  0.7265979778498307  0.1002960374736492
  0.2639921323138952  0.1296943625227596  0.6261551014602569
  0.7326930244278024  0.7006417503057679  0.1422300015051161
  0.5204217278526185  0.4600410745707936  0.3699410518524960
  0.7717742377386199  0.7115589435899996  0.5162835308481131
  0.4716493248126806  0.0265561213087551  0.0133957387682609
  0.0240289490744673  0.4708064866546607  0.4843200985551791
  0.5157499530747086  0.7590689875075761  0.7348374804442360
  0.9607150319133291  0.7481012536447657  0.2823554004350606
  0.3027520786220378  0.2790428487375132  0.7138270077609447
  0.9808950463376794  0.5277344117192456  0.0093594784769770
  0.5382297259630238  0.8220662121054376  0.4985802913106761
  0.5034407614698947  0.6790847299596822  0.9966239297715186
  0.5366088512856048  0.0120154849735758  0.2560425568807508
  0.9953325127419620  0.7725086192677448  0.7559800053442529
  0.5005060674446817  0.7813554519028383  0.2544271184953938
  0.9894559870711868  0.0060225347208242  0.0933467411369065
  0.5028843461655477  0.5086758818716345  0.7578421458890713
  0.4912788857164389  0.0284145159697231  0.7645578234446444
  0.9895553457723895  0.5008271543204152  0.2464349240178814
  0.2486882171605626  0.2360790047479386  0.8615004465848217
  0.0044671140570333  0.9968353109886618  0.3946918228061511
  0.2795745128931898  0.7686290806583791  0.4980075455220606
  0.7666518651305175  0.2769430920666213  0.9917566168935901
  0.9923923442968952  0.0528245875036127  0.7557775919378311
  0.4727370737804909  0.5113472523892080  0.2519174767992602
  0.0019787828310458  0.5317181380535740  0.7427922003625034
  0.4942282350751023  0.0435520502529093  0.3838112772456080
  0.2621715460523599  0.2352219328526748  0.5276174014238471
  0.4606351080095277  0.3834246539930214  0.0188799736336145
  0.7685860184329331  0.2675476309645688  0.3688663910349012
  0.2410165996093847  0.7310620234074354  0.9865407844148915
  0.9733678866652556  0.2641039508685266  0.0001200649979722
  0.7642585430840988  0.2152724744382112  0.4994835230327084
  0.2233068389432540  0.2265775995436054  0.9844905151832722
  0.0151966710757151  0.7181873725987505  0.4849284603594014
  0.5132126784662897  0.0033922234615589  0.8865963476469424
  0.9999683077676923  0.9765474633282281  0.5189968700147365
  0.9241960860389792  0.5380014529447034  0.1304605441751966
  0.5148889355840039  0.9810729748051930  0.6487274130922726
  0.1133823188616071  0.2672207679412042  0.2593179130759828
  0.7378028039044480  0.7816645041672469  0.8682827082222151
  0.2245489795935421  0.7681800921083723  0.2367468779050882
  0.6456130279168163  0.2776584751618751  0.7615374016558928
  0.7285713352164038  0.7603833690132032  0.2703535917553371
  0.9890664973740328  0.2631441086196726  0.7367558838245091
  0.7605195947229521  0.2562758421761984  0.2428565506320297
  0.2521664049492784  0.7377348910950330  0.6103337498750171
  0.2162573232358382  0.2559438773560411  0.1345413540946488
  0.7809535541354045  0.0082604548364768  0.6320667068561674
  0.9909606262836882  0.0240485549729249  0.9881895324016177
  0.2454050576301414  0.7876844397081453  0.3750447232371006
  0.2149108101491476  0.7712163051661312  0.8810321078533299
  0.7508093974277926  0.9893099552789019  0.3864709847033998
  0.7667027268453331  0.9709651134435262  0.1200535979169634
  0.7846732692897017  0.5407754368707719  0.6167655862622472
  0.7578767328294761  0.5102719447204235  0.8885801909619108
  0.2352531593078546  0.0356032668272428  0.3863325103243814
  0.7879838860617073  0.2808840754917297  0.6352528255640435
  0.2812627646623674  0.9802307541463247  0.1260688762787837
  0.2671690363586787  0.5007244333730745  0.6215604804508587
  0.6469700346780838  0.5016193269662756  0.1279706048891991
  0.2896889932294833  0.7566574148476268  0.7621784294509641
  0.4953312383012484  0.5544227699873873  0.4794832036332989
  0.2817218565272043  0.0164473366193808  0.2487811678468664
  0.7754984570543846  0.5153753431577915  0.7411142356308125
  0.2405930880222323  0.0052696496322428  0.7439463074567935
  0.7159089428219693  0.5235072771523662  0.2538850425480640
  0.2432462914394498  0.9607927113712512  0.9874924786297089
  0.7612898538219234  0.4571919034580441  0.4947414650794784
  0.2517336604677433  0.0218192041643432  0.5064102427778107
  0.7420309657841092  0.5403276690379305  0.0053967055024372
  0.7269718565853009  0.0382971575855655  0.7604442253621828
  0.2104177408778975  0.5077954996193028  0.2390218129123501
  0.2615029729603079  0.4970937637167266  0.7566512695103536
  0.7975069668086573  0.9979153455827433  0.2505985066953610
  0.2691421252316925  0.5136825484155090  0.4932625661431765
  0.7345490472814477  0.0156083240995371  0.0050474803308708
  0.7570963481980739  0.9613411620234815  0.5181100736157236
  0.2183282330005664  0.4646556604805518  0.9914396444486970
  0.0056828104925445  0.2357553441492614  0.3738640693564845
  0.4826782589927062  0.7555566123721269  0.8746218905030368
  0.5170215540999096  0.2579162984867479  0.6299189916996714
  0.0031315010435722  0.7683356165994654  0.1288024045127648
  0.9914148041384531  0.2758003870196669  0.8743239089452047
  0.5067170831977981  0.7784518453167635  0.3813968629236534
  0.0079477261886890  0.7470585255750940  0.6202865404397361
  0.4908380784006874  0.2736102456194318  0.1123124855786019
  0.1219132513242492  0.3877514548344652  0.0490149435077316
  0.6695794461179634  0.8581710708661271  0.5727483231379632
  0.6534072984883920  0.1239969844899836  0.9607670726063163
  0.1804773638960043  0.6187419209705132  0.4458137572254756
  0.3227817404107565  0.3667719081387955  0.9367565248463805
  0.8481920577703170  0.8637658362430853  0.4568683063808104
  0.8458133537378417  0.1068606771765305  0.0539398384447148
  0.3626428426049417  0.6217471217880890  0.5450381407658664
  0.8683131706057332  0.1020381836658944  0.1896814618005626
  0.3717113200802056  0.5968463144977354  0.7025282497841960
  0.8818179316515710  0.9034050446145380  0.3097935580057126
  0.3524344696032291  0.3901688645763635  0.7950765641432648
  0.1307146068941960  0.5987984582967216  0.3006785029177934
  0.6380631760572864  0.1020115566370283  0.8242364000936420
  0.1168643331177345  0.4027187568538559  0.1852465513638480
  0.6320233366507373  0.9079515816268097  0.7276976478515913
  0.8432425631209751  0.6309583993715672  0.9561965952022715
  0.3506764643813145  0.1393511846759594  0.4550789159689456
  0.8623946774883374  0.3705250856186595  0.5490214586252335
  0.3426905051650543  0.8606632536281819  0.0427661832922049
  0.1327261841340743  0.1168243145894600  0.5559049049788429
  0.6306613695792012  0.6275381830028601  0.0549932795072638
  0.1135901519438016  0.8908100477017055  0.9478320278957865
  0.6489279917362886  0.3498655598999376  0.4564267696695762
  0.6120570320024105  0.3950054370000231  0.2901192480494978
  0.1481461033220207  0.9069265867718557  0.7952840658828391
  0.1460022852261191  0.1210084798049545  0.7067650802342889
  0.6126361125222847  0.6327446479199301  0.2120120968082397
  0.8789554937156663  0.4284711806181054  0.6908972448303982
  0.3793039340064591  0.9028945982293851  0.2145397153929173
  0.3812717350358020  0.1187481265127643  0.2995593850438118
  0.8668268833528331  0.6209394790694968  0.7900419290324093
  0.1684397047842586  0.0569915062976138  0.0461083652616288
  0.6350390790377490  0.5537213475473277  0.5422001766508908
  0.6544574975540552  0.4349982176953459  0.9558266653523922
  0.1489862851786009  0.9001110192658492  0.4570321989516690
  0.3324490131727889  0.0691330971315080  0.9453787208159533
  0.8597815825763466  0.5573893293740133  0.4521338559377834
  0.8334608191404174  0.4369123549172869  0.0556148820002991
  0.3477489496691985  0.9331551342205480  0.5541225995630333
  0.1880599406203399  0.1100357575915406  0.1932426945655656
  0.6523944100520995  0.6105229379478745  0.7017650849270559
  0.1836686762720310  0.9278412214250761  0.3075408803701670
  0.6773146603398533  0.4430623730389306  0.8010706927279552
  0.8320388808324385  0.5984449879306956  0.3097394835812191
  0.3316662737798766  0.1038217365860152  0.7944246865417477
  0.8076489256835698  0.4212609873231103  0.1998361153058421
  0.3147800532911202  0.9100319092835010  0.6824437736101480
  0.8318628764294014  0.9256162491140627  0.9480184082280699
  0.3627949943400819  0.4094741994150162  0.4531727238890043
  0.8672702756886346  0.0828846245401253  0.5552949393959695
  0.3425577827569798  0.5480883329921847  0.0359252097981032
  0.1611486460367445  0.4236646971566637  0.5405608093096647
  0.6301608822829430  0.9214246130892482  0.0487327984933069
  0.1228712948224732  0.5820073476536627  0.9519580557377925
  0.6467524996847998  0.0415344539912246  0.4666605333916449
  0.2868370889875722  0.3814692331420236  0.2858016117762736
  0.8510442748755710  0.9332818214946788  0.7856440080168360
  0.8090871647148025  0.1570132107971035  0.7168390828863568
  0.3157810932647070  0.5893804696499629  0.1947124240465201
  0.1703811798372629  0.4192645737463656  0.6966265957449215
  0.6805173630991096  0.9075996037797169  0.2026469878080243
  0.6895289255385091  0.0946097078276556  0.3042372115275409
  0.1613239380743885  0.6082882234094423  0.7993316898755599
  0.0962004353071928  0.1251070015237454  0.3367922881755466
  0.5744823152576005  0.6476310377586444  0.8354442432776626
  0.6139247217109471  0.3791392077310305  0.6596439973746425
  0.1114493440567303  0.8685792256544651  0.1598463419609197
  0.4434314908278625  0.1782945181877542  0.6801743845787064
  0.9291025204140204  0.6833711146201469  0.1872177242444702
  0.9247371200670876  0.3133927932725077  0.3215448257280068
  0.4198309769182723  0.8578979984877114  0.8264937665606721
  0.0831730680260686  0.1871150517585413  0.9214243151099919
  0.5957100703973430  0.6903075863233037  0.4312019209337219
  0.1039745286308434  0.8348326728586817  0.5692542966580780
  0.6269326755896348  0.3267489728932434  0.0766612674801268
  0.9423917548119733  0.6441819991411879  0.5726337104576266
  0.3784675233944378  0.1873068787505489  0.0661468502283439
  0.9006581822447978  0.3818772769893005  0.9136769828476747
  0.4051930069098456  0.8680501468648111  0.4192012736136650
  0.9176215403973240  0.8509368546371575  0.6601353761219482
  0.4185147108746233  0.3931039060364710  0.1520047697814544
  0.9056810886170354  0.1965725980207507  0.8206081845380389
  0.4054146892596273  0.6919365648844207  0.3286205964035682
  0.0979572747223504  0.3603391449914145  0.8292468836379325
  0.6047030354610831  0.8785401553173262  0.3451164838474747
  0.0959187170850920  0.6706727777793794  0.6698258057119881
  0.5447134480908475  0.1619415895035070  0.1629910633181070
  0.4005980941885114  0.3300127943248943  0.5901151606499954
  0.8949808611069902  0.8254990029965127  0.0768998878343621
  0.9017458711256102  0.1554675851372246  0.4207795862771671
  0.3648856071658320  0.6681300002828976  0.9157824153529674
  0.1022857206787153  0.3234006310019614  0.4152664526520427
  0.5603605659783459  0.8386223841721936  0.9294440217376527
  0.6069726454288314  0.1637870757146397  0.5839627331617211
  0.0877803716556102  0.6766772654505961  0.0776548980129184
 
  0.54100620E-03  0.47044907E-03 -0.54727651E-03
  0.23179620E-02  0.86206315E-02  0.10524868E-01
  0.17330150E-02 -0.33531770E-02  0.29797176E-03
  0.86832727E-02 -0.11414162E-02 -0.95605309E-04
 -0.10009991E-01 -0.12914766E-02 -0.46552771E-02
  0.13176675E-02  0.51008300E-02  0.51772996E-03
 -0.31579257E-02  0.28723173E-02  0.11418883E-02
 -0.58939821E-03  0.62040575E-02 -0.12455724E-02
  0.56044308E-02  0.58364580E-02 -0.54521899E-02
 -0.49496876E-02  0.33238898E-02  0.67424476E-02
 -0.10630846E-01  0.41299391E-02  0.30236895E-02
 -0.14098788E-02 -0.20359089E-02  0.52397494E-02
  0.71504386E-03  0.12369577E-02  0.24367466E-02
  0.38906352E-02  0.47308192E-02  0.79745473E-03
  0.85560078E-02  0.16500582E-02 -0.30992299E-02
 -0.19711679E-02  0.32919189E-02 -0.66754891E-02
  0.17945956E-02  0.86146229E-02 -0.90374564E-02
 -0.17169854E-02 -0.37615407E-02 -0.58944936E-02
  0.39669959E-02 -0.11222599E-02 -0.28144993E-02
  0.37977386E-02  0.41106361E-02  0.17774889E-02
  0.98965479E-02  0.54904172E-02 -0.13682264E-01
 -0.47781638E-02 -0.29437472E-02  0.53135426E-03
 -0.66316891E-02 -0.12195082E-01  0.23870272E-02
 -0.29218173E-02 -0.11815980E-02 -0.51116497E-02
  0.68028325E-02 -0.38441136E-02 -0.15495727E-02
  0.35932237E-02  0.92707974E-02  0.11056335E-03
  0.15849192E-02 -0.58681696E-02  0.21390866E-02
 -0.16448383E-03 -0.12259209E-02 -0.46480783E-03
  0.80570843E-03  0.49873068E-02  0.55917465E-02
  0.10000939E-02 -0.46386601E-02  0.39421709E-02
  0.22842420E-03  0.75100857E-02 -0.22147445E-04
 -0.25088368E-02 -0.12590955E-02  0.28859502E-02
 -0.58436535E-02  0.33060082E-02 -0.33881014E-02
  0.57354759E-02 -0.47790523E-04 -0.44390386E-02
  0.77208557E-02 -0.24281591E-02 -0.10680321E-01
  0.42311685E-02  0.18292126E-02 -0.32474470E-02
  0.35092263E-02  0.60071406E-02  0.39906482E-02
 -0.21528289E-02  0.41163947E-02 -0.53760388E-02
  0.29008624E-02 -0.38404379E-02 -0.50733604E-02
 -0.47369095E-02  0.18725836E-02 -0.19872321E-02
 -0.14244229E-02 -0.44057778E-02 -0.47150348E-02
  0.53785605E-02  0.30406402E-02  0.33783044E-02
 -0.34309270E-02 -0.56942792E-02  0.20402197E-02
 -0.34021398E-03  0.38395341E-02 -0.27006850E-03
 -0.31068745E-02 -0.13498083E-02 -0.26341782E-03
 -0.30353185E-02 -0.17050397E-02 -0.12120502E-02
  0.13973329E-02  0.55436815E-02  0.32806703E-02
  0.66842189E-02 -0.24534534E-02  0.21561739E-02
 -0.79103150E-02  0.20969224E-02 -0.53417066E-02
 -0.54849971E-02 -0.33756497E-02  0.15515194E-02
  0.11413415E-02 -0.11289987E-01  0.11703027E-01
  0.39728019E-02 -0.19717106E-02 -0.56127482E-02
 -0.39267874E-03 -0.27277561E-02  0.13603690E-02
  0.10726063E-02  0.48619348E-02 -0.15890526E-02
 -0.48819203E-03  0.26610822E-02  0.23223549E-03
  0.40333050E-02 -0.24229044E-03  0.12531820E-02
 -0.11154477E-02 -0.60592613E-02  0.85617504E-02
 -0.63363516E-02  0.42927927E-05  0.82528923E-02
  0.65053266E-02 -0.19013991E-02 -0.13473021E-02
 -0.26930711E-02  0.68750511E-02  0.21857432E-02
  0.41736752E-02  0.32723380E-02 -0.82059096E-03
 -0.19142487E-02  0.49747634E-02 -0.32028246E-02
 -0.60496372E-02  0.50579989E-02  0.58573231E-02
 -0.18396186E-02 -0.47552621E-03 -0.73751861E-02
 -0.21569629E-02 -0.11811130E-02  0.56206788E-02
  0.42717771E-02  0.30536993E-02 -0.20395735E-02
 -0.11966685E-01  0.44484564E-02 -0.11996802E-03
  0.20241032E-02  0.55523665E-02 -0.51298197E-02
  0.41029880E-02 -0.47870351E-02 -0.16493320E-02
  0.92558549E-03  0.10250144E-02 -0.54606325E-02
 -0.11558033E-02  0.76209978E-02  0.24757704E-02
 -0.39065032E-02  0.31463882E-03  0.94995094E-02
  0.26645340E-02  0.23468070E-02 -0.17794009E-02
  0.55899860E-02 -0.76636940E-03  0.57927752E-02
  0.26891412E-02 -0.57068712E-02 -0.57786264E-02
 -0.95458382E-03 -0.51565380E-02 -0.52652289E-02
 -0.45481124E-02  0.11279461E-02  0.38762739E-02
  0.32267281E-02 -0.16557780E-03 -0.26616318E-02
  0.20731472E-02  0.32029462E-02 -0.46216990E-03
 -0.34533874E-02 -0.42382451E-02 -0.78031447E-02
 -0.70056318E-02  0.19934039E-02  0.96717888E-03
 -0.77546078E-02  0.14720660E-02 -0.21356539E-02
 -0.21828411E-02  0.35172253E-02 -0.20890638E-02
  0.64988954E-03  0.42574104E-02 -0.85428338E-03
  0.60785073E-03 -0.44854474E-02  0.10049193E-02
  0.27254337E-02 -0.22177560E-02  0.31658784E-02
  0.17661609E-02 -0.54219611E-02  0.23331391E-02
 -0.83261916E-03  0.23426894E-02 -0.34926161E-02
  0.33292390E-02  0.13336561E-02 -0.41241230E-02
  0.18999755E-02  0.16842248E-02 -0.12523145E-02
  0.97494588E-03 -0.24021273E-02  0.20611913E-02
 -0.36228856E-02 -0.28008282E-02  0.59325048E-02
 -0.13874538E-02 -0.13163133E-02  0.27880974E-02
 -0.14964447E-02 -0.11727547E-04 -0.18539111E-02
  0.61771146E-02  0.77378056E-03 -0.21487735E-02
 -0.41260835E-02 -0.20678029E-02 -0.12657803E-02
 -0.51503629E-02  0.18046089E-02 -0.33572877E-02
  0.14379047E-02 -0.85680847E-03 -0.37189882E-03
 -0.11343255E-02 -0.11346532E-02  0.97571399E-03
  0.28757461E-02  0.15979735E-03  0.20356137E-03
  0.17060041E-02  0.66816192E-02 -0.28464631E-03
  0.12995297E-02  0.22177934E-03 -0.11452915E-02
 -0.21419167E-02  0.87213994E-04  0.75142968E-03
 -0.14011170E-03  0.32768537E-04 -0.51295439E-02
 -0.75870682E-02  0.79715441E-04 -0.98461246E-02
  0.16463080E-02 -0.19603492E-02  0.34045135E-02
  0.16436567E-02 -0.95457445E-03  0.42944246E-02
 -0.30641895E-02  0.15849379E-02  0.38254374E-02
 -0.94179625E-03 -0.38060867E-02 -0.40757281E-03
 -0.36290932E-02 -0.32028691E-02  0.22652448E-02
 -0.43279480E-02 -0.35034820E-02  0.28731467E-02
 -0.18003184E-02  0.17310732E-02  0.52141447E-03
 -0.36865445E-02 -0.27973869E-02 -0.74668571E-03
 -0.17010381E-02 -0.96528492E-03 -0.18297592E-02
  0.32784131E-02  0.45157915E-02 -0.14743629E-02
  0.10063609E-02  0.37352194E-02  0.26172333E-02
  0.19880453E-02  0.11031684E-02 -0.65414398E-03
  0.11059760E-02  0.33656944E-03  0.19765127E-02
 -0.33431176E-02 -0.63951896E-03 -0.12584454E-02
  0.11123909E-02  0.25553375E-02 -0.17949011E-02
  0.42047143E-03 -0.61245303E-02 -0.20901304E-02
  0.85535597E-03 -0.74936234E-03  0.88985866E-03
 -0.17410510E-02  0.18230723E-02 -0.27267288E-02
  0.13098043E-02 -0.49193153E-02  0.12090686E-02
  0.16595500E-02 -0.22853005E-02 -0.20687375E-02
  0.38984291E-02 -0.21273826E-03 -0.16489586E-02
  0.18164970E-02  0.10219892E-02 -0.19565840E-02
 -0.15691471E-02  0.16690831E-02 -0.70352305E-03
 -0.24692874E-02 -0.16916744E-02  0.18373694E-02
 -0.14937261E-02 -0.22953100E-02  0.13441118E-02
 -0.22767327E-02  0.44229020E-02  0.27001444E-02
  0.65276103E-03  0.69784126E-04  0.35035905E-03
  0.90524492E-03  0.24911479E-02  0.18824029E-02
  0.63788056E-03  0.96508876E-03  0.30625330E-02
  0.21098808E-02 -0.19768972E-02  0.41345237E-02
  0.57213220E-03 -0.10554943E-02  0.32900579E-02
 -0.31503448E-02 -0.91071654E-03 -0.69792652E-05
 -0.25319840E-02  0.35474195E-02 -0.17720971E-02
  0.27621876E-02 -0.62523423E-03  0.44658230E-02
  0.37905289E-02 -0.94997867E-03  0.56473785E-03
  0.10312937E-02 -0.69722219E-03  0.29907948E-02
 -0.27953238E-02  0.39415865E-03  0.74024940E-03
  0.43801432E-03 -0.48281909E-02  0.47352873E-03
 -0.10249964E-03 -0.26232567E-02  0.48725060E-02
 -0.60390647E-03  0.28845965E-03  0.66960118E-03
 -0.85193642E-03 -0.20148299E-02 -0.18819227E-02
  0.29173834E-02  0.20221417E-02  0.31093928E-02
 -0.21670179E-02 -0.57974905E-03 -0.47661151E-03
  0.25837281E-02 -0.16543846E-02  0.26925489E-02
  0.20788990E-02 -0.17242832E-02  0.13159479E-02
 -0.33382618E-02  0.34648624E-02 -0.15926657E-02
  0.10265532E-03 -0.20872027E-02 -0.11674543E-02
  0.44425310E-02 -0.14464857E-02  0.60128353E-03
  0.12858176E-02 -0.35959061E-02 -0.37672872E-02
  0.12633193E-02  0.39272495E-02 -0.93059568E-03
  0.27739083E-02  0.44843009E-02  0.13992638E-03
  0.29366300E-02 -0.10095458E-02 -0.51996351E-03
  0.76099552E-03 -0.48596587E-03 -0.36938836E-03
 -0.26542181E-02  0.17474275E-02  0.12430983E-02
 -0.21846780E-02 -0.68724285E-02 -0.30489956E-02
  0.20231137E-02  0.40497696E-03  0.42308123E-02
  0.19592101E-02  0.22770517E-02 -0.25950908E-02
 -0.18175220E-02  0.11547926E-02  0.96833407E-03
  0.42617317E-03 -0.92338106E-03  0.19648205E-02
 -0.83572520E-04 -0.14107268E-02  0.26919734E-03
 -0.37350010E-02 -0.22292265E-02 -0.32331011E-02
 -0.33684598E-02 -0.26011765E-02  0.30725747E-02
 -0.69551299E-03  0.10849091E-02  0.83634887E-03
  0.72433136E-02  0.66818464E-03 -0.11143659E-02
 -0.92662466E-03  0.47162573E-03 -0.78943090E-03
  0.70638943E-03 -0.14391806E-02 -0.20684612E-02
 -0.26119231E-03  0.29937795E-02 -0.22054388E-02
  0.38164291E-02  0.36386973E-02  0.33369084E-02
 -0.17465786E-02 -0.23633139E-02  0.32220905E-03
  0.34612919E-02  0.28043365E-02 -0.19533701E-02
  0.67192281E-03 -0.11713586E-03  0.42381495E-02
  0.90154221E-03 -0.23586815E-02 -0.24724843E-02
  0.16892568E-03 -0.45381733E-03 -0.18770069E-02
 -0.34664327E-02  0.44454696E-03 -0.34715423E-02
 -0.32400241E-02 -0.19531781E-02 -0.28130524E-02
 -0.46362005E-02 -0.26386953E-02  0.16065669E-02
 -0.10510170E-02 -0.92414547E-03  0.41363213E-02
 -0.72431498E-03 -0.16380294E-02 -0.14734699E-02
  0.24049490E-02 -0.45756506E-02  0.19855039E-02
 -0.20681864E-02 -0.25716903E-02  0.46898804E-03
 -0.26447152E-02  0.32946218E-02 -0.51717790E-02
 -0.32475733E-02  0.40901459E-02 -0.34195446E-02
  0.39564990E-02  0.46180641E-03 -0.50453282E-03
 -0.22855638E-02  0.84965614E-03 -0.79765472E-03
  0.22440455E-02 -0.41730863E-02 -0.54107811E-03
 -0.25087045E-02 -0.72674356E-03 -0.94265142E-03
  0.34762252E-02  0.68901880E-03 -0.35041956E-03
 -0.23247331E-02  0.17620048E-02 -0.28535362E-02
  0.18197876E-04  0.52988808E-03 -0.15441693E-02
  0.31706072E-02  0.22056475E-02  0.26911746E-02
  0.42985378E-03  0.32983314E-02 -0.44990387E-03
 -0.38534850E-02 -0.73292375E-03  0.16569355E-02
 -0.95688991E-03  0.14171775E-02  0.75608731E-03
  0.24320325E-03 -0.23364167E-02  0.41809120E-02
 -0.57608322E-03 -0.31060458E-03  0.82684922E-04
  0.17817725E-02 -0.61633152E-03  0.11337922E-02
 -0.81441230E-03 -0.37753989E-03 -0.37550057E-02
  0.32890604E-02  0.17136651E-02 -0.33848980E-02
 -0.23345901E-02  0.46639449E-03  0.20794531E-02
 -0.21196563E-02 -0.18111993E-02  0.48549189E-02
  0.31343788E-02  0.38945968E-02  0.98869316E-03
 -0.30173369E-02 -0.44374950E-02  0.17308642E-02
  0.90618137E-03  0.10432525E-02  0.17726912E-02
 
           1
   2.00000000000000     
  0.58377608E+00 -0.11897458E-02  0.00000000E+00  0.00000000E+00
  0.72577366E+00  0.79072675E+00  0.99374457E+00
  0.54244634E+00  0.33123856E+00  0.52851180E+00
  0.48955142E+00  0.50817454E+00  0.91572282E+00
  0.44529158E-01  0.31540067E-02  0.25308256E+00
  0.18352681E+00  0.13986049E-01  0.87693217E+00
  0.97592647E+00  0.49098044E+00  0.36228513E+00
  0.22380083E+00  0.51218706E+00  0.11929919E+00
  0.41890720E+00  0.25753513E+00  0.23255550E+00
  0.77942025E+00  0.76011707E+00  0.70254616E+00
  0.70532430E+00  0.28911064E+00  0.87227942E+00
  0.75967469E+00  0.73737854E+00  0.39529079E+00
  0.22386464E+00  0.49273216E+00  0.86816865E+00
  0.76061474E+00  0.22914180E+00  0.13188398E+00
  0.50113735E+00  0.53924133E+00  0.61017593E+00
  0.23675702E-02  0.74966406E+00  0.17400011E-02
  0.27082000E+00  0.50853825E+00  0.36755010E+00
  0.11254169E+00  0.97589562E+00  0.64184212E+00
  0.23962766E-01  0.48106567E+00  0.62131552E+00
  0.52630673E+00  0.99454739E+00  0.12564496E+00
  0.15751606E-02  0.52253136E+00  0.86088428E+00
  0.50406970E+00  0.76472644E-01  0.51735602E+00
  0.26072003E+00  0.24246202E+00  0.37305743E+00
  0.83009329E+00  0.53254083E-01  0.87120021E+00
  0.11845557E-01  0.23576533E+00  0.50368341E+00
  0.28380916E+00  0.72604730E+00  0.10018505E+00
  0.26450687E+00  0.13102242E+00  0.62616302E+00
  0.73292007E+00  0.69980112E+00  0.14238322E+00
  0.52039817E+00  0.45986546E+00  0.36990776E+00
  0.77188966E+00  0.71227338E+00  0.51668404E+00
  0.47179259E+00  0.25891625E-01  0.13678100E-01
  0.24061671E-01  0.47188232E+00  0.48431851E+00
  0.51539056E+00  0.75888862E+00  0.73504419E+00
  0.95987792E+00  0.74857485E+00  0.28211272E+00
  0.30357370E+00  0.27903600E+00  0.71350906E+00
  0.98200107E+00  0.52738657E+00  0.85944911E-02
  0.53883585E+00  0.82232825E+00  0.49834769E+00
  0.50394346E+00  0.67994526E+00  0.99690976E+00
  0.53630045E+00  0.12605166E-01  0.25565749E+00
  0.99574807E+00  0.77195847E+00  0.75561662E+00
  0.49982750E+00  0.78162370E+00  0.25428478E+00
  0.98925194E+00  0.53913993E-02  0.93009023E-01
  0.50365483E+00  0.50911146E+00  0.75808412E+00
  0.49078740E+00  0.27598800E-01  0.76470396E+00
  0.98950661E+00  0.50137717E+00  0.24641558E+00
  0.24824315E+00  0.23588564E+00  0.86148158E+00
  0.40322993E-02  0.99659106E+00  0.39460501E+00
  0.27977468E+00  0.76942322E+00  0.49824253E+00
  0.76760939E+00  0.27659163E+00  0.99191105E+00
  0.99125918E+00  0.53124975E-01  0.75539499E+00
  0.47195134E+00  0.51086368E+00  0.25202861E+00
  0.21422820E-02  0.53010083E+00  0.74363044E+00
  0.49479735E+00  0.43269599E-01  0.38340926E+00
  0.26211529E+00  0.23483118E+00  0.52771484E+00
  0.46078876E+00  0.38412113E+00  0.18766156E-01
  0.76851608E+00  0.26792884E+00  0.36888303E+00
  0.24159438E+00  0.73102731E+00  0.98663054E+00
  0.97320810E+00  0.26323595E+00  0.73330794E-03
  0.76335085E+00  0.21527309E+00  0.50007464E+00
  0.22423874E+00  0.22630522E+00  0.98439401E+00
  0.14810884E-01  0.71917224E+00  0.48508502E+00
  0.51381056E+00  0.38609917E-02  0.88653757E+00
  0.99969409E+00  0.97726011E+00  0.51876746E+00
  0.92332946E+00  0.53872602E+00  0.13088008E+00
  0.51462541E+00  0.98100485E+00  0.64819916E+00
  0.11307333E+00  0.26705157E+00  0.25972050E+00
  0.73841474E+00  0.78210195E+00  0.86813662E+00
  0.22283473E+00  0.76881734E+00  0.23673829E+00
  0.64590298E+00  0.27845386E+00  0.76116997E+00
  0.72915910E+00  0.75969762E+00  0.27023546E+00
  0.98919909E+00  0.26329094E+00  0.73636476E+00
  0.76035402E+00  0.25736756E+00  0.24303388E+00
  0.25160679E+00  0.73777996E+00  0.61101416E+00
  0.21663902E+00  0.25628006E+00  0.13441390E+00
  0.78175433E+00  0.81506711E-02  0.63248162E+00
  0.99134585E+00  0.23231036E-01  0.98777563E+00
  0.24526831E+00  0.78694576E+00  0.37466760E+00
  0.21425929E+00  0.77137789E+00  0.88130975E+00
  0.75127163E+00  0.98928624E+00  0.38628034E+00
  0.76699971E+00  0.97142394E+00  0.12002049E+00
  0.78417857E+00  0.54016830E+00  0.61620668E+00
  0.75687316E+00  0.51055750E+00  0.88864947E+00
  0.23414230E+00  0.35814143E-01  0.38617954E+00
  0.78767119E+00  0.28138792E+00  0.63510319E+00
  0.28135586E+00  0.98084064E+00  0.12600769E+00
  0.26725611E+00  0.50008189E+00  0.62163246E+00
  0.64736046E+00  0.50130163E+00  0.12819736E+00
  0.28994200E+00  0.75588071E+00  0.76234554E+00
  0.49521196E+00  0.55475836E+00  0.47923304E+00
  0.28219878E+00  0.16638385E-01  0.24848577E+00
  0.77577063E+00  0.51561661E+00  0.74102454E+00
  0.24073275E+00  0.49255406E-02  0.74409394E+00
  0.71538996E+00  0.52310605E+00  0.25430996E+00
  0.24304754E+00  0.96060415E+00  0.98769218E+00
  0.76107549E+00  0.45719022E+00  0.49460868E+00
  0.25261854E+00  0.21930050E-01  0.50625633E+00
  0.74143990E+00  0.54003145E+00  0.53060429E-02
  0.72623406E+00  0.38555671E-01  0.76020376E+00
  0.21062372E+00  0.50767276E+00  0.23899518E+00
  0.26134048E+00  0.49693122E+00  0.75672116E+00
  0.79791892E+00  0.99793824E+00  0.25061309E+00
  0.26938651E+00  0.51463970E+00  0.49324218E+00
  0.73473521E+00  0.15640094E-01  0.49654478E-02
  0.75678951E+00  0.96135366E+00  0.51816390E+00
  0.21830816E+00  0.46466035E+00  0.99107224E+00
  0.45959496E-02  0.23576676E+00  0.37315883E+00
  0.48291410E+00  0.75527579E+00  0.87486574E+00
  0.51725701E+00  0.25777955E+00  0.63022658E+00
  0.26925505E-02  0.76856266E+00  0.12907640E+00
  0.99127989E+00  0.27525516E+00  0.87429472E+00
  0.50619721E+00  0.77799303E+00  0.38155911E+00
  0.73277400E-02  0.74655665E+00  0.62049233E+00
  0.49058018E+00  0.27385822E+00  0.11234983E+00
  0.12138515E+00  0.38735072E+00  0.48961461E-01
  0.66933577E+00  0.85803279E+00  0.57261727E+00
  0.65387694E+00  0.12464388E+00  0.96066147E+00
  0.18062153E+00  0.61927700E+00  0.44600122E+00
  0.32306653E+00  0.36692994E+00  0.93670967E+00
  0.84835049E+00  0.86381405E+00  0.45700988E+00
  0.84533445E+00  0.10676906E+00  0.53849701E-01
  0.36280219E+00  0.62211318E+00  0.54490958E+00
  0.86837340E+00  0.10116083E+00  0.18953175E+00
  0.37183385E+00  0.59673897E+00  0.70259199E+00
  0.88156852E+00  0.90366620E+00  0.30959825E+00
  0.35262210E+00  0.38946416E+00  0.79516316E+00
  0.13095234E+00  0.59847108E+00  0.30053033E+00
  0.63862163E+00  0.10198108E+00  0.82411829E+00
  0.11712455E+00  0.40286516E+00  0.18510641E+00
  0.63179855E+00  0.90819068E+00  0.72764726E+00
  0.84288883E+00  0.63071606E+00  0.95632820E+00
  0.35046249E+00  0.13902238E+00  0.45517519E+00
  0.86206853E+00  0.37115867E+00  0.54921486E+00
  0.34278401E+00  0.86067325E+00  0.42791278E-01
  0.13285586E+00  0.11718118E+00  0.55603973E+00
  0.63075275E+00  0.62767643E+00  0.55212636E-01
  0.11389240E+00  0.89052685E+00  0.94812817E+00
  0.64900995E+00  0.34971436E+00  0.45666242E+00