Na88 Sn16 P8 S96                        
   1.00000000000000     
    13.4813327813000008    0.0000000000000000    0.0000000000000000
     0.0000000000000000   13.4813327813000008    0.0000000000000000
     0.0000000000000000    0.0000000000000000   26.9626655626000016
   Na   Sn   P    S 
    88    16     8    96
Direct
  0.4725389841849456  0.0022480813965865  0.1278402143690603
  0.4972775774421251  0.0322160496665522  0.4923640553516447
  0.7531801235506123  0.4842155286479154  0.8542205390206362
  0.7882543292773182  0.0579062129051053  0.3902380904627260
  0.2391415408286651  0.2675259016811111  0.9447923170266767
  0.2397241642445273  0.7646130148651408  0.3801610783797179
  0.7014961892426413  0.7619606275831112  0.1259898785193594
  0.2842555096098633  0.2640173304823569  0.2332276333470168
  0.2716930462250065  0.2838542162605258  0.7692352069065255
  0.6889885954813582  0.2500540311183918  0.0442035822967240
  0.7283760355700970  0.8207893240891634  0.3848872731649980
  0.5107005828414066  0.0328715875563887  0.8849389323445935
  0.4873802218820188  0.0232260568238864  0.0069464240474916
  0.4555818277877094  0.5270076180078052  0.6253476165037783
  0.7637630961428257  0.0126127860951904  0.8891218837261374
  0.7281569802014679  0.5227890395099017  0.3629573888704233
  0.0304442039178247  0.0290581804243749  0.4913156632381135
  0.2512521797761204  0.2639164973091245  0.6038992920810714
  0.2473307999275350  0.7162758415794420  0.1221550682158670
  0.9694192622922616  0.5565683285111748  0.8903423349943458
  0.4761796632386672  0.9978021313060883  0.2464773634403060
  0.2332562409268546  0.5071447519238096  0.3955978310070522
  0.4455298844600467  0.0186636031628651  0.6288870096890037
  0.7871449812679229  0.5220504089903243  0.6113449839832231
  0.2538495970340667  0.7602226338531414  0.9942442724123129
  0.0426646655702985  0.2318434939462423  0.7525859777162431
  0.6886406283546724  0.7546667299580433  0.9788486680787092
  0.0087101046145270  0.5342992976814612  0.3634762387681529
  0.0148835393098599  0.9948312102295912  0.3686498921127689
  0.4769896008070701  0.7635162063810663  0.0250961939967994
  0.5012186697283463  0.5350711217150381  0.4168147650821924
  0.2187444233073049  0.7824552614518472  0.6063759590971228
  0.2701526227966568  0.7546372030340525  0.2498675049819233
  0.5122722230445912  0.2728255509026180  0.7567344914366667
  0.0303590823524815  0.0276151433805695  0.8574641935605229
  0.2580868511358823  0.2473943322015532  0.3801170460788399
  0.6990623423473465  0.8106418113635717  0.8368796376560419
  0.4581563735724346  0.2699511379373216  0.2599382512924664
  0.0015646740954376  0.5276672285292587  0.7554462771566869
  0.6986429975561902  0.9992582570935727  0.1381203580712133
  0.9644691740125220  0.0214443584679598  0.1151839442518515
  0.4931758982193953  0.5106448461092268  0.7707521049960507
  0.2739153744887758  0.0488875878191253  0.8629312775869501
  0.0262483529128066  0.5553733745392544  0.2428534742311366
  0.4647515953298403  0.5215781359444756  0.1289714455568005
  0.7547324842724817  0.7763992703496237  0.5183929904613809
  0.0127075741192719  0.7794714319218211  0.4806720117775716
  0.7185771350842474  0.2349296284756691  0.2218429006205682
  0.9902895555597163  0.0310437232489655  0.6346145996443076
  0.5239093845887665  0.5283140590869511  0.2638981496775892
  0.2223388880073153  0.5771715090022009  0.6475878167984510
  0.4844605552539557  0.7712906772295985  0.2527238778390472
  0.2055619084943817  0.0095100678788779  0.6069367647518025
  0.9631496575487434  0.5490425061966613  0.0163602639736837
  0.6634462734393419  0.2638392474651839  0.3775763395044646
  0.4866444389994461  0.7595476819428735  0.7310073618589710
  0.9687333994915375  0.2814854109757435  0.9906959901557444
  0.5023655078828062  0.3093700464654916  0.5042295819195119
  0.4961916236731058  0.5109689055303989  0.8758145752001828
  0.0310878439725688  0.2772853768767129  0.5272528332967858
  0.9089068647777390  0.7709702134479942  0.0162892087746447
  0.5014802612706942  0.7327619332622749  0.5157339122063033
  0.2398620712225724  0.2874100748973351  0.1080556073230643
  0.7335602074084053  0.7504404753508456  0.6716752856345667
  0.9918514492179855  0.0699798408943801  0.2639830388052127
  0.2088277631724735  0.8019437436825281  0.8710155908536987
  0.4516095212310413  0.5584901181547369  0.0039401311888911
  0.7891461113846265  0.2652600481963962  0.7478685433182998
  0.7093517800170785  0.7414386983957506  0.2683770038885515
  0.5143004146611786  0.2497115747418599  0.9793095321637234
  0.0176493802321470  0.2832646322136291  0.2402626260927262
  0.9887310489032021  0.7730065632426836  0.7640960136758878
  0.2183624973612696  0.9946435219482967  0.1153201341118539
  0.7633687319545962  0.2342092417601222  0.6306770645770621
  0.7145504550194492  0.2317584199430326  0.8715655450100382
  0.2155914714669840  0.7654644292146432  0.7578257327751685
  0.0519181716437162  0.5030652497761369  0.1480036124134785
  0.4904887964400652  0.0201909931819751  0.3749879076844003
  0.9718341633380438  0.7845049060344488  0.2589838811836703
  0.7407219853951816  0.2512362073861598  0.5148707444741378
  0.2673204863056465  0.5639473577886155  0.8851929167215462
  0.2373780533490155  0.9966951379353299  0.3620357152715011
  0.0015665284681011  0.4906661291160111  0.6342485965423357
  0.0129382652187328  0.0219175942198556  0.9957744678716274
  0.7259943524820242  0.9828326178936093  0.6399266095020999
  0.7363404303459368  0.5170417010717723  0.1165794564960284
  0.4875618756268611  0.9826426256676527  0.7494654378429516
  0.0166947014843170  0.4794145758832297  0.4966062282918025
  0.2419791536562134  0.9765463604964363  0.2354799319784395
  0.7446333539137345  0.5233511279487921  0.7470648925799476
  0.2336953969110674  0.9934454760266842  0.7374651178307392
  0.7662798630505752  0.5034889997367598  0.2342237822463461
  0.2593359734846230  0.0229023025797957  0.9915587199155277
  0.7415716853874568  0.4994273947520851  0.4958100386627233
  0.2579819416201160  0.0309018321256434  0.4877437158773657
  0.7327008387058650  0.4944525972419699  0.9846216593613052
  0.7786876902560443  0.0084973402159769  0.7581020884440789
  0.2601369835280838  0.5202318909859230  0.2717763188860759
  0.2663606102443962  0.5208046790214478  0.7666276714725013
  0.7264366604102031  0.0001174004613990  0.2659589804790178
  0.2553356823246375  0.5260534742975838  0.5120614415930324
  0.7490934691785930  0.0019388601772939  0.0234125190585249
  0.7280792913142025  0.9945506478666245  0.5157630745794474
  0.2218899259664462  0.5379302321038045  0.0154159460490771
  0.9977844235807265  0.2553027136393147  0.3793754515261236
  0.4702816239262778  0.7635051570614350  0.8799499827697065
  0.5152581948640280  0.2751207009847731  0.6297774758097213
  0.9983979106559517  0.7704743314547260  0.1317078720974212
  0.0294021407386220  0.2849585605293650  0.8769409281595385
  0.4724373582595152  0.7605645667771963  0.3866518332255135
  0.9942709071414940  0.7751601454559095  0.6165389783768351
  0.4906131205943582  0.2596154521365636  0.1297192795009390
  0.1081921405848616  0.4344151594175030  0.0551159566895773
  0.6096296124204391  0.9103294440997689  0.5625073864170541
  0.6544030498991741  0.1094658998696137  0.9609882858221290
  0.1425294423038221  0.6328872793185520  0.4623819777495381
  0.3217392569304949  0.4427434083002310  0.9524138823715592
  0.8366731520670534  0.9081501040699327  0.4560650623411890
  0.8537868536327128  0.1242284405794707  0.0613874490004607
  0.3235809844921084  0.6332795863119441  0.5717936012892915
  0.8347971408213274  0.0859230271476458  0.2041627277462615
  0.3430488930626706  0.6382582554628325  0.7145663812407878
  0.8431108393027902  0.9206935995411875  0.3206802373055684
  0.3777082331323028  0.4068801003348603  0.8150653636694470
  0.1464801092438841  0.6339809865036024  0.3105255001861449
  0.6588538841547034  0.1089085877166342  0.7994109393813114
  0.1573245776826764  0.4185468016132921  0.2268605382667470
  0.6535381926485195  0.8790618582404357  0.7347076338756385
  0.8216543160340016  0.6109103354048224  0.9423935594528791
  0.3686412047552052  0.1179707596476938  0.4260825273266163
  0.8367995403702597  0.3940193715216755  0.5537429488131831
  0.3426150377408607  0.9027577394837070  0.0459142149907007
  0.1790644892443253  0.1591688105604319  0.5229509302391643
  0.6161848420344692  0.5874700967516121  0.0366957085632956
  0.1676390516978440  0.9549731303146424  0.9278691536769658
  0.6427001926457816  0.3965504380123346  0.4458635927555940
  0.6836614864974723  0.3712029573878198  0.2827674347641841
  0.1181556601398432  0.9146336009822666  0.7856594871540973
  0.1711697561171949  0.1283271637586699  0.6772547277643077
  0.6346075493383608  0.5933531058341962  0.1826431129981699
  0.8616690223433551  0.4326826458150146  0.6958632804797276
  0.3440528599362591  0.8753956439211076  0.1792421050138839
  0.3273542907878027  0.0969478201934806  0.2862269746765690
  0.8382022588659960  0.6280824188297207  0.7947673320648555
  0.1520879847175606  0.1417407812266623  0.0354503624003274
  0.6401038905269224  0.6075583301818137  0.5454026798834456
  0.6216704273370437  0.3814502821117592  0.9319553290336803
  0.1544170355973039  0.9107161735586399  0.4450146713437752
  0.3891707107364661  0.1200236915966185  0.9443749257773754
  0.8481660701006993  0.5748303988220802  0.4360079433944303
  0.8262108849085799  0.4037099082169006  0.0438781871828466
  0.3539742438699809  0.9403133574895097  0.5458606974654899
  0.1195167364131697  0.0779120909939630  0.1911426991162437
  0.6214911992604568  0.5955115515775311  0.7002028005958428
  0.1492112391906854  0.8799917563739822  0.2937056398645486
  0.6551301695787790  0.3888437080564369  0.7926003886255584
  0.8640939840098949  0.6122531718128916  0.2898545598279658
  0.3589831362594425  0.1068860284443792  0.7805011391795329
  0.8887829552623856  0.4117048229063636  0.1894808635211538
  0.3117207381921270  0.8702380676931644  0.6848555680793799
  0.8444935166587728  0.9134440730124037  0.9668915637348748
  0.3396816515533794  0.4211697865186071  0.4541115454476722
  0.8465571692871030  0.0883429938161033  0.5592374856273457
  0.3510970029692013  0.6201129008038038  0.0664024607838194
  0.1517267869310691  0.4140466878815075  0.5641121462285544
  0.6186075574906362  0.9061462538703594  0.0652679941518808
  0.1207740381610476  0.6545369569440680  0.9647796239748153
  0.6490853798053052  0.1121758346228277  0.4614777117301915
  0.3781447987551386  0.4166864532222553  0.3169016050940737
  0.8772365623878081  0.8922668955020048  0.8188500318414313
  0.8541901793578828  0.1019015850441233  0.6964114051072355
  0.3594548348043010  0.6136703269855071  0.2095266433789762
  0.1763780282939490  0.4159158994763043  0.7122073768623629
  0.6277025205371889  0.8853642680899747  0.2194392466429233
  0.6214746813806955  0.1142271953554244  0.3044182881832566
  0.1326222897399548  0.6134437846381509  0.8128428609797659
  0.1069766729376451  0.1646984931574158  0.3339535343036987
  0.5433531375331386  0.6818137832925466  0.8346587777792214
  0.5790415128506777  0.1562392826345557  0.6682757857113051
  0.9266063283684733  0.6475613629021459  0.1034258567376379
  0.4165302197723516  0.3557869319554965  0.6715714156078967
  0.8983388999607989  0.8552373714899579  0.1639359522015362
  0.8827217697505274  0.2766988546705313  0.3277214888778617
  0.4034129573439936  0.8602123600668237  0.8332859489666443
  0.1014971180338759  0.3898605941141042  0.9175722784652913
  0.3867736430963807  0.6706216477132229  0.4327002544259339
  0.0708710218957942  0.8597287756671125  0.5684581677548555
  0.5977587145176727  0.3608698058915599  0.0968205074003944
  0.9178208442652656  0.6722707677274797  0.5695042243501274
  0.4010840264234149  0.1808417930780075  0.0769214879706664
  0.9473570860057760  0.3584105924652716  0.8264372580531507
  0.3912130571663220  0.8486507435447841  0.3326654857270307
  0.8869304515485419  0.8554814118147903  0.6571965971604122
  0.4148433096590105  0.3542686823139076  0.1753356051948056
  0.9244240258506390  0.1891758586345803  0.9125033491154818
  0.5791355747379614  0.6813748927863328  0.3412096299240051
  0.1426833618529293  0.2069829134436391  0.8383084418851482
  0.5528458622266760  0.8469286855836516  0.4360385626353088
  0.0719245997779496  0.7002627898729854  0.6714094355020588
  0.5701059743278781  0.1461557999781344  0.1715461936469352
  0.6207381884993659  0.3446867666760555  0.5963449138628381
  0.0817290034934970  0.7120281047733223  0.1907054400036790
  0.9511164067732530  0.1814377887384594  0.4408313595483234
  0.3803041814351646  0.6890459820644395  0.9254479341203957
  0.0786169965918705  0.3748924929629370  0.4062164446958010
  0.5810476344232900  0.8439729941163026  0.9219831018825169
  0.4405124268466131  0.1885539513649627  0.5799506030618438
  0.0827969153359081  0.8314506224762281  0.0795344621972197
 
  0.80383857E-02 -0.58179412E-02  0.88594034E-02
 -0.23321352E-02  0.41084592E-02  0.14104404E-03
  0.14015229E-03 -0.35866506E-02  0.29244361E-02
 -0.51408472E-02 -0.20919234E-02 -0.13723527E-01
 -0.43103547E-02  0.29939311E-02  0.30337246E-02
 -0.58928354E-02 -0.63350651E-02  0.34874988E-02
  0.22678322E-02 -0.59216297E-02  0.25500095E-02
 -0.43020999E-02 -0.14189643E-02  0.28018659E-02
 -0.26293316E-02 -0.69141568E-02  0.10249391E-01
 -0.28262891E-04 -0.13271351E-01  0.22771859E-02
  0.41408553E-02 -0.24002723E-02  0.79350747E-02
  0.32936550E-02 -0.21316467E-02  0.16413807E-02
 -0.83666181E-02  0.58571722E-02 -0.57375272E-02
  0.44530044E-03  0.31231737E-02 -0.52904413E-03
  0.12197286E-01 -0.36720305E-03 -0.27855933E-02
  0.31377066E-02 -0.10264093E-01  0.39807172E-02
 -0.49233921E-02  0.45448583E-02 -0.36218009E-02
  0.68786255E-02  0.75569835E-02  0.16400108E-02
 -0.79663555E-02 -0.10522833E-02  0.33684873E-02
  0.13928519E-02  0.11571421E-01  0.11531585E-01
 -0.47885399E-03 -0.50917093E-02 -0.55681068E-02
 -0.85547307E-02  0.74385807E-02  0.14536859E-02
  0.41946461E-03 -0.94272226E-03 -0.53795740E-03
 -0.40695060E-02 -0.66677534E-03  0.34317490E-02
 -0.76088283E-02 -0.52198185E-02  0.11133072E-01
 -0.64614636E-03  0.14840974E-02 -0.63087258E-02
  0.92852294E-02 -0.62346161E-02 -0.37716687E-02
  0.49576656E-02  0.11910708E-01 -0.24228300E-02
  0.49171038E-02  0.10639022E-02  0.10727484E-02
 -0.51138224E-02  0.89119630E-03 -0.86874655E-02
  0.10752394E-02 -0.59176116E-04 -0.17906223E-02
 -0.73350796E-02 -0.99955154E-02 -0.71143419E-02
 -0.47785045E-02  0.73526922E-02 -0.94220134E-02
  0.19974075E-02  0.71642063E-02 -0.18148937E-02
  0.47960618E-02 -0.25198207E-02 -0.17352429E-02
  0.41325529E-03  0.88520326E-02  0.40233749E-02
  0.54902151E-02 -0.44741647E-02  0.10377230E-02
 -0.60492996E-02  0.22187094E-03 -0.13401969E-01
 -0.13347086E-03  0.48076462E-02 -0.43764171E-02
  0.27998881E-02  0.80585003E-02  0.44518841E-02
 -0.52713986E-02 -0.62065617E-02 -0.48472767E-02
  0.67013110E-02  0.45582429E-02 -0.29207331E-02
  0.54068033E-03 -0.54358701E-03 -0.13563157E-02
 -0.59063192E-02  0.95544353E-02  0.69680645E-03
  0.46265132E-02  0.10669875E-01 -0.30517007E-02
  0.19457439E-02 -0.87893168E-02 -0.43773417E-02
 -0.75452979E-02 -0.44872531E-02  0.36960512E-03
 -0.30950314E-02  0.13033083E-02 -0.11233675E-01
  0.71014697E-02  0.40192691E-02 -0.81440954E-02
  0.51507067E-02  0.30663247E-02 -0.68061746E-02
  0.11910250E-01 -0.68433435E-02  0.10167121E-01
  0.84878602E-03 -0.32316586E-02  0.75612758E-02
 -0.10693120E-01  0.37605981E-02 -0.52240233E-02
  0.10929252E-01 -0.52239885E-02  0.57406447E-02
 -0.33262534E-02  0.96012509E-02  0.41021439E-02
 -0.14475249E-02 -0.22007781E-02 -0.65268786E-02
 -0.46924679E-02 -0.55885384E-02  0.14669541E-02
 -0.66284771E-02  0.25372500E-02  0.98159279E-02
 -0.46490159E-02 -0.19330333E-02 -0.54457063E-02
 -0.52587437E-02 -0.26622674E-02 -0.33765230E-02
  0.36488179E-02  0.65354459E-02 -0.31942848E-02
  0.77637426E-02  0.27149744E-02 -0.34748283E-03
  0.32944513E-02 -0.77881350E-02 -0.33265364E-02
 -0.21466935E-02  0.16333345E-02  0.11775504E-02
 -0.68444664E-03  0.23910626E-02  0.58942927E-02
 -0.55972426E-02  0.22955497E-03 -0.39687967E-02
  0.86433449E-03  0.12501767E-02 -0.79321535E-06
 -0.25530668E-02 -0.64120813E-02  0.12916970E-02
 -0.89930940E-02 -0.32726902E-02  0.97155095E-02
  0.30929354E-02  0.19755963E-02 -0.27163773E-02
 -0.11358151E-01 -0.60930182E-02 -0.60336296E-02
 -0.15765996E-02  0.75862606E-02 -0.19685238E-02
 -0.41455734E-02 -0.50227149E-02  0.11066529E-01
  0.34422102E-02  0.19057119E-03  0.81030422E-02
 -0.74388831E-02  0.88199403E-02 -0.21920854E-02
 -0.13041312E-03  0.40477237E-02  0.36522453E-02
 -0.57667448E-02  0.91115322E-04 -0.40961523E-02
  0.55165090E-02  0.12006259E-01 -0.46681727E-03
  0.97724133E-02 -0.25778439E-03 -0.11500081E-01
  0.86241224E-02 -0.44557442E-02 -0.17642061E-02
 -0.43664127E-02  0.33279697E-03  0.44622817E-03
  0.27466350E-02 -0.72005015E-02 -0.68324167E-03
 -0.10242519E-01 -0.26848239E-02 -0.55877275E-03
  0.26763337E-05  0.27018061E-02  0.93770207E-02
 -0.14414886E-02 -0.82158820E-03  0.89420748E-03
 -0.80367570E-02  0.29608495E-02 -0.79682112E-02
 -0.19305439E-02  0.29743929E-02  0.36921237E-02
  0.39976997E-02  0.39363686E-02  0.33015853E-02
 -0.60679883E-02  0.10656292E-02 -0.15036313E-02
  0.14436588E-02 -0.31809957E-02  0.27119294E-02
 -0.17447770E-02  0.30695328E-02  0.40376925E-04
  0.12018922E-02 -0.21838811E-02  0.91123351E-03
 -0.61893867E-02 -0.19024712E-04 -0.83037291E-03
 -0.57534360E-02 -0.19631822E-02 -0.47302887E-03
 -0.35418652E-02 -0.21481235E-02 -0.30126214E-03
 -0.23572151E-02  0.36299493E-02  0.45690546E-02
  0.14430822E-02 -0.64261733E-03  0.12239458E-02
 -0.29536609E-02  0.37910462E-03  0.70399132E-03
  0.17243871E-02  0.14590309E-02 -0.16423274E-02
  0.26105173E-02 -0.55194942E-02 -0.33645779E-03
  0.14531714E-02 -0.29442642E-02  0.53004311E-03
 -0.45364506E-02 -0.31669818E-02  0.53307794E-03
  0.72607510E-03  0.62885802E-04 -0.16548629E-02
  0.23144704E-02 -0.13394813E-02  0.95440423E-03
 -0.52901225E-02 -0.39310961E-02  0.10538832E-04
  0.44529454E-02 -0.38276551E-02  0.13907721E-01
 -0.33255658E-02 -0.18993516E-02  0.49831220E-03
 -0.42385378E-02 -0.12608309E-01  0.60123704E-02
  0.31117113E-02 -0.37003332E-02  0.15231149E-01
  0.87861396E-03 -0.86077390E-02  0.10376275E-01
 -0.13671699E-02 -0.83174644E-03 -0.54726417E-02
 -0.16099310E-02  0.25436509E-02 -0.85363398E-02
  0.12552219E-01  0.53882026E-02  0.36801982E-03
  0.36052095E-02  0.17465220E-02 -0.52448335E-02
  0.43797564E-02 -0.69867670E-03  0.60111158E-02
  0.80819295E-02  0.46456238E-02 -0.30417047E-02
 -0.46487394E-03  0.33705398E-02  0.79094962E-02
  0.84524429E-02 -0.19718752E-03  0.36268237E-02
 -0.35406609E-02  0.59075948E-02  0.40207255E-02
 -0.21509370E-02  0.26319505E-02  0.35603347E-02
 -0.30493865E-02  0.28983429E-02  0.11064025E-02
  0.24121064E-02  0.67305781E-02  0.28260400E-02
 -0.34711421E-02  0.12870676E-03  0.42054901E-02
 -0.35350837E-02 -0.25617732E-02  0.46410060E-02
 -0.35827796E-02  0.89199473E-02  0.27371188E-03
  0.12297861E-02  0.46819282E-02 -0.61736310E-02
  0.57050614E-02  0.51879265E-02  0.10619673E-03
  0.77225478E-02 -0.27122428E-02  0.94082676E-03
  0.10566922E-02 -0.33238513E-02  0.43769588E-02
  0.16051246E-02  0.87345049E-02 -0.11797939E-02
  0.74913560E-02  0.68367184E-02 -0.58067727E-02
  0.44013136E-02  0.34471326E-02 -0.66029797E-02
  0.40869553E-03  0.60187014E-02 -0.83135259E-03
 -0.22472119E-02  0.18169984E-02  0.26197240E-02
 -0.33904204E-02 -0.17534699E-02 -0.11492083E-02
  0.18016379E-02 -0.12358957E-02 -0.79422196E-02
 -0.14632490E-02  0.12103008E-03 -0.58990293E-02
 -0.29411098E-02  0.32091539E-02 -0.23705368E-02
  0.12224982E-01  0.42982440E-02  0.74873297E-03
  0.73212236E-02  0.11282512E-02 -0.43605010E-02
 -0.31490327E-02 -0.27112382E-02 -0.87057219E-03
  0.26229037E-02  0.79233055E-03 -0.24186458E-02
 -0.51012226E-02  0.24913709E-02  0.29506150E-02
  0.95568419E-02 -0.58771024E-02 -0.41393805E-02
 -0.15923782E-02 -0.23318275E-02  0.86158575E-02
 -0.19489651E-02  0.11729958E-02  0.52196261E-02
 -0.63142507E-02 -0.59704012E-02 -0.17931848E-02
  0.12784522E-02 -0.48280272E-02  0.86934592E-02
 -0.10528303E-02 -0.79397952E-02 -0.11261440E-02
  0.55765353E-02  0.98617245E-03 -0.55809858E-03
 -0.37141442E-02 -0.75739149E-02  0.12628460E-02
  0.33183618E-02  0.14627538E-02 -0.84402038E-03
  0.33728607E-02  0.54381718E-02  0.38121192E-02
  0.77960710E-03  0.82346190E-03 -0.21289515E-02
 -0.15991356E-03  0.40798132E-02  0.23736599E-02
  0.37717636E-02 -0.27093796E-02 -0.71239634E-02
  0.45432990E-02 -0.60617583E-02 -0.42752887E-02
  0.21201658E-02 -0.34064724E-02 -0.10595306E-01
 -0.73952524E-02 -0.22716053E-02 -0.80738984E-02
 -0.63406270E-02 -0.21517103E-02 -0.97942449E-03
  0.12583060E-01  0.19712962E-03  0.57093595E-02
  0.66125339E-03  0.31565782E-02 -0.41010781E-02
  0.12708385E-03 -0.13314942E-02 -0.30540851E-02
 -0.49685210E-02  0.44883729E-02  0.26868151E-02
 -0.16183179E-02 -0.48384216E-02 -0.45629630E-02
  0.99570663E-03  0.94031430E-03 -0.32043509E-02
 -0.60004710E-02  0.32146202E-02 -0.62287880E-02
  0.75281315E-02  0.51199136E-02 -0.54086276E-02
  0.47170703E-02  0.56163768E-02  0.54768925E-03
  0.47853669E-02  0.27090952E-02 -0.43678857E-02
  0.16881576E-03 -0.16446019E-02 -0.68157921E-02
  0.35275099E-02  0.91169022E-04 -0.22953841E-02
 -0.76643704E-02 -0.46396137E-02 -0.18995822E-03
  0.21856358E-03 -0.71913434E-02  0.49833305E-02
 -0.59445457E-02  0.17725104E-02 -0.56439778E-02
 -0.54059526E-02 -0.32563778E-02  0.35443178E-02
 -0.21401804E-02  0.48612902E-03  0.15098329E-02
  0.35553415E-02  0.35917293E-02  0.25465879E-02
  0.35165011E-02 -0.50525671E-02  0.50116394E-02
 -0.35334605E-02 -0.11011691E-01 -0.98995592E-02
  0.22004680E-02 -0.33427519E-02 -0.47794567E-03
  0.42844648E-02  0.34528065E-02  0.55945679E-03
 -0.65470536E-02 -0.88812786E-02 -0.20300448E-03
 -0.19575892E-02  0.84094705E-03 -0.23775108E-02
 -0.37020403E-03  0.93957074E-02  0.38195042E-02
  0.43640688E-02  0.37757914E-02  0.26769947E-02
 -0.44708804E-03  0.10488495E-01 -0.77216799E-02
  0.60989122E-02  0.25792720E-02  0.50420099E-02
  0.38411326E-02 -0.70732391E-02  0.22113867E-02
  0.95791752E-02 -0.57917546E-03 -0.30853162E-02
 -0.17707883E-02  0.47597689E-02  0.69822684E-02
 -0.97394066E-03 -0.24115349E-02  0.23425132E-02
 -0.22887247E-03  0.35029525E-03 -0.24085171E-02
 -0.48228648E-03  0.27876507E-02  0.55024243E-02
 -0.25002182E-02  0.60773939E-02  0.10500578E-03
 -0.23953659E-02  0.23313760E-02 -0.26589406E-02
  0.97605028E-03  0.37875085E-02 -0.16619959E-02
 -0.52341248E-03  0.20219857E-02 -0.19200832E-02
  0.11940554E-02  0.62816008E-03 -0.62991716E-02
  0.30136674E-02 -0.25480850E-02  0.43044109E-02
  0.91879654E-02  0.14894810E-02 -0.10090318E-02
 -0.18495855E-02 -0.11655557E-02  0.77233483E-02
  0.27304983E-02  0.51161410E-03  0.16741231E-02
  0.10202359E-01  0.97596761E-02 -0.74269426E-02
  0.92598080E-03 -0.53771382E-02 -0.95277509E-03
  0.79660359E-02 -0.25288138E-02 -0.26663774E-02
 -0.31004220E-02 -0.80069113E-03 -0.49332983E-02
  0.49526926E-02  0.42396659E-02  0.76809723E-02
 
           1
   2.00000000000000     
  0.89789205E+00  0.11014029E-02  0.00000000E+00  0.00000000E+00
  0.47373151E+00  0.13849707E-02  0.12849738E+00
  0.49693160E+00  0.32825553E-01  0.49237452E+00
  0.75320092E+00  0.48368344E+00  0.85443746E+00
  0.78749167E+00  0.57595869E-01  0.38922013E+00
  0.23850209E+00  0.26797006E+00  0.94501735E+00
  0.23884994E+00  0.76367319E+00  0.38041977E+00
  0.70183263E+00  0.76108213E+00  0.12617903E+00
  0.28361728E+00  0.26380682E+00  0.23343547E+00
  0.27130298E+00  0.28282848E+00  0.76999547E+00
  0.68898440E+00  0.24808518E+00  0.44372496E-01
  0.72899035E+00  0.82043324E+00  0.38547587E+00
  0.51118921E+00  0.32555351E-01  0.88506068E+00
  0.48613901E+00  0.24094988E-01  0.65208335E-02
  0.45564789E+00  0.52747095E+00  0.62530837E+00
  0.76557260E+00  0.12558310E-01  0.88891526E+00
  0.72862247E+00  0.52126633E+00  0.36325267E+00
  0.29713803E-01  0.29732425E-01  0.49104701E+00
  0.25227265E+00  0.26503760E+00  0.60402094E+00
  0.24614896E+00  0.71611973E+00  0.12240493E+00
  0.96962590E+00  0.55828499E+00  0.89119771E+00
  0.47610862E+00  0.99704676E+00  0.24606434E+00
  0.23198712E+00  0.50824829E+00  0.39570566E+00
  0.44559211E+00  0.18523747E-01  0.62884711E+00
  0.78654126E+00  0.52195149E+00  0.61159954E+00
  0.25272080E+00  0.75944826E+00  0.99507009E+00
  0.42568808E-01  0.23206366E+00  0.75211802E+00
  0.69001812E+00  0.75374180E+00  0.97856890E+00
  0.94455906E-02  0.53606629E+00  0.36329652E+00
  0.15613008E-01  0.99498904E+00  0.36872946E+00
  0.47623095E+00  0.76364842E+00  0.24451787E-01
  0.50137819E+00  0.53506234E+00  0.41668194E+00
  0.21765624E+00  0.78097239E+00  0.60584824E+00
  0.26944372E+00  0.75572800E+00  0.24916861E+00
  0.51256855E+00  0.27388838E+00  0.75659987E+00
  0.31070594E-01  0.27241320E-01  0.85733548E+00
  0.25814816E+00  0.24870756E+00  0.38041549E+00
  0.69987683E+00  0.80997805E+00  0.83695661E+00
  0.45725894E+00  0.26998405E+00  0.25894414E+00
  0.15448733E-02  0.52838046E+00  0.75512165E+00
  0.69905837E+00  0.45376209E-03  0.13845058E+00
  0.96368714E+00  0.20523595E-01  0.11482439E+00
  0.49417006E+00  0.51132108E+00  0.77053545E+00
  0.27399559E+00  0.48806945E-01  0.86283067E+00
  0.25372131E-01  0.55679081E+00  0.24290516E+00
  0.46543795E+00  0.52316105E+00  0.12874508E+00
  0.75502114E+00  0.77509535E+00  0.51806829E+00
  0.11588204E-01  0.77880573E+00  0.48069943E+00
  0.71811798E+00  0.23512298E+00  0.22100962E+00
  0.99134308E+00  0.31639995E-01  0.63401050E+00
  0.52467351E+00  0.52876896E+00  0.26339329E+00
  0.22410581E+00  0.57615628E+00  0.64834198E+00
  0.48458648E+00  0.77081125E+00  0.25328475E+00
  0.20397555E+00  0.10067965E-01  0.60654926E+00
  0.96477105E+00  0.54826751E+00  0.16786086E-01
  0.66295281E+00  0.26526362E+00  0.37788062E+00
  0.48642969E+00  0.75922119E+00  0.73052322E+00
  0.96803726E+00  0.28065633E+00  0.99080480E+00
  0.50138215E+00  0.30974646E+00  0.50495769E+00
  0.49550193E+00  0.51068213E+00  0.87541063E+00
  0.30307692E-01  0.27689042E+00  0.52700237E+00
  0.90944818E+00  0.77193977E+00  0.16052267E-01
  0.50263204E+00  0.73316471E+00  0.51570814E+00
  0.24035081E+00  0.28625468E+00  0.10780886E+00
  0.73324174E+00  0.75068279E+00  0.67176263E+00
  0.99174991E+00  0.70334563E-01  0.26442026E+00
  0.20799739E+00  0.80197780E+00  0.87072120E+00
  0.45173775E+00  0.55867559E+00  0.39400724E-02
  0.78876736E+00  0.26430879E+00  0.74796436E+00
  0.70801762E+00  0.74095318E+00  0.26909767E+00
  0.51475926E+00  0.25000466E+00  0.97910804E+00
  0.15964361E-01  0.28236071E+00  0.23981507E+00
  0.98849716E+00  0.77413201E+00  0.76395000E+00
  0.21774749E+00  0.99389839E+00  0.11614101E+00
  0.76387940E+00  0.23423751E+00  0.63127812E+00
  0.71344687E+00  0.23306689E+00  0.87140294E+00
  0.21557212E+00  0.76606492E+00  0.75809664E+00
  0.51062656E-01  0.50307877E+00  0.14769977E+00
  0.49130719E+00  0.21972161E-01  0.37495328E+00
  0.97328393E+00  0.78446666E+00  0.25813084E+00
  0.74200140E+00  0.25057518E+00  0.51473988E+00
  0.26667271E+00  0.56399673E+00  0.88522602E+00
  0.23778553E+00  0.99562692E+00  0.36198503E+00
  0.47017103E-04  0.49026783E+00  0.63420715E+00
  0.12938662E-01  0.22318416E-01  0.99647002E+00
  0.72578050E+00  0.98271073E+00  0.63999294E+00
  0.73514815E+00  0.51748095E+00  0.11598840E+00
  0.48727547E+00  0.98308389E+00  0.74973931E+00
  0.17287773E-01  0.47999855E+00  0.49685113E+00
  0.24107895E+00  0.97670445E+00  0.23536840E+00
  0.74484753E+00  0.52287922E+00  0.74726605E+00
  0.23343655E+00  0.99390085E+00  0.73746811E+00
  0.76645817E+00  0.50316501E+00  0.23429137E+00
  0.25841776E+00  0.22899480E-01  0.99149713E+00
  0.74071814E+00  0.49913615E+00  0.49577495E+00
  0.25745649E+00  0.30583151E-01  0.48772137E+00
  0.73235114E+00  0.49499111E+00  0.98496058E+00
  0.77890178E+00  0.84020058E-02  0.75819288E+00
  0.25969880E+00  0.52028813E+00  0.27182854E+00
  0.26661643E+00  0.52102113E+00  0.76650585E+00
  0.72682394E+00  0.99929857E+00  0.26593402E+00
  0.25555127E+00  0.52561668E+00  0.51210076E+00
  0.74842047E+00  0.14690280E-02  0.23452061E-01
  0.72818701E+00  0.99455998E+00  0.51564032E+00
  0.22223329E+00  0.53773152E+00  0.15486741E-01
  0.99699962E+00  0.25471952E+00  0.37937623E+00
  0.47094223E+00  0.76293731E+00  0.88098161E+00
  0.51476484E+00  0.27483893E+00  0.62981444E+00
  0.99776911E+00  0.76860385E+00  0.13215385E+00
  0.29863773E-01  0.28440960E+00  0.87807072E+00
  0.47256770E+00  0.75928758E+00  0.38742151E+00
  0.99406808E+00  0.77503675E+00  0.61613304E+00
  0.49037428E+00  0.25999281E+00  0.12908608E+00
  0.11005430E+00  0.43521452E+00  0.55143255E-01
  0.61016446E+00  0.91058855E+00  0.56211834E+00
  0.65505280E+00  0.10936225E+00  0.96143417E+00
  0.14372842E+00  0.63357647E+00  0.46215635E+00
  0.32167029E+00  0.44324344E+00  0.95300058E+00
  0.83792710E+00  0.90812085E+00  0.45633409E+00
  0.85326158E+00  0.12510485E+00  0.61685693E-01
  0.32326189E+00  0.63367004E+00  0.57205769E+00
  0.83434475E+00  0.86353006E-01  0.20424480E+00
  0.34340674E+00  0.63925676E+00  0.71477601E+00
  0.84259588E+00  0.92071269E+00  0.32099219E+00
  0.37718379E+00  0.40650005E+00  0.81540962E+00
  0.14594859E+00  0.63530429E+00  0.31054580E+00
  0.65903633E+00  0.10960317E+00  0.79895300E+00
  0.15817094E+00  0.41931645E+00  0.22686842E+00
  0.65468386E+00  0.87865949E+00  0.73477742E+00
  0.82181108E+00  0.61041723E+00  0.94271823E+00
  0.36887933E+00  0.11926655E+00  0.42599501E+00
  0.83791091E+00  0.39503362E+00  0.55331222E+00
  0.34326799E+00  0.90326913E+00  0.45424428E-01
  0.17912512E+00  0.16006170E+00  0.52288926E+00
  0.61585146E+00  0.58773965E+00  0.36890031E-01
  0.16713607E+00  0.95471300E+00  0.92778391E+00
  0.64296747E+00  0.39636709E+00  0.44527447E+00