Na88 Ge16 P8 Se96                       
   1.00000000000000     
    13.9614333504000001    0.0000000000000000    0.0000000000000000
     0.0000000000000000   13.9614333504000001    0.0000000000000000
     0.0000000000000000    0.0000000000000000   27.9228667008000002
   Na   Ge   P    Se
    88    16     8    96
Direct
  0.9454187676090747  0.2373404338275252  0.0000183654371873
  0.5070571437725100  0.4897725118632262  0.5079356270599990
  0.5109776052870092  0.1322234421118380  0.0180130796283060
  0.0267712749283450  0.9741641468665503  0.0255352668615974
  0.2830914244553586  0.7447302733004147  0.8898814213048921
  0.9957798452540695  0.5469360462429904  0.3928531724739391
  0.2107852489794392  0.4975096713645953  0.1480623253743563
  0.2352678507443592  0.2420241325532822  0.1125384441328910
  0.7723086135659564  0.7681566182641972  0.6067505203908085
  0.7495285699631291  0.2625526835804279  0.8780590347625312
  0.7587447037947049  0.2472872470903784  0.3129076019486174
  0.2189735400592646  0.2379940343342012  0.9725713187707919
  0.7685909819587242  0.2460872029650834  0.1241991519825270
  0.2683039110086770  0.7503773956653663  0.6285187072038734
  0.2896877106076450  0.2217156171181451  0.7246184174391156
  0.4641791317194086  0.5110089620192635  0.3727945582631824
  0.2707886674175795  0.0416137072932281  0.6167123397370742
  0.0241980794568037  0.4739401203802985  0.6299508189552575
  0.5140062846486291  0.9882417566590569  0.1366229171999034
  0.0545776592489336  0.5020026101220446  0.8711952908616689
  0.4498952049751345  0.0168284368675772  0.3763127431702684
  0.2161947590199077  0.2843561632938100  0.3771521902543569
  0.7593311453110886  0.7301622887939655  0.8491531410324964
  0.7366652082223201  0.2254880588160356  0.6154730618803674
  0.2557651429853111  0.7538655949388330  0.0086612990218481
  0.0175528740685086  0.2143907041064982  0.7439512166784648
  0.7396446325429372  0.7538654252300064  0.1184227592767604
  0.9600661047113473  0.2593742334093790  0.2701131550503448
  0.5231028827066089  0.7994597610979908  0.4950660408758495
  0.4952509091263583  0.9992395460118849  0.8915916502559027
  0.9864935414139460  0.4819187337478630  0.5049754519849324
  0.5314337490627096  0.4948265996612554  0.7475572655474925
  0.9972192418359217  0.7439708937908612  0.2617954742662843
  0.5250170323914191  0.2793147221785857  0.7519891617438573
  0.9929623525259305  0.9685467154473401  0.8758009385106074
  0.5006961887454627  0.9851585622784644  0.6030919479372195
  0.4990441725978005  0.4957791373100635  0.0229213785478445
  0.2098056984543606  0.2575053051721594  0.2712089058625728
  0.0003188757246899  0.9908573745599750  0.7463587133398011
  0.5025193032887507  0.7666226434801638  0.2469472836004374
  0.7703154260470942  0.0168502622206966  0.1321149248211637
  0.5164369788182257  0.5290986383831564  0.6178709606473287
  0.5149065779503648  0.0033224023829630  0.7390834577560358
  0.9528924649408443  0.5094141862334995  0.2365681020167459
  0.5136337865177902  0.8155768647929629  0.0046990664997979
  0.7356206462001758  0.7181023490638201  0.4956145696364099
  0.2149452384544824  0.8054858463325729  0.5077051286369206
  0.7374551965455107  0.2810928336461540  0.0146684687530007
  0.9856840259523196  0.7954195264689107  0.5025246091323841
  0.4654713304583237  0.5305733431554092  0.2625942376582826
  0.9814493355153585  0.7413594113307800  0.7554983247506158
  0.5226917720613452  0.9843802571775191  0.2514484023073255
  0.2296356555628097  0.2933592757477609  0.5009869966265749
  0.7435556727844103  0.7727256782940194  0.9973034261221311
  0.7299342358826956  0.2248448615465850  0.5039165967369279
  0.0179404732141649  0.7388608832578009  0.9889458159089786
  0.9745994707331765  0.5117222227614650  0.9903288685392770
  0.4801091605778612  0.2314244645278328  0.4995248309594355
  0.4471858553245862  0.4767562688403750  0.1363646028603934
  0.0173575576786645  0.9836264055915782  0.3521541084447050
  0.2376856327978598  0.0778215626125784  0.8624662765355838
  0.9999252171886224  0.1304427602142832  0.4811673115618258
  0.9655518321588247  0.5173998366655171  0.1021581402237084
  0.7616221967816023  0.9916949731241184  0.6297403299607371
  0.4830815317074412  0.2239242282272396  0.2650748755097257
  0.2193549614357798  0.7660147978475591  0.7485111083439780
  0.2441927627993218  0.7465709359614403  0.2537008843219282
  0.7579708483611134  0.2485353047835655  0.7443102006925293
  0.7251815770606836  0.7095197230103089  0.3691708804367617
  0.0177986818194331  0.4562960432436599  0.7654273434001987
  0.0075316934940497  0.0096652432720271  0.2268170555931451
  0.4989683386645740  0.7360568114646312  0.7481507167069359
  0.2831167590234566  0.7387810172647705  0.1361796633526864
  0.0197761088771675  0.0330749423250277  0.6092207511677544
  0.7596022988682005  0.0263571968472292  0.8730859551178337
  0.2539592819837205  0.6108059294374361  0.4034032294224147
  0.4680193452067233  0.4901908017724793  0.8980359961116504
  0.7301420871021482  0.9746797364863689  0.3823498119044972
  0.7305163120170136  0.7375508202280224  0.2559858487331819
  0.2580535727025676  0.4963029643016552  0.6330261495141337
  0.7327075774271693  0.5371858102140564  0.8750981796076541
  0.2450160127676079  0.9946209626365461  0.3815913154050783
  0.7405548550716680  0.4996816639291752  0.6319748629622022
  0.2189146700903304  0.9766084869917516  0.1183970188140321
  0.1995995071614846  0.2940692030946693  0.6266358910193868
  0.6939496239606960  0.4535826925653725  0.1309227563016384
  0.2597984685979721  0.4528458373625667  0.8855507209760385
  0.7430936345822646  0.4683987585794053  0.3765693326588395
  0.2673216924406542  0.0047622076597268  0.2414752901669046
  0.7942261494089674  0.5171390347447973  0.7402899611007803
  0.2563337469687521  0.0021425906084855  0.7410564223412902
  0.7069432014117613  0.4975280094458464  0.2511561895251901
  0.2698425321237787  0.0033378003860784  0.9874557721119301
  0.7348982629899995  0.4768128289228061  0.5043547188918635
  0.2489769416764038  0.0442499399880088  0.4980284007894397
  0.7261649368393086  0.5237584583870082  0.9984786948102852
  0.7488086850336854  0.0076929370722102  0.7431447404897961
  0.2104176090526885  0.5105999146650437  0.2645795058664062
  0.2845211861502560  0.4965887145016098  0.7611010992489380
  0.7668252504076916  0.9968213261325505  0.2567226513377482
  0.2501980910536038  0.5469466676667053  0.5077342004268734
  0.7454467531929397  0.0465136593486946  0.0008205052772802
  0.7252540759222410  0.9760918544789867  0.5059795169741150
  0.2520326776181496  0.4886388193947646  0.0080978468390148
  0.9791582432677095  0.2507922972513061  0.3816282079542652
  0.5246068380508572  0.7595426124365942  0.8761593967487541
  0.5077738634088801  0.2552846605269658  0.6276139194844459
  0.9988976062594838  0.7429280886140569  0.1311410156928975
  0.0029262105829796  0.2572038229690198  0.8631265769738556
  0.4552022803375309  0.7576574600027181  0.3766199819426874
  0.0122456045253249  0.7328930506681947  0.6315784674369804
  0.4795478650169775  0.2497300238636364  0.1309444193508365
  0.1486549262544878  0.3772612771228496  0.0515793882831786
  0.6418200849979142  0.8774723754066779  0.5569490446223830
  0.6465324902367654  0.1239343255616319  0.9436767142325809
  0.1179281498760685  0.6453397836504009  0.4711755470863488
  0.3608405521434905  0.3922491678645446  0.9641982932703419
  0.8322556040191348  0.8880335528153265  0.4590785682818163
  0.8409867288521229  0.1288298786100247  0.0578484081355962
  0.3552126769724713  0.6505286734168002  0.5606993353733536
  0.8447872571168878  0.1386770821258635  0.2116927839867423
  0.3681671205085574  0.5740368808881967  0.7002019705068836
  0.8545725449041355  0.8928213305628158  0.3132073947246923
  0.3884109165449999  0.3950770064708778  0.8126499840163173
  0.1249164680810872  0.6216509623961859  0.3144240729533664
  0.6532116004425099  0.1109937286121014  0.7943157958487697
  0.1168279617937821  0.3944791824407786  0.2176753665097770
  0.6479612413962804  0.9117334273658378  0.6933271744594505
  0.8485483690125148  0.6383219062062503  0.9494488863519341
  0.3205879858002447  0.1428705711795210  0.4376010167327788
  0.8153200007736807  0.3668043546691002  0.5543797437598470
  0.3576968439054207  0.9107594179750718  0.0476295398209814
  0.1519828852911583  0.1436511577939883  0.5512526815180399
  0.6427570133915539  0.6168722879175440  0.0550002256568649
  0.1655145957177133  0.8867237652149570  0.9439054889858344
  0.6364207122287546  0.3819339952575557  0.4455965820965598
  0.6142567872063337  0.4016611570640311  0.3084107888909388
  0.1588519525248055  0.9156367860219028  0.7985502650091093
  0.1444439482020489  0.0777511734440225  0.6921200220773402
  0.6184423227168110  0.6092354880239667  0.1964129808949092
  0.8708831915294450  0.4003029834670504  0.6880968423215872
  0.3912445321822056  0.8998302453186908  0.2055981364718273
  0.3653611978105787  0.0873049775428407  0.2964042300959751
  0.8965369278785665  0.5860152855486460  0.8024149464224984
  0.1648611028330768  0.1060451375152546  0.0403454533007583
  0.6536895737593698  0.5815833804505627  0.5546843779699652
  0.6419324313552991  0.4237655453433937  0.9493768576935218
  0.1210280463760684  0.9562305898643877  0.4537651276392721
  0.3759052121713962  0.1055856903198663  0.9417022928059350
  0.8354456471572804  0.5744043225124826  0.4499281524178405
  0.8326144530221044  0.4352464297631279  0.0489642464958699
  0.3503650690314540  0.9449281478907958  0.5470965601380837
  0.1905783802028424  0.1204154779337489  0.1977891926430788
  0.6948130350749689  0.6261873497901647  0.6939573362810613
  0.1564957100323977  0.9156256989776548  0.2921910704122107
  0.6850821721090979  0.4312740807836334  0.7956809772999042
  0.8039444024371498  0.5917602669910811  0.3046052246919469
  0.3624707992775598  0.0819366199088562  0.7919267682061236
  0.8061529116532524  0.3909599306183676  0.2099882709225527
  0.3445189765272512  0.8896366652326101  0.6919895785844949
  0.8487471738478128  0.9412463018350450  0.9661659809245975
  0.3391178673263996  0.4589137940791347  0.4499855388786672
  0.8401516750426010  0.0709876791622839  0.5530783456711228
  0.3317047607200012  0.6040539814295891  0.0534835581212564
  0.1672589321460559  0.4256230659797600  0.5507995775617407
  0.6523700331342598  0.9469260624668168  0.0524801445175337
  0.1660159398212084  0.5973862514993098  0.9570264969261816
  0.6253455644589276  0.0713697543679012  0.4621728817386545
  0.3272787113735925  0.4118768100944242  0.3021097673356229
  0.8574881525361371  0.9074798640528743  0.7993924528036314
  0.8556601542662579  0.1051924300188642  0.6984045820081277
  0.3238569653870957  0.6027489272588199  0.2095752716988186
  0.1711052128752895  0.3957857454334604  0.7174564311978594
  0.6926131206612705  0.8972878681296945  0.1965866787272075
  0.6637622028606140  0.0747052686837508  0.3066838287539931
  0.1810351411710166  0.5891634928324626  0.8071834387684420
  0.0714447041873804  0.3152303589832053  0.4391138417468158
  0.5802072923310179  0.6307177507358110  0.8307551038490268
  0.6158356645705377  0.3350050149530613  0.6710690012131750
  0.0864361489129752  0.8409773251828661  0.1815317407168107
  0.4371652938518687  0.1481902457338633  0.6752322201306251
  0.9130455513523938  0.6484502014478709  0.1779336634997823
  0.9225532732864434  0.3744367312596397  0.3423892934787341
  0.4262781859623590  0.8594811603308085  0.8338564556053054
  0.0597937076945463  0.1473437820061455  0.9099932025409730
  0.5553284063832781  0.6570553778454760  0.4164022595554626
  0.0855049724903743  0.8321734335472536  0.5843089619410835
  0.6013153266316192  0.1806328328524421  0.1777352471869980
  0.9225849580860953  0.6376251224173407  0.5873118342298957
  0.5756257596337754  0.3433340447315938  0.0823828701703267
  0.9269980860233625  0.3615755712879192  0.9044464028110337
  0.3566794926187505  0.8209772040469077  0.4202374527570651
  0.9325066761558464  0.8376331595023991  0.6770450879035228
  0.3834465610485379  0.3229365672686740  0.1761917221846911
  0.9026301906524241  0.1745228554715119  0.8197179989399690
  0.3963793176440377  0.6651000192265017  0.3188063105022194
  0.1147800601931453  0.3332028230495943  0.8183449278192096
  0.5609182059054101  0.8494132777344356  0.3373469291764306
  0.1036309786784538  0.6380979049553109  0.6742588426776455
  0.3952480381498270  0.1457667557977504  0.0943765253695638
  0.4144422237682616  0.3474839124481696  0.5869047809915053
  0.9026286617670233  0.8459990530057752  0.0881121197327076
  0.0774767463939795  0.1559474118513731  0.3372974188084124
  0.4546151373840365  0.6979677549501886  0.9349763422674965
  0.8456366285230434  0.1831329241737500  0.4086738310213802
  0.6322024590573648  0.8419091768541843  0.9124980489938874
  0.5770011064866921  0.1570054652275858  0.5763698372915268
  0.1042049938752673  0.6629653025883371  0.0857097981068078
 
 -0.10460763E-01 -0.10187427E-01  0.11962256E-02
 -0.20598061E-02 -0.23271090E-02  0.46257353E-02
 -0.31039723E-02 -0.84893161E-04 -0.23252690E-02
 -0.37408758E-02 -0.37135396E-02  0.40161941E-02
  0.47965048E-02  0.53905278E-03  0.52905804E-02
 -0.62507950E-03  0.94035153E-02 -0.99830326E-03
  0.78547643E-02 -0.31245511E-02  0.31144849E-02
  0.39336497E-02  0.17881514E-02  0.12974674E-02
 -0.41637131E-02  0.24522884E-02  0.77464246E-02
 -0.35823488E-02  0.32394811E-02  0.48609627E-03
  0.72550209E-04 -0.27641139E-02  0.71223953E-04
  0.47442121E-02  0.43956455E-02 -0.42323783E-02
  0.90576063E-02 -0.98808730E-02 -0.57207752E-02
  0.77397109E-04  0.94182541E-02  0.36985048E-02
 -0.13494385E-02 -0.66134420E-02 -0.83896036E-02
 -0.37720321E-02 -0.83060657E-02  0.10257187E-02
  0.35294590E-02  0.23946407E-02  0.94287010E-03
 -0.46616626E-02 -0.57605417E-02  0.21072072E-03
  0.25404235E-02  0.68342915E-02 -0.12454640E-02
 -0.14098550E-02  0.19284493E-02 -0.57963684E-02
  0.12696382E-01 -0.61918594E-02  0.38774414E-02
  0.18892886E-03 -0.55845046E-02 -0.55792422E-02
 -0.36991767E-02  0.17765082E-02  0.17498565E-03
  0.38108248E-02  0.50775881E-03 -0.91909839E-02
  0.34316355E-03 -0.72461575E-03 -0.12101102E-02
 -0.37159200E-02 -0.10378418E-01  0.13329975E-02
  0.71361883E-02 -0.61643968E-02 -0.14549570E-02
 -0.32576725E-02  0.26456203E-02 -0.57918772E-02
 -0.19717156E-02  0.21949653E-02 -0.19019806E-02
 -0.11281634E-02  0.30798250E-02 -0.52607978E-02
 -0.17616508E-02 -0.76896501E-02  0.72935140E-02
  0.24226657E-02  0.49161517E-02  0.18287765E-02
 -0.55373123E-02 -0.51343783E-02 -0.43366375E-02
 -0.41427790E-02  0.28242955E-02 -0.27236045E-02
 -0.43362481E-02  0.92609098E-02  0.25780709E-02
  0.90552521E-02  0.36546042E-02 -0.78334422E-03
  0.47553881E-02  0.13705003E-02 -0.10724489E-02
  0.11126649E-01 -0.92186116E-02 -0.27568269E-03
  0.54265595E-02 -0.28375610E-02 -0.17921740E-02
 -0.11895320E-02  0.52412046E-02 -0.59993395E-03
  0.10087322E-01 -0.72334598E-03 -0.32583128E-04
  0.62081664E-03 -0.50367116E-02 -0.81081822E-02
 -0.52628775E-02 -0.38930332E-02  0.84815370E-02
  0.15768207E-02 -0.98061836E-02 -0.11888816E-02
 -0.33731676E-02 -0.11643749E-01 -0.66930928E-03
  0.59137311E-02 -0.12556209E-02 -0.75956954E-02
 -0.13552657E-03  0.29257745E-02  0.43306545E-02
 -0.49744771E-02 -0.91711822E-02 -0.33022958E-02
  0.56672297E-02 -0.62050614E-02 -0.65241182E-02
  0.12825086E-02  0.25965469E-02  0.14871287E-02
  0.71052760E-02 -0.61673981E-02  0.61729298E-02
 -0.53544560E-02  0.65699957E-03 -0.47276903E-02
 -0.86420795E-02  0.29871416E-02  0.49779737E-02
  0.15808109E-02 -0.10185206E-02  0.93332747E-02
 -0.32650079E-02  0.14911273E-02  0.15597392E-02
 -0.30213156E-03  0.51735870E-02 -0.39069442E-03
 -0.29429834E-02 -0.10430418E-01  0.14141629E-01
  0.20501077E-02 -0.50072637E-02 -0.67845815E-02
  0.95609731E-02 -0.19238992E-02 -0.42572856E-02
  0.15591446E-02  0.51679109E-02 -0.27677752E-02
  0.71781006E-02  0.79995989E-04 -0.70651243E-02
  0.42143289E-02 -0.26115576E-03 -0.14176747E-02
 -0.23953550E-02 -0.24284088E-02 -0.95468685E-02
  0.27070696E-02  0.88869967E-03  0.14200629E-02
 -0.29534128E-02  0.36555308E-02  0.55294162E-02
  0.42882985E-02  0.53034835E-02  0.40092697E-02
  0.81981521E-02  0.66078439E-02 -0.85925172E-02
  0.11028446E-01 -0.67570212E-02  0.11105768E-02
 -0.34758532E-02  0.39197286E-02  0.74287514E-02
 -0.75526920E-03  0.82834856E-02 -0.80592545E-02
  0.25553964E-02  0.14771242E-02 -0.99165275E-02
  0.40976238E-02  0.36833943E-02 -0.59307048E-03
  0.81715715E-03  0.17264369E-02  0.21497880E-02
  0.25992498E-02  0.31641821E-03 -0.16020799E-02
 -0.13591975E-02 -0.60447785E-02 -0.58884466E-03
  0.16365137E-02  0.23237798E-03 -0.38357400E-02
  0.35295334E-02  0.25071957E-02 -0.22137719E-03
 -0.79013105E-02 -0.67768684E-02  0.39904155E-02
 -0.54575750E-03  0.44754783E-03 -0.32838771E-02
  0.66438810E-02  0.56679442E-03  0.17795797E-02
  0.13935748E-03 -0.25987032E-03 -0.35034590E-03
  0.51307015E-02  0.31486474E-02  0.74918143E-02
 -0.46569456E-03 -0.34414956E-02 -0.35561379E-02
  0.55941060E-02 -0.26725484E-02 -0.52035886E-02
 -0.12770535E-02 -0.91915941E-02  0.10258933E-02
 -0.48804569E-02 -0.14899102E-02 -0.63936638E-02
  0.75383313E-03 -0.50200342E-02  0.90152920E-02
  0.11290006E-03  0.17281825E-02  0.31788667E-02
  0.11799059E-02 -0.96482993E-03  0.10257289E-02
 -0.48978552E-03  0.16829453E-03  0.65332468E-03
 -0.19936788E-02 -0.16874752E-02  0.12378131E-02
 -0.30392784E-02 -0.28164249E-03  0.45375578E-03
  0.34778230E-03 -0.11508280E-02  0.22699931E-02
 -0.53679691E-03 -0.68687702E-03  0.32556498E-02
  0.23314470E-02  0.17242131E-02  0.11313985E-02
  0.47393244E-02  0.13475182E-03  0.29576419E-02
 -0.33282993E-04 -0.30883585E-02  0.86279218E-03
  0.24848013E-02  0.92475304E-03  0.79983653E-03
 -0.14776320E-03 -0.28971196E-03  0.20283426E-02
  0.25283972E-02 -0.17920357E-02 -0.18412301E-02
  0.50077604E-03 -0.92583169E-03 -0.28238082E-02
  0.32750130E-02  0.46604819E-02  0.10781442E-02
  0.86458054E-03 -0.30857602E-02  0.14106881E-02
 -0.49650055E-02 -0.35708321E-03  0.16105526E-02
  0.58745724E-02 -0.21137439E-03 -0.73512585E-02
  0.10605022E-01  0.32480785E-03  0.30791780E-02
  0.14120768E-02  0.84175336E-02 -0.42892058E-02
  0.86958345E-02 -0.40534716E-03 -0.12056914E-02
  0.57727315E-03 -0.34774210E-02 -0.36062157E-02
 -0.27691816E-02 -0.74613892E-02 -0.92886925E-02
 -0.79261774E-03 -0.40628716E-03  0.36751769E-02
 -0.11845843E-02 -0.52414298E-02 -0.27743469E-02
  0.99605377E-03  0.43639040E-02 -0.16754511E-02
 -0.12307613E-02  0.20076012E-02  0.14914194E-02
 -0.54808386E-02  0.73741160E-03  0.59826062E-03
 -0.35552343E-03 -0.29166681E-02  0.73628177E-03
 -0.87022331E-03  0.32265154E-02  0.10793195E-03
 -0.14473712E-02  0.46644615E-02 -0.34239944E-02
  0.73926416E-03 -0.21026552E-02 -0.30796011E-03
 -0.83587173E-03  0.33124078E-02  0.87111020E-03
  0.57947965E-02  0.11647944E-02  0.46108537E-02
 -0.43675019E-03  0.16822540E-02  0.30107225E-02
 -0.25255269E-02  0.30056373E-02  0.89507932E-02
  0.24896227E-02 -0.88107254E-03  0.12895450E-02
  0.25265535E-03 -0.70556203E-02  0.21773062E-02
 -0.32972920E-03  0.83128260E-03 -0.57423282E-02
  0.42340361E-02 -0.15523420E-02 -0.12708391E-03
 -0.49876291E-02  0.13194016E-02 -0.97509010E-03
 -0.90832816E-02 -0.19446972E-02  0.20062076E-02
 -0.22027070E-03 -0.40356012E-02 -0.28867122E-02
  0.74642789E-02  0.23990631E-02  0.77529541E-04
  0.39068113E-03  0.11549457E-02 -0.10092447E-02
  0.29108702E-02  0.32871397E-02 -0.56109834E-03
 -0.45875831E-02  0.22978640E-03 -0.13692271E-02
  0.12480765E-02  0.33511583E-02  0.12630254E-02
  0.37309080E-02  0.19859947E-02 -0.27372284E-02
  0.48847930E-03  0.46137860E-02 -0.22221099E-02
 -0.41426424E-02  0.27636148E-02 -0.35773871E-02
 -0.11100638E-02  0.72990575E-02  0.53670610E-03
 -0.21417974E-02 -0.32097865E-02 -0.20629901E-02
 -0.56143995E-02 -0.30858802E-04 -0.42833553E-03
 -0.73750281E-03 -0.34940925E-03 -0.96135808E-03
 -0.57792044E-02 -0.35770688E-03  0.75245512E-03
 -0.35034362E-03  0.19914295E-02  0.28750223E-02
 -0.81001226E-03 -0.25917403E-02  0.36207302E-02
  0.15332976E-02 -0.15932673E-02  0.26671529E-02
 -0.56665912E-03  0.37035692E-03  0.39662228E-02
  0.18688312E-02 -0.16648435E-02 -0.94283238E-03
  0.24093257E-02 -0.40430757E-02 -0.37064464E-02
  0.27009724E-02  0.32645852E-02  0.64748192E-03
  0.17344988E-02  0.32489018E-02  0.14770707E-02
  0.20299559E-02 -0.22601771E-02 -0.40737501E-02
 -0.13110164E-02  0.38782395E-03 -0.84430048E-03
 -0.12632096E-02 -0.18710398E-02 -0.37566620E-02
  0.73652615E-03  0.63454161E-03 -0.34538656E-03
 -0.64244349E-02 -0.28456103E-02 -0.12895210E-02
 -0.22620650E-02  0.80748985E-03 -0.42190545E-02
 -0.20553881E-03  0.11136288E-02 -0.13059074E-02
 -0.28329464E-02 -0.16989829E-02  0.66758168E-03
  0.11746611E-02  0.15731821E-02  0.23192943E-02
  0.10647585E-02 -0.17967020E-02  0.14690527E-02
 -0.36544872E-02 -0.38369416E-02 -0.45379537E-02
 -0.20123978E-02  0.17432421E-02 -0.96711685E-03
  0.25861962E-03 -0.48696408E-02 -0.19932765E-03
 -0.30845916E-02  0.20737507E-02  0.25553937E-02
 -0.89420532E-03  0.23037869E-02  0.14091398E-02
 -0.43017542E-03 -0.82293980E-02  0.36777693E-03
  0.31620171E-03  0.55500416E-02  0.20856480E-02
  0.58718634E-02  0.16996346E-02  0.14479559E-02
 -0.15195919E-02  0.16438120E-02 -0.25440005E-03
 -0.86736265E-03 -0.44126924E-02 -0.23843819E-02
 -0.23842748E-02 -0.18245294E-02  0.95756502E-03
 -0.23798611E-02  0.19083607E-03  0.67767064E-03
  0.32984180E-02  0.48292543E-02 -0.44289311E-02
 -0.59610634E-03 -0.32678659E-02 -0.98753217E-03
  0.25969865E-03  0.11655717E-02  0.37229198E-02
 -0.49854016E-02  0.20226494E-02 -0.17861429E-02
 -0.12933619E-02  0.28674388E-02  0.21776627E-03
  0.53233624E-02 -0.15320930E-02 -0.55267990E-02
 -0.77695563E-03  0.15152820E-02  0.53276578E-03
  0.20188639E-02  0.68757454E-03 -0.74067901E-03
  0.60191705E-03  0.11558490E-02  0.15716444E-02
 -0.29344035E-02 -0.11911884E-02  0.56928666E-03
 -0.26586159E-02  0.10548699E-02  0.37202543E-02
 -0.25873816E-02  0.28004612E-03  0.33223135E-03
  0.34528522E-02 -0.45378697E-03 -0.79388335E-03
 -0.27781189E-02  0.24402550E-02  0.99933720E-03
  0.50156423E-02  0.17779159E-02  0.32179309E-02
 -0.19385491E-02 -0.57156187E-02  0.18851549E-02
  0.88407215E-03  0.28822065E-02  0.85404585E-05
  0.21865576E-02 -0.27571799E-02 -0.51636272E-02
 -0.46840033E-02 -0.19991690E-02  0.39545673E-02
  0.25026089E-02 -0.17345446E-02  0.87475557E-03
 -0.68055730E-02 -0.38270572E-02 -0.11516254E-02
  0.10413966E-02 -0.10087429E-02  0.40209914E-02
 -0.88652065E-04 -0.37435645E-02  0.44811490E-02
 -0.20341605E-02  0.16731347E-03 -0.11798240E-03
  0.43195589E-02  0.27348965E-02  0.55694785E-02
 -0.45123527E-02  0.20190959E-02  0.15930227E-02
 -0.14176683E-03  0.77769679E-02 -0.46890892E-03
  0.26148943E-02  0.16132655E-02  0.13695740E-02
  0.12601464E-02 -0.12390740E-02  0.48574452E-02
 -0.20875342E-02  0.29661185E-03 -0.60935392E-03
 -0.24860746E-02  0.82325041E-03 -0.11962078E-03
 -0.85089189E-03  0.39439211E-02 -0.68482604E-02
 -0.17255779E-02  0.31544864E-02 -0.53515832E-02
  0.12160723E-02  0.28806402E-02 -0.41394378E-02
  0.35902458E-02 -0.14894355E-02  0.67666308E-03
 
           1
   2.00000000000000     
  0.47124225E+00 -0.13297000E-02  0.00000000E+00  0.00000000E+00
  0.94392024E+00  0.23588107E+00  0.10404615E-03
  0.50676207E+00  0.48943915E+00  0.50826695E+00
  0.51053296E+00  0.13221128E+00  0.17846530E-01
  0.26235388E-01  0.97363218E+00  0.25822930E-01
  0.28377853E+00  0.74480749E+00  0.89026036E+00
  0.99569030E+00  0.54828312E+00  0.39278167E+00
  0.21191046E+00  0.49706207E+00  0.14828540E+00
  0.23583135E+00  0.24228029E+00  0.11263138E+00
  0.77171215E+00  0.76850791E+00  0.60730536E+00
  0.74901539E+00  0.26301674E+00  0.87809385E+00
  0.75875510E+00  0.24689128E+00  0.31291270E+00
  0.21965316E+00  0.23862372E+00  0.97226817E+00
  0.76988850E+00  0.24467175E+00  0.12378940E+00
  0.26831500E+00  0.75172658E+00  0.62878362E+00
  0.28949440E+00  0.22076823E+00  0.72401750E+00
  0.46363878E+00  0.50981910E+00  0.37286803E+00
  0.27129427E+00  0.41956744E-01  0.61677987E+00
  0.23530288E-01  0.47311491E+00  0.62996591E+00
  0.51437020E+00  0.98922078E+00  0.13653371E+00
  0.54375695E-01  0.50227886E+00  0.87078012E+00
  0.45171398E+00  0.15941442E-01  0.37659047E+00
  0.21622182E+00  0.28355617E+00  0.37675257E+00
  0.75880123E+00  0.73041678E+00  0.84916567E+00
  0.73721112E+00  0.22556080E+00  0.61481475E+00
  0.25581430E+00  0.75376179E+00  0.85746238E-02
  0.17020562E-01  0.21290398E+00  0.74404669E+00
  0.74066690E+00  0.75298236E+00  0.11831855E+00
  0.95959944E+00  0.25975322E+00  0.26969831E+00
  0.52282043E+00  0.79977419E+00  0.49492981E+00
  0.49508930E+00  0.99968074E+00  0.89121484E+00
  0.98624118E+00  0.48081718E+00  0.50549786E+00
  0.53178080E+00  0.49553085E+00  0.74768825E+00
  0.99642601E+00  0.74323539E+00  0.26148486E+00
  0.52442357E+00  0.27971931E+00  0.75179408E+00
  0.99234118E+00  0.96987336E+00  0.87598560E+00
  0.50199337E+00  0.98568209E+00  0.60303584E+00
  0.49972539E+00  0.49597546E+00  0.22844563E-01
  0.21139961E+00  0.25618472E+00  0.27118916E+00
  0.10962400E-02  0.99045089E+00  0.74623035E+00
  0.50234890E+00  0.76737346E+00  0.24690431E+00
  0.77176045E+00  0.16746642E-01  0.13211259E+00
  0.51652591E+00  0.52837712E+00  0.61729020E+00
  0.51415266E+00  0.27647185E-02  0.73969096E+00
  0.95311835E+00  0.50800943E+00  0.23648295E+00
  0.51315057E+00  0.81390888E+00  0.46511266E-02
  0.73646780E+00  0.71792248E+00  0.49507052E+00
  0.21492582E+00  0.80590497E+00  0.50801532E+00
  0.73674259E+00  0.27977905E+00  0.14431939E-01
  0.98649587E+00  0.79453064E+00  0.50205731E+00
  0.46565505E+00  0.53094530E+00  0.26270075E+00
  0.98246718E+00  0.74047592E+00  0.75594047E+00
  0.52192474E+00  0.98447437E+00  0.25110978E+00
  0.22839766E+00  0.29378719E+00  0.50134355E+00
  0.74378213E+00  0.77257977E+00  0.99797193E+00
  0.72946652E+00  0.22505847E+00  0.50402831E+00
  0.17897192E-01  0.73960201E+00  0.98891783E+00
  0.97417788E+00  0.51022805E+00  0.99134178E+00
  0.48040284E+00  0.23070717E+00  0.49903888E+00
  0.44855548E+00  0.47648067E+00  0.13605967E+00
  0.17580908E-01  0.98436672E+00  0.35195586E+00
  0.23871391E+00  0.77833022E-01  0.86196023E+00
  0.52892725E-03  0.13040535E+00  0.48106577E+00
  0.96520869E+00  0.51705196E+00  0.10147434E+00
  0.76200999E+00  0.99182228E+00  0.62984204E+00
  0.48265845E+00  0.22444789E+00  0.26547092E+00
  0.21996927E+00  0.76677453E+00  0.74879828E+00
  0.24536716E+00  0.74751752E+00  0.25308544E+00
  0.75955069E+00  0.24756735E+00  0.74438975E+00
  0.72468365E+00  0.71008123E+00  0.36970297E+00
  0.17690488E-01  0.45748267E+00  0.76485009E+00
  0.78977585E-02  0.98768439E-02  0.22610678E+00
  0.49955533E+00  0.73658446E+00  0.74810824E+00
  0.28323382E+00  0.73902833E+00  0.13633364E+00
  0.20148456E-01  0.33120270E-01  0.60910600E+00
  0.75940759E+00  0.25491272E-01  0.87304378E+00
  0.25419372E+00  0.61083922E+00  0.40312849E+00
  0.46852496E+00  0.49054996E+00  0.89802014E+00
  0.72901021E+00  0.97370894E+00  0.38263563E+00
  0.73043813E+00  0.73761493E+00  0.25575064E+00
  0.25900532E+00  0.49638416E+00  0.63315361E+00
  0.73272754E+00  0.53714858E+00  0.87507309E+00
  0.24575099E+00  0.99507201E+00  0.38212792E+00
  0.74048814E+00  0.49918866E+00  0.63172015E+00
  0.21971604E+00  0.97622564E+00  0.11802431E+00
  0.19941657E+00  0.29275249E+00  0.62670937E+00
  0.69325049E+00  0.45336926E+00  0.13046480E+00
  0.25990646E+00  0.45212671E+00  0.88619645E+00
  0.74310981E+00  0.46864632E+00  0.37679702E+00
  0.26749072E+00  0.46239941E-02  0.24154876E+00
  0.79415599E+00  0.51716314E+00  0.74033676E+00
  0.25604815E+00  0.19008568E-02  0.74114508E+00
  0.70650782E+00  0.49748766E+00  0.25118869E+00
  0.26989235E+00  0.31729422E-02  0.98761836E+00
  0.73482137E+00  0.47671443E+00  0.50458791E+00
  0.24931093E+00  0.44496937E-01  0.49810944E+00
  0.72684385E+00  0.52377776E+00  0.99869054E+00
  0.74880392E+00  0.72505243E-02  0.74320654E+00
  0.21077356E+00  0.51073239E+00  0.26463679E+00
  0.28450002E+00  0.49654721E+00  0.76124638E+00
  0.76718745E+00  0.99656461E+00  0.25659077E+00
  0.25026983E+00  0.54681404E+00  0.50753194E+00
  0.74591590E+00  0.47181282E-01  0.89772831E-03
  0.72537793E+00  0.97564981E+00  0.50608056E+00
  0.25132143E+00  0.48858767E+00  0.82132041E-02
  0.97999979E+00  0.25076202E+00  0.38110167E+00
  0.52612603E+00  0.75958914E+00  0.87637995E+00
  0.50797615E+00  0.25649049E+00  0.62730670E+00
  0.14329991E-03  0.74287002E+00  0.13105466E+00
  0.30089060E-02  0.25670568E+00  0.86286828E+00
  0.45480559E+00  0.75658860E+00  0.37595467E+00
  0.12132061E-01  0.73283485E+00  0.63184171E+00
  0.47937817E+00  0.24897918E+00  0.13074570E+00
  0.14879761E+00  0.37788641E+00  0.51459383E-01
  0.64164378E+00  0.87775997E+00  0.55705587E+00
  0.64574735E+00  0.12403996E+00  0.94371957E+00
  0.11787722E+00  0.64492197E+00  0.47122828E+00
  0.36071589E+00  0.39271137E+00  0.96420602E+00
  0.83204827E+00  0.88870175E+00  0.45883332E+00
  0.84109263E+00  0.12852867E+00  0.57826350E-01
  0.35509294E+00  0.65100318E+00  0.56076173E+00
  0.84561737E+00  0.13884394E+00  0.21202304E+00
  0.36810456E+00  0.57427787E+00  0.70041762E+00
  0.85421076E+00  0.89325189E+00  0.31384850E+00
  0.38876756E+00  0.39495079E+00  0.81274235E+00
  0.12495266E+00  0.62064023E+00  0.31458002E+00
  0.65316437E+00  0.11111281E+00  0.79390450E+00
  0.11743449E+00  0.39425681E+00  0.21766626E+00
  0.64724675E+00  0.91192243E+00  0.69325733E+00
  0.84724717E+00  0.63804332E+00  0.94959258E+00
  0.32055643E+00  0.14229246E+00  0.43739425E+00
  0.81638927E+00  0.36714802E+00  0.55438530E+00
  0.35775281E+00  0.91092487E+00  0.47557252E-01
  0.15239987E+00  0.14412205E+00  0.55121249E+00
  0.64209983E+00  0.61690521E+00  0.54902154E-01
  0.16569338E+00  0.88720382E+00  0.94399595E+00
  0.63695517E+00  0.38221849E+00  0.44540053E+00