Na88 Sn16 P8 S96                        
   1.00000000000000     
    13.4813327813000008    0.0000000000000000    0.0000000000000000
     0.0000000000000000   13.4813327813000008    0.0000000000000000
     0.0000000000000000    0.0000000000000000   26.9626655626000016
   Na   Sn   P    S 
    88    16     8    96
Direct
  0.9905457277524869  0.0226324250594390  0.1212435676794800
  0.5146880555897747  0.5268185031916983  0.6204271740659602
  0.5425456798917847  0.4965383136640903  0.7561566559938778
  0.0318172197575532  0.9736557702827088  0.3725562701891228
  0.2025841495307091  0.9791390817031678  0.8805506659468419
  0.0304294242943589  0.5111498493361399  0.3821545783833604
  0.9788838573201851  0.5154426726394434  0.1242209164601962
  0.2415202694290767  0.2538934086180166  0.1178059765661236
  0.7203062167922877  0.0183395208195432  0.6228012032128941
  0.7336823217236124  0.2659222072894924  0.8739982837300296
  0.7850088255835828  0.7423732226298410  0.3679519176523430
  0.2514718360034680  0.2351952179814989  0.8789273962283266
  0.7234451128636864  0.0937767791270898  0.1236465916476640
  0.2684696797422668  0.7590986290463809  0.6165526860843642
  0.9880753537592509  0.0139867195561927  0.7707383378052490
  0.2818590323147629  0.5253666948382798  0.3698113126425177
  0.9681747401546662  0.9981978592838083  0.6348386827402775
  0.0029448663667596  0.4814759814107525  0.6301769709177588
  0.4885331546201976  0.9821376938086426  0.1267993897380957
  0.0671711402550001  0.4931984649212153  0.8682524540436209
  0.5536354527228180  0.0412492816077933  0.3730832407939600
  0.2700679329578227  0.2588167610227954  0.3742869427112284
  0.7714234769893541  0.7382435177218272  0.8715574455539519
  0.7466018392195505  0.4586346762718406  0.6184690175575245
  0.2170981645956411  0.7246452490377266  0.0153733949386679
  0.2406465472852272  0.2711537911421822  0.6263117819307683
  0.7427157032619318  0.4760980170548721  0.1295618323467810
  0.7532678920249184  0.2614194986887904  0.3696710407537634
  0.4963135573306900  0.7665419760071820  0.5027573820220844
  0.5218064138730933  0.2441168414197923  0.0013730569207454
  0.0280421265823079  0.4883549446835092  0.5076771195360111
  0.4603536570884651  0.0285130719136312  0.7333291904650412
  0.0020840589107182  0.7319621661432737  0.2618443586164018
  0.5007012638946495  0.2493744515970775  0.7648663860275107
  0.9943309399980435  0.0035512594241579  0.9880265244379941
  0.5205283903341295  0.2590934161187413  0.4939137842533093
  0.4977794540915679  0.7695756267965329  0.9996540594253811
  0.4402808400532876  0.2643052209460624  0.2433689707164580
  0.0000991567585371  0.7514736309487466  0.7712894161076964
  0.4719702475392724  0.7592211346579117  0.2423879111312121
  0.0340512629240196  0.9698578028632140  0.2425933652798130
  0.5148267532933648  0.7646428339312289  0.7478903863069729
  0.4919789412794017  0.9913376728148621  0.8791610043839829
  0.9831991962490575  0.5114695537159171  0.2605193961838975
  0.2252414599747080  0.2160843102587379  0.9954340906637441
  0.7457040581283642  0.7453170577954291  0.4856194966573907
  0.0190901149393223  0.7742324942247053  0.4908110204941768
  0.7572477496720849  0.2717984675394475  0.0092791645907809
  0.9820350954711558  0.2549080227276914  0.7397671050695100
  0.4721115833586292  0.5067705862408824  0.2835586212984041
  0.0433928616330568  0.4895134407516542  0.7461539080026206
  0.5328110269350886  0.0185716207355852  0.2547508997682995
  0.2427664670707142  0.2525116302964237  0.4997436782261812
  0.7481241401571495  0.7668594323236690  0.9951828752380899
  0.7481871667519774  0.2296755172352709  0.5136137456693471
  0.9809395041600922  0.7550546979871433  0.9860761784312692
  0.9941571939936614  0.2643570299094301  0.0043952721822494
  0.5043072165836389  0.5269725951801260  0.4814784130308626
  0.5039453882137739  0.4836699696826180  0.0013421588717446
  0.0121499879877303  0.9910479653680703  0.5005568266101594
  0.4939961844048998  0.0116297155689866  0.9974466263642177
  0.0127711692963422  0.2508479230250354  0.5175219370520163
  0.0093693107677176  0.4886583895293956  0.9922291549694470
  0.5109030867843759  0.0113570213552834  0.4876731868688514
  0.0627261975605164  0.2015304562123691  0.2555876144564380
  0.7483617975108969  0.7400447106101399  0.7478993160553637
  0.2357057052164970  0.7500039768887584  0.2277029401558959
  0.7294834359793744  0.2623731999431405  0.7143851210562954
  0.7356230358073919  0.7436536120239979  0.2495945279515448
  0.2326972457187425  0.2405836481991221  0.7654223785849369
  0.7390120372792430  0.2318728922352292  0.2343628803839035
  0.2274187091382538  0.7458197235738329  0.7431719413646335
  0.1983824409360734  0.5364192579318677  0.1338633218145877
  0.4713285264785259  0.0023328547960899  0.6260279360947113
  0.7401726363175780  0.0176825359118185  0.8768065456868891
  0.2700638025349255  0.7530867955733764  0.4099730249349375
  0.3445256751267807  0.5032768804522666  0.8819978751085213
  0.7818200021688221  0.9985452567076379  0.3743346455629676
  0.7432240839880171  0.7811395921103926  0.1208687116561014
  0.2832570271503530  0.5137506846526567  0.6211362092979693
  0.7743228293813668  0.4949719585683136  0.8621685924867930
  0.2721682655868212  0.9983714766521826  0.3821033830059766
  0.7270217388448642  0.7462826364188750  0.6204607147001147
  0.2350725708472065  0.9560127347195457  0.1281255309438526
  0.2176756284741065  0.9837410024766974  0.6294416861173248
  0.5007791609069602  0.5160367592865623  0.1274998143654283
  0.2311963885146158  0.7356634705600285  0.8796455125448946
  0.7375232785726397  0.4950118745506858  0.3817829144043656
  0.2779425260725858  0.0217274676772063  0.2590810954271682
  0.7910762462625724  0.5012345070717382  0.7419273043975618
  0.2228353426345535  0.9922831964926443  0.7503891662577399
  0.7291926033980384  0.4896754677473715  0.2599008954843738
  0.2467151406960101  0.9654006922491487  0.0015414255147274
  0.7846092331471884  0.4906574081835712  0.5034247835261821
  0.2678739921190796  0.0146368637879656  0.5039606745979209
  0.7554104379768841  0.5163121076063667  0.9973426407136805
  0.7278905643375780  0.9909027195718783  0.7506720762201152
  0.2273703010579521  0.4801546287098131  0.2507573937786512
  0.2980873919681500  0.4991884809495574  0.7546032897921093
  0.7806262147491169  0.9863520596340042  0.2466841960168254
  0.2811701736813391  0.5011323315055072  0.4994035542578604
  0.7430701112101418  0.0099852689996829  0.0052029487626846
  0.7626124557458578  0.9928040536112974  0.4968844123736963
  0.2714196255277202  0.4735064812632020  0.9918693340593452
  0.0033821425995887  0.2567681032225607  0.3923948304323194
  0.5206855956631193  0.7387270747378105  0.8725685424881551
  0.4848720596034699  0.2410251064405789  0.6270876928323411
  0.9838667633207885  0.7593094786156678  0.1224149851813000
  0.9857313611179493  0.2351591463065948  0.8730982449047001
  0.5164796620140373  0.7611236401070915  0.3768989927558623
  0.0053866892648175  0.7362864612650436  0.6360828181829549
  0.4980450302890858  0.2617423126320535  0.1199476694561590
  0.1415218694019539  0.3926826420922633  0.0482767883912328
  0.6429358713614601  0.8924044251813315  0.5467832690497281
  0.6390866090952471  0.1298138962288590  0.9589635623087452
  0.1564235420353789  0.5878593731410182  0.4509813904686989
  0.3741867794066928  0.3539506121275608  0.9580826207482588
  0.8741065751332291  0.8947671880937833  0.4462564149557045
  0.8543818734886502  0.1163515830119681  0.0517908749302021
  0.3820709880123885  0.6204832724404864  0.5428062330773865
  0.8869356865079894  0.0806917391421177  0.1968855573633631
  0.3965472683891772  0.5920055728783057  0.6989293515500644
  0.8799907719255360  0.8807075375138144  0.2994355372383001
  0.3780041970803055  0.3831781897823912  0.8052541999950427
  0.1535802810283466  0.5989065562161484  0.3018649447366695
  0.6201496729251370  0.0903282675167699  0.8006728548617457
  0.1104305372888531  0.4110978313414917  0.1953121261710056
  0.6327559640383390  0.9022606938039361  0.6936410957052856
  0.8623030686674538  0.6074363082780183  0.9383709005264225
  0.3520847163712751  0.1078220570793001  0.4453971443246970
  0.8917503883011136  0.3912588924769537  0.5508697527490118
  0.3511925208464718  0.8758620540833985  0.0569665492238705
  0.1679740800858560  0.1145152079869023  0.5611865743191345
  0.6508308237480409  0.6204355867134049  0.0514640662272472
  0.1400211070577110  0.8572042445952880  0.9517530195067583
  0.6737899071306503  0.3742541893423976  0.4587772664630747
  0.6238852075110737  0.3825048474326084  0.3067110865481149
  0.1293381423602009  0.8831648512952757  0.8036946784571650
  0.1093408063147537  0.0989057014052479  0.7050367449825671
  0.6235132353369962  0.5995103771057755  0.2035426236200429
  0.8811541575749625  0.3954067646587532  0.6890296665536307
  0.3585743439299655  0.8998023968453063  0.2030708841727022
  0.3874593606666800  0.1034753570249983  0.3145377491107291
  0.8978920536279460  0.5927061161901923  0.7954812685037642
  0.1433543542933065  0.0764269560556775  0.0480416412985090
  0.6581664533709375  0.5813270257846962  0.5528723416962386
  0.6631039963870917  0.4026342933889503  0.9456427844242413
  0.1652952354283628  0.9118008468015445  0.4578640569495394
  0.3426068688898551  0.0624233263849000  0.9417833357845437
  0.8705891460973100  0.5917162179595538  0.4457199827278338
  0.8573660228747766  0.4142794039808855  0.0509220822503789
  0.3738413057949914  0.9095308772486036  0.5501985764122340
  0.1860449629526410  0.1108392840072387  0.1982135981627086
  0.6802877586442200  0.5990732004008984  0.6969652883328125
  0.1848666247324343  0.8983072677403249  0.3031525493304227
  0.6861279371832687  0.3936135962891592  0.7894691052495112
  0.8374755055693763  0.6097248006984730  0.3049526302086659
  0.3254196690965317  0.0932985809991035  0.8033139354081913
  0.8424567627106779  0.3893431502309024  0.2119428109416525
  0.3255925501466924  0.9002823637455069  0.6938324942935244
  0.8375472982541294  0.9071308959808316  0.9472074853155623
  0.3681642763150646  0.3946622640307136  0.4448124316615360
  0.8607952255689603  0.0899853392241252  0.5515323426763592
  0.3563689197890882  0.5604539145074107  0.0528135042901446
  0.1760829146225804  0.3994168408574184  0.5584226164463317
  0.6377660762540086  0.9117575864027887  0.0567923185664700
  0.1700452687137148  0.5760104486579758  0.9406780803636386
  0.6602560365210025  0.1000226123337252  0.4486572757980620
  0.3218458568730583  0.3676960911647449  0.3017292586142324
  0.8103291721571150  0.8867338928105417  0.8041501982768757
  0.8450453207751455  0.0874352997391538  0.7049740506876994
  0.3503363891679127  0.5750850278225440  0.2058864688079249
  0.1948372118628977  0.4040012647314264  0.6932272557532905
  0.6608117869531147  0.9228798447166680  0.1829406509839668
  0.6793416326102586  0.0985947708633113  0.3017120153228882
  0.2078448440151151  0.5992786527367919  0.8113469332564166
  0.0648478890038214  0.1412744104531742  0.3504462860916124
  0.6064715953115866  0.6567439440169084  0.8225742307769731
  0.5619896527755259  0.3364178447299094  0.6751436902382524
  0.0671511273948681  0.8365645084205456  0.1691692564474783
  0.3812269149705267  0.1680626293825179  0.6739174379987602
  0.8945928913905608  0.6766517016932567  0.1635193131842388
  0.9235459429477701  0.3612772784029012  0.3526533333612062
  0.4022268331412998  0.8124890011018531  0.8333039647804517
  0.0916738369915583  0.1517031832951964  0.9074383511705497
  0.5974413866699185  0.6815981783734185  0.4272777285472002
  0.0633771991669685  0.8440458896785956  0.5844583266447670
  0.6100586443298482  0.3370346292298764  0.0828103586950258
  0.9229763549892191  0.6526981450269573  0.5864129247230599
  0.4215128085839877  0.1592903914229025  0.0774541019714950
  0.9050533041243534  0.3179170866187893  0.9217693620874263
  0.4553449176848001  0.8714265100159565  0.4145563487214551
  0.9226224284141396  0.8052857874242902  0.6868754334676617
  0.3888287680750316  0.3598314511007563  0.1451640091202295
  0.8856846069855286  0.1494447108371701  0.8306728487425264
  0.4157559857967303  0.6841132766991013  0.3390227464953054
  0.0702658698387548  0.3184608634510452  0.8158941306186975
  0.6117028559007969  0.8243693760084148  0.3260807981299029
  0.1071251078244300  0.6640290057897136  0.6713053905932908
  0.5663081977993115  0.1819980915699323  0.1734907892412524
  0.4179074640751709  0.3271280964955671  0.5789693694736291
  0.9107535921830470  0.8343119808671347  0.0716909044477618
  0.9123722681089321  0.1765154584734489  0.4360070907165970
  0.4564568356377945  0.6526420987954089  0.9231289702199474
  0.1132759143279206  0.3244710913290328  0.4385953766583006
  0.6021120489202737  0.8379078705522401  0.9132666136292945
  0.5848523348320602  0.1509084123399734  0.5798463530889851
  0.0771798576014829  0.6627161859658088  0.0836915364713287
 
 -0.37477016E-02 -0.33461664E-02 -0.66119025E-02
 -0.71624061E-02 -0.27075758E-02  0.23162302E-02
 -0.17451954E-02  0.87320962E-02  0.12233906E-01
  0.38175426E-03 -0.16356386E-02  0.42962487E-03
  0.53321019E-02 -0.27358920E-03  0.58250711E-03
  0.16168086E-04  0.58479563E-02  0.93199590E-03
 -0.13654447E-02  0.21982746E-02 -0.43593662E-03
 -0.12702756E-02  0.15740038E-02 -0.14572723E-02
 -0.52752558E-02  0.17111988E-02  0.47159062E-03
 -0.30685418E-02 -0.66823106E-02 -0.44629435E-02
 -0.71345218E-03 -0.36002804E-02  0.89911012E-03
  0.21806582E-02 -0.15222351E-02 -0.37035051E-02
  0.83411331E-02 -0.41536124E-03  0.48873467E-02
 -0.10424171E-02 -0.41592943E-02  0.57915538E-02
  0.22723278E-02 -0.66286502E-02 -0.66654293E-02
 -0.19717144E-02 -0.52135658E-02 -0.28483529E-02
 -0.48764681E-03  0.69541619E-02  0.63457929E-03
 -0.25265975E-02  0.59411072E-02  0.36421036E-02
 -0.26914356E-02  0.61031160E-02 -0.38137911E-02
 -0.40925639E-02 -0.34369054E-02  0.88238848E-02
  0.41667951E-03 -0.37374208E-02  0.13709060E-02
  0.35042966E-02 -0.36006900E-03 -0.20094889E-02
  0.49866349E-03 -0.31745283E-02  0.74592797E-02
  0.42130738E-02 -0.40153128E-02  0.59150863E-02
  0.76056352E-03 -0.30280444E-02 -0.14883195E-02
 -0.70139450E-02 -0.86425639E-02 -0.42147661E-02
 -0.12356336E-02 -0.18048973E-02 -0.11875932E-02
 -0.27524352E-02  0.51128111E-02  0.16703905E-03
  0.65697485E-02 -0.11019672E-02 -0.58203505E-02
  0.57301471E-02 -0.43967838E-02 -0.12790076E-02
 -0.69023974E-02  0.12241241E-02 -0.61263236E-03
 -0.53996123E-02 -0.48215107E-02  0.12120815E-02
  0.31116389E-02  0.14827021E-02 -0.44462583E-02
  0.53516407E-03 -0.24577919E-02 -0.48518752E-02
 -0.50674430E-02 -0.50481765E-03 -0.48208966E-02
 -0.96558615E-02 -0.61298537E-03 -0.51491864E-02
  0.27870173E-02  0.64720652E-02  0.28447499E-02
 -0.80231965E-02 -0.45077334E-03 -0.66358198E-02
  0.60967009E-02  0.14684994E-02 -0.87995663E-02
 -0.20604621E-02  0.30934829E-02 -0.19991875E-02
 -0.95409638E-02 -0.38116895E-03  0.85759293E-02
  0.55321677E-02 -0.24040973E-02 -0.33325404E-02
 -0.68687085E-02 -0.19552043E-02  0.54942865E-02
  0.47353759E-02  0.14523622E-02 -0.42312606E-02
  0.17701991E-02 -0.27628857E-03 -0.38340757E-02
  0.35751332E-02  0.30155618E-02 -0.28707818E-02
 -0.63789216E-02  0.38038594E-02  0.33678790E-03
 -0.19702181E-02 -0.91409010E-03 -0.23578921E-03
  0.52764616E-04 -0.24872065E-02 -0.12534832E-02
 -0.13825421E-02 -0.18627897E-02 -0.51643026E-02
 -0.11197195E-02 -0.11930762E-02  0.88558111E-02
 -0.48393510E-02 -0.23530557E-02 -0.88039675E-03
 -0.51152241E-03  0.31106917E-02 -0.44841207E-02
 -0.24183166E-02 -0.92871145E-03 -0.18889287E-02
  0.89645240E-02  0.20102355E-03 -0.40935691E-02
 -0.27638664E-02 -0.54196885E-03 -0.34646825E-02
  0.25856535E-02  0.27818140E-02 -0.37511445E-02
  0.91134956E-03 -0.47582001E-02  0.65914708E-03
  0.27619079E-02 -0.29460272E-02 -0.15974174E-02
  0.32689380E-02  0.43577543E-02  0.42852300E-02
  0.51453022E-02  0.47308615E-02  0.15985205E-02
  0.86312366E-02 -0.98196180E-03 -0.31512182E-02
  0.57328330E-02  0.12746972E-02  0.18636763E-02
  0.91897500E-03  0.95984887E-03  0.48725488E-02
  0.92575872E-03  0.69166387E-03 -0.16970125E-02
 -0.66366188E-02 -0.80112025E-02 -0.30271252E-02
 -0.11940637E-02  0.18764866E-02  0.12902141E-02
  0.13911750E-02 -0.70147219E-03  0.22887025E-02
 -0.10914100E-02  0.33245702E-02  0.37823412E-02
  0.45851998E-02  0.27064006E-02  0.47931070E-02
 -0.39650896E-02 -0.34280280E-02 -0.21811222E-02
  0.83154639E-02  0.48795980E-03  0.53121820E-02
  0.33854074E-03 -0.30439111E-02  0.21877628E-02
  0.18988014E-02  0.13688273E-02 -0.86096296E-02
  0.47661841E-02  0.26955579E-02  0.32091250E-02
 -0.43026458E-03 -0.49131119E-03  0.16769408E-02
  0.26848762E-02 -0.39255664E-02  0.11870619E-02
 -0.20983350E-02  0.10803592E-01 -0.61798315E-03
  0.31029084E-02 -0.28836846E-02 -0.30794999E-02
 -0.21298191E-02  0.21821653E-02 -0.14540505E-01
  0.27833062E-02 -0.32350862E-02  0.55319448E-03
  0.35548125E-02 -0.77122116E-02 -0.38019940E-04
 -0.11755484E-02 -0.54761831E-02 -0.35339986E-03
 -0.14148233E-02 -0.42776546E-02  0.38141135E-02
 -0.10008125E-03  0.16045831E-03 -0.73010055E-04
  0.34862597E-02 -0.54763448E-02 -0.35121345E-02
 -0.34181370E-02  0.12419388E-02  0.41447519E-02
 -0.10192748E-02  0.12061545E-02 -0.11460081E-02
  0.13396970E-02  0.98921720E-03 -0.39827838E-03
 -0.33305757E-02  0.29806181E-02  0.17084625E-02
 -0.12164145E-02  0.33960568E-02 -0.19831385E-03
 -0.46977455E-02 -0.94609810E-03 -0.19192715E-02
 -0.24471854E-02  0.28118744E-02 -0.29348203E-02
 -0.47242464E-04 -0.70934736E-03 -0.76877498E-03
  0.10161495E-02  0.55816960E-03  0.13626311E-02
 -0.39822449E-04  0.45728653E-03 -0.38620847E-03
 -0.22025959E-03 -0.22713999E-02 -0.17995672E-02
  0.11803321E-02 -0.28849107E-02 -0.16630699E-02
 -0.51160906E-03 -0.70671536E-03  0.65669508E-03
 -0.26703293E-02  0.42473553E-03  0.21228355E-02
  0.47941705E-03  0.34383954E-03 -0.11027746E-02
 -0.20769384E-02 -0.61849578E-03 -0.11764846E-03
  0.15953984E-02  0.28017538E-02  0.17874988E-02
  0.29248770E-04  0.17641749E-02  0.20326108E-02
  0.29124018E-02  0.28240184E-02 -0.24050909E-02
  0.21946518E-02 -0.89537917E-02  0.54101271E-03
  0.29817296E-02 -0.50593022E-02  0.17655683E-02
  0.29548178E-02  0.16400124E-02 -0.85996104E-02
  0.21839494E-02 -0.29042850E-02 -0.10012754E-02
  0.37402842E-02 -0.23040951E-02 -0.13794300E-02
 -0.64130871E-02  0.64213768E-02 -0.57448940E-03
  0.46822709E-02 -0.73321968E-02  0.21137447E-02
  0.12087462E-02 -0.12912466E-02 -0.90289765E-02
  0.22305464E-02  0.35422285E-02 -0.89227123E-03
  0.85393519E-03 -0.26856158E-02 -0.22307425E-03
  0.38640545E-02 -0.10228608E-02  0.60234339E-02
  0.52258305E-03  0.19291859E-02  0.26719617E-02
 -0.47331357E-02 -0.39226097E-02 -0.11737779E-03
 -0.24606436E-02  0.13524921E-02  0.44187416E-02
  0.39860254E-02 -0.11005890E-02 -0.14494114E-02
 -0.30959718E-03  0.12954167E-02 -0.15451087E-02
  0.12640163E-01  0.22890115E-02 -0.28074886E-02
  0.82757250E-03  0.13127927E-03  0.31915108E-02
  0.10918541E-02 -0.94887471E-03 -0.61168526E-02
 -0.46132818E-02  0.48539830E-02 -0.36086782E-02
  0.45432520E-02  0.39514985E-02  0.40125681E-02
  0.42697446E-02  0.40496624E-03 -0.17522193E-02
  0.24266370E-02  0.45210094E-02  0.58787463E-02
  0.52815695E-02 -0.10571949E-02  0.18583046E-02
  0.49026487E-02 -0.12056288E-02 -0.14128487E-03
  0.19862014E-02  0.46990623E-04 -0.15877151E-02
 -0.23209560E-02 -0.23317473E-02 -0.16414362E-03
  0.17964612E-02 -0.61949514E-02  0.47989608E-02
  0.21205085E-02  0.24473016E-02  0.13896053E-02
 -0.12903419E-02 -0.22545222E-02 -0.31752432E-02
 -0.20786722E-02  0.38276162E-02 -0.12506417E-02
 -0.53497062E-03 -0.37048981E-02  0.10475553E-02
 -0.25366834E-03 -0.22829277E-02 -0.30731357E-02
 -0.12510769E-02  0.36817801E-02 -0.37340628E-02
  0.27872044E-02 -0.64561940E-02  0.27445987E-02
 -0.23233722E-03  0.65319171E-02  0.34120786E-02
  0.42775331E-02 -0.90514164E-03 -0.34416543E-02
  0.25592165E-02 -0.58706512E-03  0.35402218E-02
 -0.35706131E-02 -0.22280043E-02 -0.28040047E-02
 -0.23661921E-02 -0.20452177E-02  0.30662898E-02
  0.55314992E-03 -0.51381824E-02  0.63286799E-02
 -0.23340545E-02  0.15780326E-02 -0.28155419E-02
  0.16546417E-02 -0.10132390E-03 -0.20368530E-02
 -0.23102600E-02 -0.47828520E-03  0.37192258E-02
  0.63372861E-02  0.90138905E-03 -0.22608701E-03
  0.14864747E-02  0.11179578E-03 -0.45218099E-02
  0.74120250E-02 -0.25420321E-02  0.65959779E-04
  0.18472098E-02  0.68876747E-03 -0.80958305E-02
  0.13789468E-02  0.35286823E-02 -0.27586664E-02
  0.49235718E-04  0.42187695E-02  0.42508722E-02
 -0.72650705E-02 -0.21814331E-02  0.49228018E-02
 -0.48769600E-02  0.50733930E-02  0.10739423E-02
  0.21310831E-04  0.54839467E-03  0.38332846E-02
 -0.12944523E-03 -0.30177882E-03  0.14609637E-02
  0.51195142E-03  0.20954132E-02 -0.36291699E-02
  0.23679319E-02 -0.37778272E-02 -0.46760974E-02
 -0.26192238E-04  0.26130680E-02 -0.83983698E-03
  0.41558380E-02  0.86394828E-03  0.46675484E-02
 -0.54894194E-02  0.22634399E-02 -0.49408061E-02
 -0.37753804E-03  0.11858052E-02 -0.94720077E-03
  0.95160725E-04  0.15644378E-02 -0.44163341E-02
  0.37900938E-03  0.51245341E-02 -0.21310496E-02
 -0.47551425E-02 -0.47752458E-03 -0.14927328E-03
 -0.15649682E-02  0.36900191E-02 -0.54794163E-02
  0.30328132E-02  0.20602646E-02  0.44657151E-02
 -0.23929663E-02 -0.27188892E-02  0.87489676E-03
 -0.27065295E-02 -0.14538467E-02 -0.18769222E-02
  0.24197255E-02  0.18202334E-02  0.14682782E-02
  0.40288637E-02 -0.13948107E-02 -0.98173246E-03
 -0.46650765E-02  0.61414286E-03  0.23414231E-02
 -0.13804133E-02 -0.73458535E-02 -0.27438361E-02
  0.43042272E-03  0.57727648E-02 -0.52783068E-03
  0.11194149E-02 -0.24241679E-03 -0.64350448E-03
 -0.29221813E-02  0.27535427E-02  0.15150745E-02
  0.42405429E-03 -0.13438448E-02  0.53910935E-02
  0.77734547E-03 -0.20678913E-03  0.49398846E-03
 -0.52955140E-02 -0.62677651E-02  0.27960868E-02
  0.23575036E-02  0.25402987E-03  0.72114399E-02
  0.33723716E-02  0.70661906E-02  0.11853509E-03
 -0.56974856E-03  0.38027897E-02 -0.28748021E-02
  0.49392168E-02  0.28547042E-04 -0.20420170E-02
 -0.49694889E-02  0.97903813E-04  0.16848649E-02
 -0.28995180E-02 -0.69233307E-04  0.42080602E-03
  0.12124075E-02 -0.15921087E-02 -0.56187551E-02
 -0.31525786E-03  0.69400879E-03  0.93494618E-02
 -0.19196245E-02  0.18771394E-02 -0.53806574E-02
  0.33071508E-02  0.44530251E-02  0.31581467E-02
  0.45492304E-02 -0.49825343E-02 -0.34794440E-02
  0.52736740E-02 -0.88696628E-03  0.51289699E-03
  0.11221182E-02 -0.42125972E-02  0.23027899E-02
 -0.15807909E-02 -0.10267416E-02  0.54726554E-02
 -0.33461708E-03 -0.29176518E-02  0.12503988E-02
 -0.46890390E-02 -0.50208724E-02 -0.25788164E-02
  0.20628596E-02  0.23691554E-02  0.27530089E-02
  0.89579238E-03 -0.17748229E-02 -0.34274917E-02
  0.24649427E-04 -0.26163975E-02  0.62195942E-02
  0.39729708E-02  0.27012850E-02  0.78145961E-02
 -0.57243381E-02  0.98966888E-03 -0.58755408E-04
 -0.29660242E-02 -0.16754769E-02  0.58974219E-02
 -0.33619232E-02 -0.60418846E-03  0.27844242E-02
 -0.29935908E-02 -0.61282363E-02  0.91966084E-02
 -0.56323507E-03  0.53001651E-02  0.27988756E-02
 -0.21909385E-03  0.42472014E-02  0.45934471E-03
 
           1
   2.00000000000000     
  0.13358668E+01  0.36335932E-04  0.00000000E+00  0.00000000E+00
  0.98998974E+00  0.22136010E-01  0.12075312E+00
  0.51362549E+00  0.52641683E+00  0.62059898E+00
  0.54228677E+00  0.49783375E+00  0.75706413E+00
  0.31873854E-01  0.97341312E+00  0.37258814E+00
  0.20337518E+00  0.97909849E+00  0.88059387E+00
  0.30431823E-01  0.51201741E+00  0.38222371E+00
  0.97868129E+00  0.51576879E+00  0.12418858E+00
  0.24133182E+00  0.25412692E+00  0.11769788E+00
  0.71952362E+00  0.18593383E-01  0.62283618E+00
  0.73322709E+00  0.26493086E+00  0.87366724E+00
  0.78490298E+00  0.74183911E+00  0.36801861E+00
  0.25179534E+00  0.23496939E+00  0.87865268E+00
  0.72468255E+00  0.93715159E-01  0.12400912E+00
  0.26831503E+00  0.75848158E+00  0.61698228E+00
  0.98841246E+00  0.13003338E-01  0.77024392E+00
  0.28156652E+00  0.52459325E+00  0.36960003E+00
  0.96810240E+00  0.99922953E+00  0.63488575E+00
  0.25700373E-02  0.48235736E+00  0.63044713E+00
  0.48813387E+00  0.98304311E+00  0.12651650E+00
  0.66563995E-01  0.49268859E+00  0.86890698E+00
  0.55369727E+00  0.40694823E-01  0.37318493E+00
  0.27058781E+00  0.25876334E+00  0.37413789E+00
  0.77149746E+00  0.73777257E+00  0.87211075E+00
  0.74722686E+00  0.45803899E+00  0.61890778E+00
  0.21721100E+00  0.72419603E+00  0.15262996E-01
  0.23960601E+00  0.26987164E+00  0.62599914E+00
  0.74253239E+00  0.47583025E+00  0.12947374E+00
  0.75285956E+00  0.26217800E+00  0.36968343E+00
  0.49728820E+00  0.76637850E+00  0.50232565E+00
  0.52265650E+00  0.24346456E+00  0.12781844E-02
  0.27018133E-01  0.48853655E+00  0.50763168E+00
  0.45955261E+00  0.27797785E-01  0.73341910E+00
  0.25456808E-02  0.73218213E+00  0.26151455E+00
  0.50078066E+00  0.24900983E+00  0.76450649E+00
  0.99357917E+00  0.34763681E-02  0.98766893E+00
  0.51909591E+00  0.25900248E+00  0.49353183E+00
  0.49819292E+00  0.77053578E+00  0.99986507E+00
  0.43909057E+00  0.26423835E+00  0.24287675E+00
  0.10036224E-02  0.75169149E+00  0.77063669E+00
  0.47166457E+00  0.75968006E+00  0.24223962E+00
  0.32635830E-01  0.96980126E+00  0.24322950E+00
  0.51564747E+00  0.76428618E+00  0.74764319E+00
  0.49095995E+00  0.99104761E+00  0.87956855E+00
  0.98390170E+00  0.51168502E+00  0.26020554E+00
  0.22550407E+00  0.21604332E+00  0.99514969E+00
  0.74623444E+00  0.74576443E+00  0.48540655E+00
  0.18143781E-01  0.77479681E+00  0.49083600E+00
  0.75695546E+00  0.27166286E+00  0.92616745E-02
  0.98204292E+00  0.25453904E+00  0.73967413E+00
  0.47190648E+00  0.50649424E+00  0.28317555E+00
  0.43226748E-01  0.48933644E+00  0.74681080E+00
  0.53209309E+00  0.18222537E-01  0.25468559E+00
  0.24269058E+00  0.25297311E+00  0.49941106E+00
  0.74776537E+00  0.76672165E+00  0.99504276E+00
  0.74951708E+00  0.22970534E+00  0.51331010E+00
  0.98052948E+00  0.75497430E+00  0.98581918E+00
  0.99454078E+00  0.26476972E+00  0.41170249E-02
  0.50444242E+00  0.52626670E+00  0.48152731E+00
  0.50435513E+00  0.48323292E+00  0.12236678E-02
  0.12634946E-01  0.99169445E+00  0.50087469E+00
  0.49475951E+00  0.12331554E-01  0.99756520E+00
  0.14051642E-01  0.25070225E+00  0.51728819E+00
  0.10219795E-01  0.48884750E+00  0.99236740E+00
  0.51103942E+00  0.11499418E-01  0.48803462E+00
  0.62863537E-01  0.20163307E+00  0.25546174E+00
  0.74737723E+00  0.73885622E+00  0.74767477E+00
  0.23552856E+00  0.75028236E+00  0.22779864E+00
  0.72968982E+00  0.26226913E+00  0.71455489E+00
  0.73546112E+00  0.74414682E+00  0.24987509E+00
  0.23337748E+00  0.24098515E+00  0.76577792E+00
  0.73842380E+00  0.23136433E+00  0.23420109E+00
  0.22865234E+00  0.74589211E+00  0.74356598E+00
  0.19843266E+00  0.53596768E+00  0.13402560E+00
  0.47161022E+00  0.25359248E-02  0.62538930E+00
  0.74087972E+00  0.18082431E-01  0.87704459E+00
  0.26999997E+00  0.75301391E+00  0.41009741E+00
  0.34492399E+00  0.50269451E+00  0.88208593E+00
  0.78150871E+00  0.14800502E-03  0.37428881E+00
  0.74368441E+00  0.78071179E+00  0.12064028E+00
  0.28294106E+00  0.51407442E+00  0.62005764E+00
  0.77473574E+00  0.49449202E+00  0.86220963E+00
  0.27269563E+00  0.99722734E+00  0.38210056E+00
  0.72684734E+00  0.74547023E+00  0.62043450E+00
  0.23486268E+00  0.95537813E+00  0.12840845E+00
  0.21766078E+00  0.98376481E+00  0.62943627E+00
  0.50129636E+00  0.51522433E+00  0.12723930E+00
  0.23068930E+00  0.73584772E+00  0.87995296E+00
  0.73737207E+00  0.49519081E+00  0.38169791E+00
  0.27814127E+00  0.21874221E-01  0.25905155E+00
  0.79058214E+00  0.50167669E+00  0.74205403E+00
  0.22265488E+00  0.99278701E+00  0.75037446E+00
  0.72849568E+00  0.48953511E+00  0.25975853E+00
  0.24635209E+00  0.96581784E+00  0.13237304E-02
  0.78460222E+00  0.49055217E+00  0.50336776E+00
  0.26802474E+00  0.14719670E-01  0.50406175E+00
  0.75540453E+00  0.51637995E+00  0.99731399E+00
  0.72785789E+00  0.99056575E+00  0.75053859E+00
  0.22754541E+00  0.47972664E+00  0.25063403E+00
  0.29801149E+00  0.49908364E+00  0.75465200E+00
  0.78023006E+00  0.98641507E+00  0.24684166E+00
  0.28124130E+00  0.50118334E+00  0.49932175E+00
  0.74276199E+00  0.98935131E-02  0.51942220E-02
  0.76284914E+00  0.99321970E+00  0.49701700E+00
  0.27142396E+00  0.47376820E+00  0.99202011E+00
  0.38142070E-02  0.25718706E+00  0.39221643E+00
  0.52101118E+00  0.73739875E+00  0.87260867E+00
  0.48531441E+00  0.24027454E+00  0.62721866E+00
  0.98430512E+00  0.75955278E+00  0.12177709E+00
  0.98605536E+00  0.23472829E+00  0.87302397E+00
  0.51703455E+00  0.76078182E+00  0.37679667E+00
  0.44352867E-02  0.73723909E+00  0.63604020E+00
  0.49873966E+00  0.26065456E+00  0.12010446E+00
  0.14170119E+00  0.39249108E+00  0.47607049E-01
  0.64326678E+00  0.89292993E+00  0.54671708E+00
  0.63921329E+00  0.12941548E+00  0.95894702E+00
  0.15699679E+00  0.58770763E+00  0.45142819E+00
  0.37426431E+00  0.35423681E+00  0.95828082E+00
  0.87340440E+00  0.89418526E+00  0.44624771E+00
  0.85401683E+00  0.11655223E+00  0.52118642E-01
  0.38266233E+00  0.62032000E+00  0.54269872E+00
  0.88688976E+00  0.80883918E-01  0.19677095E+00
  0.39842248E+00  0.59234516E+00  0.69872110E+00
  0.88011355E+00  0.88072701E+00  0.29967227E+00
  0.37816618E+00  0.38303742E+00  0.80480047E+00
  0.15289589E+00  0.59962666E+00  0.30159727E+00
  0.62082368E+00  0.90914485E-01  0.80097049E+00
  0.11106397E+00  0.41115791E+00  0.19518215E+00
  0.63311596E+00  0.90293140E+00  0.69407716E+00
  0.86308661E+00  0.60727947E+00  0.93850874E+00
  0.35281204E+00  0.10764320E+00  0.44538666E+00
  0.89204505E+00  0.39126586E+00  0.55075198E+00
  0.35084820E+00  0.87551613E+00  0.56954374E-01
  0.16824059E+00  0.11359617E+00  0.56154255E+00
  0.65114541E+00  0.62079865E+00  0.51567142E-01
  0.13982968E+00  0.85686978E+00  0.95151749E+00
  0.67348153E+00  0.37482203E+00  0.45868450E+00