Na88 Ge16 P8 Se96                       
   1.00000000000000     
    13.9614333504000001    0.0000000000000000    0.0000000000000000
     0.0000000000000000   13.9614333504000001    0.0000000000000000
     0.0000000000000000    0.0000000000000000   27.9228667008000002
   Na   Ge   P    Se
    88    16     8    96
Direct
  0.2301828403749737  0.0139678783480527  0.1290332910351988
  0.4933355638114362  0.5057156982701440  0.5125523788689115
  0.2859807695767261  0.5539054207457336  0.8873880990741890
  0.5167266046114045  0.0248686625554855  0.3640153275763497
  0.3024571305211459  0.9770292393841788  0.8817063271821471
  0.2725601923242108  0.5547889166460942  0.3667845060635335
  0.9767663207334847  0.4866723773564703  0.1322488140012913
  0.9591057677597402  0.2706201714257725  0.2524047833871881
  0.7868182702855896  0.8806416968780025  0.6215184248118782
  0.6465545531434902  0.2335239327558671  0.8931347936713252
  0.6941165625097975  0.7911870802065748  0.4221748348851581
  0.2613372625787267  0.2634758189176089  0.8570466612020380
  0.7438753589152245  0.2033827057785683  0.1116128012293399
  0.2326493058802018  0.7358260382106659  0.4802903613235245
  0.9498081560423229  0.9569667032983705  0.8896526801929987
  0.4851865737977732  0.5034020701542352  0.3778721221643366
  0.2681628579023704  0.7780973660135089  0.6012380560327051
  0.9673968151694171  0.4374669891923638  0.4642403672130161
  0.4452795676374700  0.9633382842658192  0.1378112942806484
  0.8004859795863610  0.7770139534009951  0.8532801217268909
  0.0008937594942019  0.0169512977348699  0.3646000133122241
  0.3422603481776262  0.2539524600756842  0.3620930194505719
  0.8275907801327317  0.6979567911883673  0.7361865609902531
  0.8239624804672889  0.4999362617936577  0.6351140063704910
  0.1678667332709144  0.6002213586377758  0.1185095749177063
  0.3420304993376555  0.1772796536019712  0.7105681723569398
  0.7974105296820440  0.7551531684142103  0.1727766516721635
  0.7542582914082150  0.5096178280777466  0.3857377927555774
  0.4786188998087902  0.7568151325490152  0.5105960055432321
  0.4371924119003283  0.1842688271839028  0.9900853756904372
  0.9758540337865353  0.5858913751787974  0.3667234733169872
  0.5480250978586100  0.7310500665699291  0.7603475323669118
  0.0583683180688506  0.7658532317574982  0.2612713004823383
  0.5443115276280938  0.5404353011313712  0.7975427965478353
  0.0340220993554416  0.9086265703607971  0.0409439073944122
  0.5065039933583976  0.9907302947609714  0.5125809702727975
  0.6448742356661417  0.7137289617747811  0.9738021421998523
  0.1362400083691028  0.3645779890724921  0.3131107740545525
  0.9937965597333498  0.1040880170100843  0.7852083776673618
  0.5074707629749406  0.7411219307806626  0.2351565372878243
  0.9896167891279075  0.0060587603813418  0.2131757334039590
  0.5292277314445440  0.3736264465698179  0.7387424397731790
  0.4583313002832204  0.9793873406818498  0.8143777494313611
  0.9449567116306170  0.4910982916478977  0.2463983701574405
  0.2034269774209231  0.2299129630812438  0.0046943227511726
  0.8314201194391868  0.7295375138950255  0.5270708749202533
  0.0119801926624462  0.9653127652687165  0.5029230507014758
  0.7565445476061692  0.2454258197435062  0.9742503320006896
  0.9723531574797183  0.0550801781049557  0.6263319448231446
  0.4838034291952205  0.5382843921186637  0.1193086269781853
  0.0448840980237504  0.5184405769423794  0.7516865539994432
  0.5233872263680314  0.0120161228031399  0.2481132929107315
  0.3077054510299897  0.2356270043549780  0.5630729709990089
  0.8309338724454658  0.7292271776167979  0.0536237238996724
  0.6989496800087713  0.2141186529239769  0.4919727057712436
  0.2244011209061546  0.7429179149549058  0.0208696510026160
  0.9719349946597939  0.1721235407466359  0.9963417671168963
  0.4809678657749398  0.2847987905019880  0.4843660244912550
  0.4587839909589357  0.5085273945887930  0.9834062628638666
  0.0731009710794933  0.2478185302541536  0.4964204117240778
  0.4531358572191531  0.9217198538595415  0.0065657383236018
  0.5344653332950720  0.5128314005164851  0.6367600347601898
  0.9805364790903804  0.4390549545815966  0.9942186649550649
  0.5431890798192950  0.9898006978858150  0.6901128725933044
  0.3441493863370702  0.2325389077136181  0.2220510203836538
  0.0448076776611358  0.8121886547574481  0.7512936988426033
  0.2796492416571269  0.7846291211282211  0.3244375744557252
  0.8046342242654461  0.2318085502713834  0.7532763618744253
  0.7472221892041888  0.7758501669905385  0.2604029368641017
  0.0478725235188509  0.2820634142748049  0.7075809745592831
  0.6515090311810456  0.2587397034963037  0.2401242455095021
  0.2680300222437288  0.7149674872160774  0.7392021772004942
  0.3136776476265208  0.3755103516427744  0.1065278889275186
  0.7148732175340038  0.1301363685108102  0.6041108855929656
  0.6983299742293212  0.9689035329474490  0.8926305056250653
  0.1917300318405650  0.0982620233937068  0.3790444007965026
  0.0752549710513386  0.4523159604670268  0.8688584906323400
  0.7649957720553596  0.2754470036375589  0.3612359887150311
  0.7015908019225651  0.9649182902314875  0.1079508175292981
  0.0278176886271137  0.5095548772180739  0.5932983119694557
  0.8148103203960844  0.4523957407409879  0.8718366334667184
  0.7785635575037753  0.9881270161629727  0.3508665729469072
  0.2447894006297820  0.4732989604317037  0.6372379324687728
  0.0782444164615001  0.2529673291281916  0.1314791805101777
  0.2372045356897939  0.9862211853315213  0.6288735973731121
  0.7059947017852503  0.4332462903531838  0.1363524887773938
  0.1962809156076026  0.7580157328956637  0.8636803436838184
  0.4864405611888136  0.4947966198467051  0.2537243894357503
  0.2587774306899784  0.0115689089002547  0.2476262686368428
  0.7987675316981883  0.4897760395195874  0.7636362950145794
  0.2192247649552815  0.0150148745607722  0.7556671275322513
  0.7298436131841627  0.4924610677954175  0.2608310554743603
  0.2337049285587835  0.9893059993634423  0.9948991561735220
  0.7458931120664833  0.5052628450139818  0.5099216459971190
  0.2606894222263441  0.0295147017511732  0.4950699327933203
  0.7461677323933048  0.4705452066076570  0.0174371922820233
  0.7467237734484117  0.9584566264267208  0.7365422638721502
  0.2272356352345221  0.4999436946573851  0.2417280671375314
  0.2916416803331236  0.5067394836450485  0.7538341454122137
  0.7868885345898861  0.0216712725021598  0.2506968829825122
  0.2507603048924896  0.5030198888960286  0.4908907044863792
  0.7256315152155752  0.9578422626598768  0.0047072748167820
  0.7721451779145985  0.9763793808389241  0.4732475098630851
  0.2292049094343762  0.4899556191676478  0.9956122119462010
  0.0158987562764682  0.2657176192114233  0.3770808056228186
  0.4762618672196448  0.7652221917023015  0.8943273616008298
  0.5333446693233002  0.2606977270460788  0.6252540903073068
  0.0106241181237753  0.7742615446948391  0.1314677781623045
  0.9648673676498212  0.2071089886920118  0.8778526105736328
  0.5163452586563483  0.7479757304809707  0.3677610094424869
  0.0467025151984433  0.7416849516151499  0.6253967962828043
  0.4784993961059289  0.2204678300312763  0.1237919502626268
  0.1426834473202470  0.3985270897984881  0.0507876522318216
  0.6911259963651176  0.8814368099649013  0.5277042541064053
  0.6353449281856491  0.0908484959988244  0.9638375696637578
  0.1351976767620837  0.5825919057743850  0.4419770214615391
  0.3085579136976609  0.3757806293929535  0.9439863923301097
  0.8904740738294329  0.8976003451127581  0.4253783716997858
  0.8189910955138154  0.0761496146123775  0.0463495642134164
  0.3535269626097400  0.6111032706830923  0.5426513580368846
  0.8684430263705976  0.1309213010441756  0.1968673530260376
  0.3986168773985878  0.5932760752971148  0.7064714591313668
  0.8899968348465397  0.9014581389458401  0.2855532758830857
  0.3834016404940492  0.4313064399873177  0.8158094226507585
  0.1474927410183074  0.5973560130314046  0.2908945248369025
  0.6412476210740370  0.0895883348852149  0.7779174272769861
  0.1156934680612894  0.3932689497915270  0.1993128049333763
  0.6741881166356666  0.8253147256308341  0.6982803331182394
  0.8473158726602447  0.5521149694240651  0.9582785058340919
  0.3869043534126070  0.0964992358684374  0.4572503600112005
  0.8710322193775285  0.3983725236242867  0.5537934172296107
  0.3081211232013025  0.9033576879630063  0.0593172261485423
  0.1636592402109755  0.1037316118047424  0.5496262206716502
  0.6750298541629451  0.5981534490408341  0.0632482176091577
  0.1327310383646315  0.8888742610165872  0.9464546302639325
  0.6598282848283473  0.4004675536594406  0.4503908713814703
  0.6242631184648014  0.3885228034686942  0.3085634923518001
  0.1199124952121328  0.9489493651421221  0.8212720396516616
  0.1003076812173286  0.0948225964132967  0.7059755563555716
  0.6540722932029313  0.6024634479418919  0.1963349242823178
  0.8959437795923202  0.4075458389494016  0.7110103590362127
  0.3429642164174575  0.8798011537162007  0.2080744323001053
  0.3711177619859702  0.0895888450113409  0.2979800058462382
  0.8973640796156988  0.5957327045520590  0.8144058012558986
  0.1289284126951179  0.0713703671668703  0.0434701145971733
  0.6664431048862172  0.5945025841728904  0.5653972072407878
  0.6276276209334199  0.4069353745550296  0.9532866039728227
  0.1813419895652997  0.9204927956445556  0.4293809692819599
  0.3180167129593626  0.0965015906910048  0.9501418496889206
  0.8335649566401436  0.6044544843387468  0.4572194277860583
  0.8556675714597649  0.3584654330469734  0.0715441827564421
  0.3563633092213562  0.9137291755838653  0.5551382961081719
  0.1928083879633160  0.1462980068063889  0.1943476218966648
  0.6871341177938786  0.5726431424999101  0.7156588641948667
  0.1412842252057660  0.9357994713337137  0.2998416737926603
  0.6943756021850460  0.3852558964935899  0.8012112858053065
  0.8090323239558102  0.6228845196106357  0.3058860077200004
  0.3289043693731920  0.1268819083156453  0.7963969801299539
  0.8124054371634065  0.3600118820961759  0.2152166561754040
  0.3301236203019433  0.9320888387137444  0.7121763831798976
  0.8188755735238273  0.8584995894984512  0.9498477428203633
  0.3746783438335464  0.4279515584988404  0.4492230348822995
  0.8421980640323473  0.0788714413555529  0.5313594746090388
  0.3349197419691063  0.5877054674595680  0.0434569246615368
  0.1850455041713473  0.3889614847925171  0.5393483405468260
  0.6483493097686515  0.8437513150286351  0.0415626785573494
  0.1231311205369436  0.5893030419557798  0.9358665502407068
  0.6623609403509528  0.0629025339942458  0.4278246975019349
  0.3312246411698471  0.3979111845671219  0.2991783395313936
  0.8810210191076373  0.8981671787781794  0.7811299168229332
  0.8216865986451365  0.0689584239878932  0.6833990708456004
  0.3363341248268699  0.5788765923786192  0.1840249017656581
  0.2239373065069724  0.3770944464302672  0.7157197706846585
  0.6748529501254830  0.9065567454889782  0.2006434242974556
  0.6740083155705348  0.1206577940052489  0.2926870113276462
  0.1868301483606244  0.5940289988581930  0.8016670409444964
  0.0628367058154305  0.1787918145876866  0.3135938001898587
  0.5957696306363569  0.6824802433948893  0.8661295504458566
  0.6286008076194755  0.2436007154996365  0.6859141488324745
  0.1505671948322138  0.8366032301505195  0.1641841179299368
  0.4723516068209777  0.1019201278169680  0.6121969462676906
  0.9526846420929574  0.6608982667056094  0.1876105942250716
  0.9313624703743449  0.3957507858268667  0.3488117360660938
  0.4074390616936599  0.7968996448352582  0.8200477639979472
  0.0677245760953064  0.1281514860467968  0.9192204708022131
  0.5910211855696811  0.6509194266529513  0.4170068340842849
  0.0685044363612850  0.8872864143428362  0.6558078797002046
  0.3411865983145272  0.1697964909670207  0.1025628238207343
  0.0903860671102727  0.7168336900956344  0.5560990605071842
  0.4661182233465507  0.3506826829381036  0.1724538870730157
  0.9210133287546647  0.3126648478900944  0.9301871182748478
  0.4277336401967068  0.8515444251332749  0.4046890920184217
  0.8760514967996876  0.7113223288429227  0.6254721603875583
  0.5834250475261396  0.2847054915840425  0.0644026472249082
  0.8218541651541879  0.1263910225056441  0.8522694158537575
  0.4449206049331207  0.6503200818872515  0.3123096949467734
  0.0240117387127494  0.2933660192583581  0.8174647357332844
  0.6309812862096524  0.8479840729446448  0.3264910255320418
  0.1306431279078889  0.6409998057800657  0.6728258718800791
  0.5774855524828436  0.1069544999964528  0.1681554305027854
  0.3965590276202188  0.3388655910089173  0.6503533613695878
  0.9096809976432090  0.8974258551929775  0.1348915189785762
  0.9285863875528840  0.1677166444658645  0.4229360028820022
  0.3951211251898431  0.6871478468978225  0.9512180109354266
  0.1434958512534045  0.3161647721232825  0.4152990434034945
  0.5205528785079732  0.9025523197738160  0.9141923168875539
  0.5807322744470091  0.3220958098351735  0.5557411373278387
  0.0335644915681281  0.6863783430658473  0.0680475369178756
 
  0.97698173E-02  0.16436111E-02 -0.93736476E-02
  0.23969956E-02 -0.43253828E-02  0.18966298E-02
 -0.51365128E-02  0.34243531E-02 -0.39124966E-02
 -0.24851276E-02  0.78798489E-02  0.65032443E-02
 -0.16786329E-02 -0.94041995E-02 -0.31092604E-02
 -0.73163377E-03 -0.12483250E-02  0.35868969E-02
  0.47874866E-02  0.85272600E-03  0.15843971E-02
 -0.59149369E-02 -0.19065630E-02 -0.72156182E-02
 -0.14249116E-02 -0.34993697E-02 -0.18430684E-03
 -0.19374711E-02  0.36124444E-02 -0.44818580E-04
  0.77777457E-02 -0.58153135E-02 -0.10405857E-02
 -0.29471395E-02  0.79522756E-02  0.51034506E-02
 -0.15287573E-01  0.37202539E-02  0.58887839E-02
 -0.21932428E-03  0.85944471E-03  0.48398939E-02
 -0.26429869E-02  0.10981540E-01  0.44971995E-02
 -0.62979620E-02  0.58138166E-03 -0.25806647E-02
 -0.81802396E-03 -0.13065119E-01  0.16125272E-02
  0.11540215E-01  0.60459604E-02 -0.10595820E-03
 -0.85620944E-02 -0.11621425E-02  0.57484605E-02
 -0.81256075E-02  0.11495858E-01 -0.71956663E-02
  0.70608054E-03 -0.33859763E-02 -0.37122056E-02
 -0.38791451E-02  0.13770560E-01 -0.51388134E-04
  0.52271943E-02 -0.26123972E-03  0.56117408E-02
  0.15856782E-01  0.80387769E-03  0.51334642E-02
 -0.40214248E-02 -0.98565806E-02  0.11300130E-01
  0.42694088E-02 -0.89945554E-02 -0.13253489E-01
 -0.13360888E-02 -0.52269128E-02  0.50905491E-03
 -0.51455283E-02 -0.39681047E-02 -0.67126016E-02
  0.37367647E-02  0.23094291E-02  0.55154153E-02
 -0.50973397E-02  0.62664155E-02  0.67255795E-02
  0.93743563E-03  0.52192372E-03  0.79707886E-02
  0.89777692E-03  0.65566951E-02 -0.10492559E-01
 -0.66149112E-02  0.44356883E-02  0.68822980E-02
  0.33000354E-02  0.85547470E-03  0.14394291E-02
  0.68254252E-02 -0.83087540E-03 -0.51318539E-02
 -0.56866883E-02  0.38069864E-02 -0.74977768E-03
 -0.30373615E-02 -0.69127684E-02 -0.15649646E-02
 -0.36999658E-03  0.44631911E-02  0.36419709E-02
  0.11457308E-01  0.61464171E-02  0.92183059E-02
 -0.85966976E-02 -0.32571841E-02  0.55786953E-02
 -0.55684310E-02  0.23398408E-02 -0.74341175E-03
 -0.36525486E-02  0.10167436E-02 -0.10983371E-02
 -0.22063439E-02  0.87956232E-03 -0.74649729E-03
 -0.53693589E-04  0.21208216E-02 -0.18546980E-02
  0.46435658E-02 -0.18442129E-02 -0.54336854E-02
 -0.86816379E-02  0.31817584E-02  0.21430397E-02
  0.42582323E-02 -0.78699428E-02 -0.95282436E-03
  0.19548652E-02 -0.61420709E-04 -0.21628647E-02
  0.10966413E-02  0.85024807E-02 -0.19962448E-02
  0.89911031E-02  0.93816426E-02  0.23616887E-02
  0.87000556E-02  0.76012302E-04 -0.40048886E-02
 -0.87749711E-02 -0.27737227E-02  0.41944018E-02
 -0.13129697E-02 -0.76102908E-02 -0.28319924E-02
 -0.28317861E-02 -0.11183841E-01  0.71474649E-02
 -0.26635990E-02  0.54627073E-02  0.37357070E-03
  0.52460215E-03 -0.43653241E-02  0.20293241E-02
  0.13499924E-02 -0.19013091E-02  0.42349064E-02
 -0.97000960E-02  0.19156497E-02 -0.34636946E-02
 -0.61284710E-02  0.49422540E-02 -0.41002019E-02
 -0.56563549E-03 -0.14913919E-02 -0.60577702E-02
 -0.75158080E-02 -0.54294484E-03 -0.59366412E-03
  0.47238605E-02  0.47708015E-02 -0.55125634E-02
  0.98886362E-03 -0.51563071E-02 -0.78568900E-02
 -0.20494258E-02  0.34061148E-03  0.16664195E-02
 -0.23971475E-02  0.49740914E-02  0.32474599E-02
 -0.16497221E-03  0.32777612E-02 -0.94399956E-03
 -0.49168975E-02 -0.60141375E-02 -0.60364935E-03
  0.65799915E-02  0.32359087E-02 -0.43204357E-03
 -0.71959790E-02 -0.11903332E-02  0.10812584E-01
 -0.31993813E-02 -0.54888936E-02  0.12231560E-02
 -0.15973378E-03  0.49503992E-02 -0.27818910E-02
  0.41336097E-02  0.62311166E-02 -0.50259671E-02
  0.85889726E-02  0.23209188E-02  0.70434679E-02
  0.19346770E-01 -0.66060639E-02  0.68001176E-02
  0.24089353E-02 -0.28166018E-03  0.38237258E-02
 -0.20060517E-03  0.89544780E-02 -0.48822521E-02
  0.83805218E-02 -0.70216092E-02  0.62456365E-02
 -0.51971936E-02  0.75904334E-02  0.89777256E-05
  0.71800890E-02 -0.44118380E-02 -0.23493263E-02
  0.97444494E-02 -0.30074086E-02 -0.10460991E-01
  0.35432077E-03 -0.12367690E-02 -0.11869842E-02
  0.19428051E-02 -0.11013868E-01 -0.24186542E-02
 -0.72133912E-03 -0.46010848E-02 -0.62664838E-03
 -0.56760636E-03 -0.35856980E-02  0.81146185E-02
 -0.55591451E-02 -0.13428540E-01  0.11625777E-02
 -0.69837977E-02  0.28499326E-02  0.46474039E-03
 -0.42504728E-02 -0.23319514E-02 -0.55404496E-02
  0.75523824E-02 -0.14250553E-01 -0.10785021E-01
  0.11117120E-02  0.12290070E-02  0.21919446E-02
  0.52974966E-02  0.16034858E-02  0.95151081E-03
  0.60991657E-02 -0.27525505E-02  0.11552716E-03
 -0.22351136E-02 -0.56716916E-03 -0.17112482E-02
 -0.74799517E-03 -0.30099576E-03 -0.23242227E-02
  0.53410933E-02 -0.16335561E-02  0.15297097E-02
 -0.19530046E-02 -0.58837378E-02 -0.32883999E-03
 -0.14269513E-02  0.25154528E-02  0.23740234E-02
  0.12756822E-02  0.80333089E-02 -0.19507413E-02
  0.16682035E-02 -0.51806724E-02  0.44137196E-02
  0.37477895E-02 -0.26263702E-02  0.20544753E-02
  0.30206204E-02 -0.26693422E-02 -0.62982703E-02
  0.61883411E-03  0.62226067E-03  0.37640234E-03
 -0.48788935E-02  0.71085359E-03 -0.40825682E-02
 -0.71175452E-03 -0.44822259E-02 -0.17237337E-02
 -0.25917729E-03 -0.26935282E-02  0.34646317E-02
  0.32472145E-02 -0.36958432E-02 -0.16179051E-02
  0.78443202E-02  0.38545168E-02  0.59288248E-02
 -0.32952849E-02 -0.26895016E-02 -0.18917039E-02
 -0.19650205E-02 -0.42518689E-03  0.10407189E-02
  0.37767967E-02 -0.61833046E-02  0.59771369E-02
 -0.58551252E-02  0.10278845E-01  0.20536841E-02
 -0.89351948E-03 -0.81190588E-04  0.53685775E-02
  0.21713107E-02 -0.10505500E-02 -0.90006758E-05
  0.16561901E-02 -0.11869074E-02  0.73828078E-03
 -0.17942617E-02 -0.23421984E-02  0.29391066E-02
 -0.65209535E-04 -0.43885824E-02 -0.48444747E-02
  0.25667098E-02  0.44126481E-02 -0.63512378E-03
 -0.43400513E-02  0.40981823E-03 -0.11493601E-02
  0.15716707E-02  0.82118213E-02  0.19575052E-02
 -0.14983438E-02  0.15550073E-02  0.76542806E-03
  0.42000919E-02  0.29020659E-02 -0.19601488E-02
 -0.71692837E-02 -0.40105683E-02  0.52363759E-02
 -0.12255943E-02  0.52518925E-03 -0.12706644E-02
 -0.16454373E-02  0.38869931E-03  0.48985673E-02
  0.20588042E-02  0.53877898E-02 -0.51158471E-02
  0.38703333E-02  0.31205804E-02  0.63863764E-02
 -0.27800882E-03 -0.43764121E-02 -0.22316717E-02
 -0.20114170E-02  0.59241244E-02 -0.29774570E-03
  0.39478242E-02  0.12626144E-02 -0.80292859E-03
  0.11980063E-02 -0.93056946E-03 -0.32440259E-03
 -0.17828936E-03 -0.47261471E-02  0.93232140E-03
  0.13518245E-02 -0.24969604E-02  0.16479977E-02
  0.19980837E-02  0.79641970E-02 -0.28313772E-03
 -0.14958788E-02  0.96378374E-03  0.49761975E-02
  0.27338157E-02 -0.37605820E-02 -0.49596012E-02
 -0.55281300E-03 -0.75211830E-02 -0.19476532E-02
  0.23633659E-04 -0.32968089E-03 -0.23532500E-02
 -0.70422752E-03 -0.12859711E-02  0.19215006E-02
  0.26924707E-03  0.28377828E-02 -0.13449663E-02
 -0.24379353E-02  0.75627631E-03  0.41462201E-02
 -0.10158198E-03  0.28910950E-03  0.30908590E-02
 -0.93801493E-03 -0.19741288E-03  0.51959302E-02
  0.21177283E-02 -0.19824632E-02  0.89185270E-03
 -0.24985075E-02  0.50645276E-03  0.79282311E-03
 -0.51935540E-03 -0.39248195E-02  0.34614004E-02
  0.38512935E-02 -0.62367703E-02 -0.67915325E-03
 -0.19466623E-02 -0.56124050E-02 -0.16201151E-02
  0.10611924E-03 -0.37331589E-02  0.31762055E-02
 -0.34219801E-02  0.16678468E-02 -0.12646623E-02
  0.23337597E-02  0.27555088E-02 -0.14014593E-02
  0.19267295E-02  0.60464425E-02 -0.54109038E-02
  0.33856721E-02 -0.57546684E-04  0.16607326E-02
  0.20877380E-02  0.14615101E-02 -0.35084274E-02
 -0.51701679E-02  0.89741679E-05 -0.20747723E-03
 -0.16380271E-02 -0.16989717E-02  0.17934231E-02
 -0.30740137E-02 -0.58179105E-02 -0.99586791E-03
  0.22557444E-02  0.10504796E-02 -0.41536992E-02
  0.75678371E-03  0.51924807E-02  0.43057954E-02
 -0.26507143E-02  0.26768772E-03 -0.70372664E-03
 -0.19180479E-02  0.13004037E-02 -0.12979165E-02
 -0.42168552E-02 -0.63276045E-02 -0.17533541E-02
 -0.18407364E-02  0.22712070E-02  0.24437002E-02
 -0.46682175E-03  0.50375928E-02 -0.63385356E-03
 -0.13199126E-02 -0.38424651E-04 -0.14570958E-02
  0.73695280E-02 -0.44776792E-02 -0.15259611E-02
 -0.23844268E-02  0.11999902E-02 -0.35143815E-02
 -0.39941960E-02  0.18598066E-02  0.41997098E-02
  0.21650987E-02  0.50176169E-02  0.11197504E-02
 -0.29061130E-03 -0.67286586E-02 -0.39269906E-02
 -0.13872487E-02  0.30231736E-02  0.81611776E-03
  0.39063171E-02 -0.13780841E-02 -0.62229052E-02
  0.50489275E-02  0.29789925E-03  0.32247047E-02
  0.22182956E-02  0.58394347E-03 -0.16365355E-02
  0.37417654E-02  0.44670190E-02  0.16578133E-02
 -0.23080578E-02 -0.25277937E-03  0.32440939E-02
 -0.50126824E-02 -0.21091100E-02  0.98916539E-03
 -0.66839511E-02 -0.98646305E-03 -0.35551168E-02
  0.11183120E-02 -0.14180871E-02  0.36607674E-02
 -0.55723076E-03 -0.27540314E-02  0.30876870E-02
 -0.12836012E-02  0.77997161E-03 -0.38582862E-02
  0.82588124E-03  0.19759311E-04 -0.94303310E-03
 -0.23250232E-02  0.95715365E-03  0.61613235E-02
  0.26427016E-02  0.20577350E-02 -0.79683374E-03
  0.42864591E-02 -0.78001069E-04 -0.36444150E-02
  0.14773230E-02  0.22522186E-02  0.74180446E-04
  0.49169262E-02  0.73693163E-03 -0.23585352E-02
  0.46330311E-02  0.25635423E-02  0.69887509E-03
 -0.81773049E-02  0.42013964E-02  0.40969083E-02
  0.55678699E-03  0.33614093E-02  0.11805833E-02
 -0.75660607E-02 -0.36931944E-02  0.17937872E-02
 -0.52244613E-02 -0.13018429E-02  0.17764023E-02
 -0.54076418E-03  0.31092872E-02 -0.25712571E-02
  0.50357533E-03 -0.10477194E-02 -0.24781822E-02
 -0.10914145E-02 -0.73093799E-04 -0.39924543E-02
 -0.35259480E-02 -0.34159159E-02  0.19716860E-02
 -0.58034379E-02 -0.15736035E-02 -0.26044335E-02
 -0.98314465E-03  0.54944787E-03  0.14824504E-02
 -0.46646521E-03  0.22640203E-03  0.37675011E-02
  0.22451385E-03  0.34826739E-02 -0.17831993E-02
  0.17328268E-02  0.92650821E-03 -0.21371873E-02
 -0.29030931E-03  0.17727176E-02 -0.10038522E-02
  0.63365221E-02 -0.22644259E-04 -0.89941172E-04
  0.19598361E-02 -0.17480112E-02 -0.11183274E-02
  0.30979972E-03  0.18609446E-02  0.29291413E-02
  0.29269091E-03 -0.25717924E-02  0.36057675E-03
  0.96050205E-03  0.37996013E-02 -0.23875408E-02
  0.36819553E-03  0.51596810E-03 -0.38826555E-02
 -0.45970665E-03  0.43410496E-02 -0.83674439E-02
 -0.63452498E-03 -0.27852690E-02 -0.12955842E-02
 
           1
   2.00000000000000     
  0.48039622E+00  0.15766144E-02  0.00000000E+00  0.00000000E+00
  0.23158238E+00  0.14203329E-01  0.12836190E+00
  0.49367894E+00  0.50509608E+00  0.51268823E+00
  0.28524496E+00  0.55439597E+00  0.88710786E+00
  0.51637061E+00  0.25997465E-01  0.36448113E+00
  0.30221666E+00  0.97568207E+00  0.88148362E+00
  0.27245538E+00  0.55461009E+00  0.36704142E+00
  0.97745214E+00  0.48679453E+00  0.13236230E+00
  0.95825844E+00  0.27034705E+00  0.25188796E+00
  0.78661415E+00  0.88014041E+00  0.62150522E+00
  0.64627701E+00  0.23404142E+00  0.89313158E+00
  0.69523074E+00  0.79035403E+00  0.42210030E+00
  0.26091508E+00  0.26461500E+00  0.85741220E+00
  0.74168539E+00  0.20391564E+00  0.11203459E+00
  0.23261789E+00  0.73594916E+00  0.48063702E+00
  0.94942954E+00  0.95853983E+00  0.88997480E+00
  0.48428438E+00  0.50348535E+00  0.37768728E+00
  0.26804567E+00  0.77622576E+00  0.60135355E+00
  0.96904997E+00  0.43833308E+00  0.46423278E+00
  0.44405303E+00  0.96317181E+00  0.13822303E+00
  0.79932197E+00  0.77866076E+00  0.85276473E+00
  0.99490678E-03  0.16466251E-01  0.36433412E+00
  0.34170465E+00  0.25592512E+00  0.36208934E+00
  0.82833958E+00  0.69791937E+00  0.73658851E+00
  0.82623399E+00  0.50005142E+00  0.63548170E+00
  0.16729066E+00  0.59880939E+00  0.11931896E+00
  0.34264210E+00  0.17599117E+00  0.70961888E+00
  0.79721913E+00  0.75440440E+00  0.17281311E+00
  0.75352119E+00  0.50904939E+00  0.38525700E+00
  0.47915420E+00  0.75714596E+00  0.51099105E+00
  0.43646221E+00  0.18516650E+00  0.99056710E+00
  0.97598832E+00  0.58596614E+00  0.36729439E+00
  0.54815371E+00  0.73198932E+00  0.75959599E+00
  0.57420720E-01  0.76648865E+00  0.26176425E+00
  0.54478426E+00  0.54055785E+00  0.79764590E+00
  0.34999854E-01  0.90850755E+00  0.40576334E-01
  0.50568937E+00  0.99127565E+00  0.51252727E+00
  0.64443913E+00  0.71273870E+00  0.97369005E+00
  0.13618701E+00  0.36521735E+00  0.31337163E+00
  0.99543784E+00  0.10496850E+00  0.78586865E+00
  0.50623927E+00  0.74065533E+00  0.23555612E+00
  0.98881910E+00  0.63939467E-02  0.21312249E+00
  0.52870450E+00  0.37377210E+00  0.73866377E+00
  0.45801524E+00  0.97951334E+00  0.81432428E+00
  0.94494902E+00  0.49140210E+00  0.24626553E+00
  0.20409218E+00  0.22964878E+00  0.43051302E-02
  0.83017646E+00  0.72999331E+00  0.52722437E+00
  0.12590192E-01  0.96418538E+00  0.50285480E+00
  0.75682459E+00  0.24541702E+00  0.97409541E+00
  0.97251025E+00  0.56298173E-01  0.62618896E+00
  0.48509142E+00  0.53962833E+00  0.11947779E+00
  0.46130396E-01  0.51845147E+00  0.75139970E+00
  0.52213020E+00  0.11618782E-01  0.24841372E+00
  0.30751737E+00  0.23453682E+00  0.56287013E+00
  0.83052821E+00  0.72762507E+00  0.54135667E-01
  0.69856811E+00  0.21490120E+00  0.49199946E+00
  0.22447627E+00  0.74229257E+00  0.21015003E-01
  0.97212838E+00  0.17185117E+00  0.99664510E+00
  0.47957831E+00  0.28507321E+00  0.48411793E+00
  0.45790608E+00  0.50923538E+00  0.98311258E+00
  0.73019943E-01  0.24760489E+00  0.49598652E+00
  0.45205920E+00  0.92164208E+00  0.65232166E-02
  0.53514203E+00  0.51351483E+00  0.63636519E+00
  0.98067814E+00  0.43831630E+00  0.99365591E+00
  0.54289550E+00  0.98984949E+00  0.69023223E+00
  0.34380599E+00  0.23325146E+00  0.22228362E+00
  0.44784045E-01  0.81265820E+00  0.75122608E+00
  0.27894489E+00  0.78376759E+00  0.32439434E+00
  0.80557682E+00  0.23227210E+00  0.75324542E+00
  0.74619135E+00  0.77567965E+00  0.26117740E+00
  0.47414206E-01  0.28127712E+00  0.70766858E+00
  0.65148615E+00  0.25944886E+00  0.23992499E+00
  0.26862217E+00  0.71586011E+00  0.73884219E+00
  0.31490803E+00  0.37584283E+00  0.10703238E+00
  0.71764468E+00  0.12919004E+00  0.60459795E+00
  0.69867506E+00  0.96886318E+00  0.89290438E+00
  0.19170129E+00  0.99544768E-01  0.37869471E+00
  0.76455496E-01  0.45131010E+00  0.86930584E+00
  0.76425126E+00  0.27653435E+00  0.36123663E+00
  0.70261936E+00  0.96428629E+00  0.10778254E+00
  0.29213598E-01  0.50912406E+00  0.59254903E+00
  0.81486108E+00  0.45221857E+00  0.87175161E+00
  0.77884187E+00  0.98654926E+00  0.35069333E+00
  0.24468607E+00  0.47263985E+00  0.63719305E+00
  0.78163106E-01  0.25245367E+00  0.13206040E+00
  0.23640818E+00  0.98429752E+00  0.62895687E+00
  0.70499426E+00  0.43365455E+00  0.13638578E+00
  0.19567203E+00  0.75768168E+00  0.86328350E+00
  0.48752245E+00  0.49275520E+00  0.25295190E+00
  0.25893669E+00  0.11744966E-01  0.24778327E+00
  0.79952641E+00  0.49000574E+00  0.76370445E+00
  0.22009848E+00  0.14620567E-01  0.75567540E+00
  0.72952343E+00  0.49237982E+00  0.26070849E+00
  0.23359778E+00  0.98926288E+00  0.99473268E+00
  0.74665823E+00  0.50502884E+00  0.51003121E+00
  0.26040965E+00  0.28671846E-01  0.49504638E+00
  0.74596332E+00  0.47090555E+00  0.17607234E-01
  0.74690652E+00  0.95960741E+00  0.73640254E+00
  0.22747461E+00  0.49920155E+00  0.24204420E+00
  0.29217856E+00  0.50636325E+00  0.75398130E+00
  0.78732124E+00  0.21288885E-01  0.25024576E+00
  0.25084895E+00  0.50310903E+00  0.49091766E+00
  0.72493261E+00  0.95794409E+00  0.44148573E-02
  0.77204322E+00  0.97573729E+00  0.47312405E+00
  0.22916778E+00  0.48956977E+00  0.99586037E+00
  0.16363925E-01  0.26518818E+00  0.37696492E+00
  0.47738558E+00  0.76577436E+00  0.89475202E+00
  0.53287261E+00  0.26031245E+00  0.62511860E+00
  0.10342625E-01  0.77420064E+00  0.13154232E+00
  0.96540840E+00  0.20622322E+00  0.87828073E+00
  0.51550650E+00  0.74944819E+00  0.36790811E+00
  0.46574517E-01  0.74167332E+00  0.62578133E+00
  0.47881044E+00  0.22031734E+00  0.12379131E+00
  0.14292070E+00  0.39835706E+00  0.50840532E-01
  0.69086897E+00  0.88110129E+00  0.52791477E+00
  0.63533559E+00  0.90219824E-01  0.96349058E+00
  0.13556536E+00  0.58322403E+00  0.44193153E+00
  0.30793619E+00  0.37583934E+00  0.94390407E+00
  0.89069922E+00  0.89877670E+00  0.42551858E+00
  0.81877646E+00  0.76372372E-01  0.46404389E-01
  0.35412863E+00  0.61151900E+00  0.54251096E+00
  0.86741601E+00  0.13034678E+00  0.19724241E+00
  0.39844131E+00  0.59335131E+00  0.70638045E+00
  0.88976112E+00  0.90151382E+00  0.28590414E+00
  0.38369657E+00  0.43207825E+00  0.81544300E+00
  0.14804717E+00  0.59780304E+00  0.29135195E+00
  0.64120780E+00  0.88961406E-01  0.77775758E+00
  0.11540533E+00  0.39411759E+00  0.19929148E+00
  0.67475365E+00  0.82549560E+00  0.69822282E+00
  0.84748749E+00  0.55198166E+00  0.95825527E+00
  0.38687881E+00  0.95822207E-01  0.45731714E+00
  0.87122587E+00  0.39801483E+00  0.55391146E+00
  0.30840735E+00  0.90449857E+00  0.59296946E-01
  0.16344495E+00  0.10386968E+00  0.54998265E+00
  0.67542148E+00  0.59761474E+00  0.62892982E-01
  0.13265185E+00  0.88779684E+00  0.94631513E+00
  0.65983167E+00  0.40042033E+00  0.45022232E+00