Na88 Ge16 P8 S96                        
   1.00000000000000     
    13.3422163233000006    0.0000000000000000    0.0000000000000000
     0.0000000000000000   13.3422163233000006    0.0000000000000000
     0.0000000000000000    0.0000000000000000   26.6844326466999995
   Na   Ge   P    S 
    88    16     8    96
Direct
  0.9923636353463172  0.0250643883198698  0.1147287981291249
  0.4911181272845443  0.5058674113855948  0.7593284267439713
  0.2183597951057153  0.3963250713790485  0.8744093361286656
  0.0084392393519165  0.9961099865935432  0.2505576596897252
  0.4748091325464435  0.0451211059421081  0.8685513782374903
  0.0286045488568864  0.4681771493375341  0.3994681801930673
  0.0141127358992569  0.4840697648162759  0.0084901212347093
  0.2461042213301584  0.2439773033240504  0.1310224590217184
  0.7303268070222123  0.9662197555211263  0.6248378252387166
  0.7251017417054023  0.2540084342744490  0.7474836724373597
  0.7530172125198084  0.7125241180211708  0.3790951731451190
  0.2022725923730139  0.2473067565158685  0.7767587283828984
  0.7654137104444381  0.2303800121920571  0.1240851526894847
  0.2376465391256932  0.7658734281905154  0.6265059058835275
  0.9797307960270488  0.9729409949991346  0.8687428449572975
  0.5066401902620431  0.4691294299795287  0.3757725556041119
  0.0048535200862290  0.9879460905384434  0.5149729096708947
  0.7630800764057286  0.4766813775567971  0.6273721575828664
  0.4919815014550106  0.9674463289968711  0.1257387694604746
  0.9975013352769511  0.5003074735514410  0.8777949211877335
  0.4750027652490625  0.0032274179633415  0.3775415918864479
  0.9780637504293007  0.9635070530938115  0.3754504992870434
  0.7219401101690237  0.2293750637906653  0.8720983535462348
  0.5104867038077314  0.5453931457754093  0.6303470388566738
  0.2459113689687255  0.9751807501368694  0.1186546820424452
  0.2656534569070753  0.2706180209674484  0.5004930386914851
  0.7370062527461081  0.7549523424112349  0.1055856534519255
  0.7545131234018116  0.2293824146199136  0.4987680044567033
  0.4916078371571397  0.0285129538929033  0.5067752114152767
  0.4778530739955286  0.2149833351723071  0.9987566826287699
  0.9687206366646895  0.5111635802290676  0.5375995091382593
  0.9438582374981180  0.7708968652946098  0.7529504722459439
  0.0136302901164796  0.7372437231986366  0.2533402335497209
  0.4490940352287224  0.2369192607114934  0.7517609935174706
  0.9376184046413264  0.7535290765554885  0.0024187473531656
  0.5038021312954131  0.2636678186300073  0.5070446150620302
  0.6872540551570808  0.7283458485138260  0.9665346616015801
  0.5267366598849345  0.2163232240483571  0.2526340257509950
  0.2090129406677696  0.7406264188637167  0.7547736285529357
  0.2417568034730400  0.7187135563397071  0.2478859698435238
  0.8311620166024677  0.2223610567141174  0.2615344945102012
  0.4650648455000311  0.4821893733170622  0.8757002631589851
  0.4636494043066777  0.9867229842632345  0.7661116736344866
  0.9782071889931301  0.4468508514111310  0.2507613247207769
  0.2235351398110031  0.2172039096909872  0.9664217876902848
  0.7283766514225632  0.7125437304417723  0.5027464324021874
  0.2437022451508062  0.7721133624288847  0.4919579514222512
  0.7514004619250326  0.2416102013737349  0.9975066868004978
  0.9519897891960779  0.0160457324811716  0.7420921891695446
  0.4594035782944149  0.4590279273374380  0.2452441552908362
  0.0220922861927093  0.5223400738146045  0.7451958890286072
  0.5091475470270250  0.7040318566098328  0.2550011972647407
  0.2562341291344451  0.4942731976707221  0.3687277159975168
  0.7114202914826084  0.7200659736857451  0.7868924585361124
  0.7381042162736300  0.2289802160210758  0.6208203506784749
  0.2569837103561944  0.7121526716071160  0.9875075877299258
  0.9776269878284246  0.9934864356943606  0.9975845982060596
  0.4796633224887494  0.7755238010326556  0.5052689024813313
  0.4755678848499858  0.4884806536285348  0.1286826711178019
  0.0100599149756682  0.7301262719588646  0.4847352286800601
  0.4851346881210730  0.9500266160011976  0.0001771660765370
  0.0013300960950443  0.2483509856137217  0.4986814773382253
  0.9918506743742748  0.2337790528042850  0.0048167151475027
  0.4817028465975193  0.5160548640934591  0.5036583665681365
  0.2293723903841178  0.2250381186736292  0.2605423022232348
  0.7271906167856089  0.5011465204992831  0.8903969291329682
  0.2896145658776040  0.7193471036051254  0.1158996681111158
  0.9802102574456607  0.2531078143736074  0.7484144192159705
  0.7512350043687271  0.7228307945310092  0.2592412743629750
  0.2035738301259464  0.2753076407207162  0.6286398785724855
  0.6987436227872448  0.2108546543776162  0.3747404801670486
  0.4618733247898609  0.7218813814090321  0.7452988319121914
  0.1395823083362044  0.5031977145796735  0.1178799972293311
  0.4915173494421953  0.9996466341465629  0.6404236304433335
  0.7049141992017448  0.9745203797339991  0.8724684118894492
  0.2133270366968094  0.7759729331183464  0.3834509998827484
  0.2130749261248462  0.7138706937565445  0.8825249392565806
  0.7436419009101337  0.9590352615455188  0.3763980393520624
  0.7457843379301089  0.9882559721289828  0.1294939389008253
  0.2193352127590886  0.5129091696378082  0.6230195863392353
  0.5088674665243008  0.5097030071663382  0.9968355440248028
  0.2494258065270990  0.0742935164153223  0.3687224782766167
  0.7302522683865356  0.7373813470749424  0.6339791538921029
  0.5356639842579946  0.9778332330571313  0.2397699752124013
  0.1974135861220206  0.0374967537487151  0.6271580858624701
  0.7646772933754599  0.4997972800275337  0.1231098747833575
  0.2378186650285230  0.9551725356874773  0.8706303346526053
  0.7615691480170039  0.4637602163516379  0.3718360427771756
  0.2815414640309145  0.9790847153622081  0.2450535256648003
  0.7499810119936335  0.4941829858899083  0.7494473857431964
  0.2072474693284325  0.9864705292607874  0.7478671971364548
  0.7238177656984128  0.4681056692138237  0.2533402562203858
  0.2334942524252090  0.9674599194054421  0.0039345669625802
  0.7386623916138253  0.4599031898331070  0.5050338045658553
  0.2532712488200721  0.0381646401215348  0.5045281764014427
  0.7567604672612792  0.4814805158877954  0.0077509178795825
  0.7031145341252877  0.9957133149156342  0.7545134321082619
  0.2355221588486626  0.4728708541546510  0.2504467558141640
  0.2567921579330604  0.4820851790489163  0.7571474541122847
  0.7739117858879083  0.9804344928261721  0.2437860512192036
  0.2472953149771788  0.5321349515493498  0.4989537225467879
  0.7381546795451092  0.0102794515288838  0.9993821483982693
  0.7372320885825305  0.9608691051745918  0.4989450069787068
  0.2551852243411162  0.4476342048510428  0.9994265300656677
  0.9978616403589819  0.2265205557331821  0.3726037072603445
  0.4745534103457112  0.7449712485208597  0.8752453149316902
  0.4631436994706100  0.2595970000208896  0.6347388165346515
  0.0291819703811756  0.7440342446476399  0.1202337711462650
  0.9641712616313118  0.2342463959357312  0.8683595416086829
  0.4802812845325247  0.7356570217889471  0.3815608334475410
  0.9900024853166597  0.7524524689070931  0.6261940489420642
  0.4954019232870848  0.2121752660218008  0.1254249082973651
  0.1551921534115191  0.3406984067316574  0.0397137291733456
  0.6315745888778718  0.8779763719100344  0.5546047471336488
  0.6343850682830677  0.1005827290938612  0.9569531077861492
  0.1548407363258152  0.6055701806511620  0.4421987156820336
  0.3648122669881497  0.3685865013436505  0.9543079449092896
  0.8454742440248202  0.8683153390957457  0.4500873378254746
  0.8406388609775407  0.1140656788850270  0.0456300076225015
  0.3500142060699220  0.6389284006161893  0.5483157731398298
  0.8762874393937461  0.0799721161172730  0.1966820653841132
  0.3319692487976689  0.5818588560592183  0.7008769005528993
  0.8582520219339544  0.8920190772484532  0.3001059369524584
  0.3526295598542457  0.3784076078982266  0.8012726765789677
  0.1292774123858522  0.5710665777783773  0.2970661536579083
  0.6057714867636855  0.0976569020687050  0.8033630641448566
  0.1375350653631543  0.3805567544033109  0.1981421257188984
  0.6026900844201142  0.8816419460162310  0.7066236273536797
  0.8461043428290541  0.5824436096166236  0.9543379695787142
  0.3550079699265923  0.1238862133686559  0.4523704108874294
  0.8450212756599507  0.3525807591322534  0.5491068541128802
  0.3353855571207985  0.8632637557348648  0.0469637906182791
  0.1482357099049098  0.1298734785536250  0.5512554977344410
  0.6614303662619704  0.5916755625294741  0.0477543710425011
  0.1322174658791936  0.8624023619526691  0.9532646165226898
  0.6190855298756370  0.3783385869788071  0.4590536080139856
  0.6196957123578829  0.3819897641744726  0.3021206571312036
  0.1010277691335292  0.8959368757777815  0.7921313288617537
  0.1134102309142082  0.0970912333592777  0.7092109948839066
  0.6309072175959672  0.5819599285003841  0.2067832068229940
  0.8588630999176170  0.4017054189476365  0.7001141554994692
  0.3865941640382347  0.8677574965524159  0.2010312414653168
  0.3957231342901270  0.0677824016808495  0.2937019666825630
  0.8468778495934641  0.5818785751600123  0.7927952006378203
  0.1394646719878936  0.0699472306866525  0.0476984242810149
  0.6630846740537008  0.5646695219529624  0.5562202774534624
  0.6531539084060880  0.3841398260806008  0.9569640003016934
  0.1444043158731717  0.9314281317397013  0.4505197805604816
  0.3361678993683426  0.0458649152992139  0.9502093064948610
  0.8354706712061408  0.5518002266223780  0.4522286346908750
  0.8525380713706973  0.3838414790687670  0.0512362651042759
  0.3371642747918792  0.9288118892356032  0.5481462716463087
  0.1873060364558217  0.0882814015660643  0.1994602057942288
  0.6482394670231895  0.5928671816339023  0.7053084352726254
  0.1703728771333268  0.9032095417632247  0.2943404971495688
  0.6607870428752181  0.4122116620289468  0.8084654445395674
  0.8238199906901726  0.5675722183272561  0.2976897832783230
  0.3107283874539575  0.0784364325432871  0.7950902934137438
  0.8001087041595668  0.3653618114592710  0.2013179341704448
  0.3049988223230122  0.9004543394303979  0.6955560532807582
  0.8338302284749847  0.9074069953498480  0.9513044485295477
  0.3385560072332928  0.4253850051749147  0.4502590328807465
  0.8330025159729253  0.0623551495843151  0.5457408415419750
  0.3321134089035435  0.5342689747394898  0.0549038779334744
  0.1549739272776578  0.4244898231452764  0.5416232009341397
  0.6567544039855774  0.9051952573279676  0.0554664253915256
  0.1610358065039151  0.5443031185004462  0.9438398842317191
  0.6488606651244843  0.0685430801369868  0.4570895039966361
  0.3281816955744122  0.3767948377946396  0.3012346409729478
  0.8091456860860898  0.8926816350654895  0.8004063893633023
  0.7758160900474960  0.0949104155601978  0.6984733953789489
  0.3285511530300496  0.5725403177416498  0.2030798380412724
  0.1531069164107154  0.3875284153296001  0.7087584290833340
  0.6879241519648615  0.8677769620816734  0.1980718476429604
  0.6932151475991410  0.0995908586520041  0.2895490713600755
  0.1651714384810914  0.5691542889637656  0.8114176327349153
  0.0605906631320042  0.1334400979436281  0.3200734443014121
  0.5757898585948832  0.6470617886692653  0.8377476349077448
  0.5609676525044279  0.3341748783692746  0.6782652854007795
  0.1262437178787946  0.8176665401221651  0.1697989256446612
  0.3683187713918820  0.1654387062244932  0.6693502888803737
  0.9384795499168177  0.6411553958686289  0.1584259201754139
  0.9036189558813683  0.3380959396071908  0.3445026248707237
  0.3724276805925621  0.7997570073555593  0.8240768946233586
  0.0540848814785954  0.1365930276601756  0.9062479465881806
  0.5724775209620403  0.6530126806571335  0.4302827927382747
  0.0661696222915932  0.8074259429926777  0.5647456962940620
  0.5764336500488564  0.3015568005771063  0.0766317142516941
  0.8862217521885316  0.6663449791368730  0.5893065233197268
  0.3954920358693861  0.1319038472120743  0.0846145411966737
  0.8928163224310511  0.3147356674050842  0.9219609470687828
  0.4000275627885770  0.8412481551648906  0.4228928336892179
  0.9232379592815230  0.8660694889058609  0.6626184064160718
  0.4141962974127517  0.2944356177033895  0.1806106048780133
  0.8748382917397080  0.1447344717912855  0.8204647378950911
  0.4014916941975572  0.6368127154932470  0.3412637305346219
  0.0573790210267712  0.3287050913577202  0.8289518547837574
  0.5826615073241790  0.8063782784472537  0.3371528304843982
  0.0831435015095398  0.6704390401199023  0.6734294152815843
  0.5908764756316454  0.1137588807506928  0.1633844087859993
  0.3855144151997033  0.3688987407019918  0.5976156678111250
  0.9303821500498776  0.8480333309879104  0.0899021595291238
  0.9166374179453735  0.1348321125656792  0.4211994773663271
  0.4100238618861953  0.6600784688672813  0.9302305528756177
  0.1050820706149167  0.2961759048985089  0.4127094089802067
  0.5628134199828785  0.8583327205564246  0.9059693037195630
  0.5624766898847519  0.1572931402345625  0.5887430083962109
  0.1051554247718730  0.6792163889207015  0.0622482280962936
 
 -0.50990233E-02  0.75082946E-02  0.46777417E-02
 -0.22149136E-02 -0.66833655E-02 -0.15174612E-02
 -0.35319678E-04 -0.45071877E-02 -0.10771657E-02
 -0.35981838E-02  0.60094705E-02 -0.20751518E-02
 -0.17566704E-02 -0.76529282E-02  0.23309445E-02
  0.72633353E-03 -0.30353969E-02 -0.74956277E-02
 -0.89787735E-02 -0.48527249E-03 -0.42546631E-02
  0.24040972E-02  0.21301026E-02 -0.68600639E-03
 -0.58043924E-02 -0.73091790E-03 -0.18152520E-02
 -0.72755840E-03  0.44930541E-02  0.34165914E-03
  0.34303140E-03  0.32710714E-02 -0.16111782E-02
 -0.18371508E-02 -0.45717195E-02  0.10774316E-02
 -0.41501505E-02  0.22494517E-02  0.30746073E-02
  0.41337339E-02 -0.34949280E-02 -0.41294195E-02
  0.28433745E-02 -0.35189027E-02  0.73498066E-02
  0.44899920E-02  0.26104345E-02 -0.12012880E-02
  0.14605552E-02  0.18907710E-02 -0.46067648E-02
 -0.37197014E-02  0.59278436E-02 -0.93102441E-02
 -0.25246718E-02  0.14992834E-02  0.52932778E-02
  0.27987181E-02 -0.10811681E-02  0.10918430E-01
  0.40823297E-02 -0.36328345E-02 -0.33068451E-02
  0.62520712E-02 -0.18425101E-02  0.68726207E-03
 -0.10453490E-02 -0.30601435E-02 -0.98704583E-02
  0.57287804E-02  0.49582487E-02  0.33605020E-02
  0.33713777E-02 -0.13269560E-02  0.46246324E-02
 -0.49610954E-02 -0.66040798E-02 -0.31244467E-02
  0.12925840E-02  0.65455995E-02  0.45630237E-02
  0.25697800E-02 -0.43123539E-02 -0.14074834E-02
  0.18810878E-02  0.96033394E-02  0.75189991E-02
  0.25686785E-02  0.51272222E-02 -0.37451135E-02
 -0.25314524E-02  0.24919084E-02 -0.85898614E-02
  0.98140670E-03  0.37100017E-03 -0.30764238E-02
  0.79071765E-03 -0.89144252E-03  0.18998744E-02
  0.31140210E-02  0.80009686E-03  0.11004279E-01
 -0.71762436E-04  0.16330018E-02  0.13195110E-02
 -0.23303317E-02 -0.39999086E-02 -0.64280990E-02
 -0.17608587E-02 -0.22200223E-02 -0.39985623E-02
 -0.50750027E-02  0.68032724E-03  0.13587732E-02
 -0.89184591E-03 -0.77296805E-02  0.59999734E-03
 -0.22045434E-02 -0.62864456E-03 -0.39035852E-02
  0.89749136E-02  0.42076646E-02 -0.61319549E-02
 -0.28719859E-02 -0.25056595E-02  0.64123899E-02
  0.51805136E-03 -0.16481147E-02  0.69001251E-02
 -0.38469659E-02 -0.51803609E-02  0.48652040E-03
 -0.65423533E-02  0.36284039E-02  0.23637625E-02
 -0.17802271E-02  0.28544537E-02  0.42728529E-03
  0.28572868E-02  0.60683661E-02  0.64830525E-02
  0.19007676E-02  0.92401642E-02  0.46876342E-02
  0.34855615E-02  0.48331276E-02 -0.21859965E-02
  0.34575465E-02  0.10040504E-02  0.35345780E-02
 -0.44309813E-02  0.12598631E-02 -0.15328868E-02
 -0.15907303E-02  0.58281582E-02 -0.33720975E-03
 -0.24632246E-02 -0.22697630E-02 -0.44086167E-02
  0.39256611E-02  0.74105658E-03 -0.22699296E-02
  0.31179235E-03 -0.54295791E-02  0.36896357E-02
 -0.71818674E-02  0.17806807E-02 -0.70009995E-02
 -0.35021494E-02  0.44927158E-02  0.44612004E-03
 -0.24911078E-03 -0.25911309E-02  0.58434154E-02
  0.11072088E-03 -0.11824253E-02  0.64549315E-02
  0.65368613E-02  0.25493808E-02 -0.39830738E-02
 -0.35187520E-02 -0.50298264E-03 -0.17245745E-02
 -0.80489785E-02 -0.36647628E-02  0.28881247E-02
 -0.61922472E-02 -0.96862969E-03  0.45790462E-02
 -0.19055253E-02 -0.55884071E-02 -0.40867189E-02
  0.21678263E-02  0.66291734E-04 -0.83062588E-02
  0.55591838E-02 -0.17992136E-02  0.32148178E-02
  0.46145321E-02 -0.16949242E-02 -0.19209616E-03
 -0.28566273E-02  0.19203216E-02 -0.48754061E-02
 -0.89287281E-02 -0.54718787E-02  0.85123971E-02
 -0.10024159E-02 -0.25727750E-02 -0.62984633E-02
  0.23433169E-02  0.41437846E-02  0.30593369E-02
 -0.13435878E-02  0.23459459E-02 -0.48389738E-02
 -0.54604908E-03  0.37186228E-02 -0.25977542E-02
  0.37133865E-02  0.41854041E-02  0.36113079E-02
 -0.40052428E-02  0.20789100E-02 -0.33408701E-02
 -0.27975900E-02 -0.20064242E-03  0.23462632E-02
  0.22679443E-02  0.12069705E-02  0.15388221E-02
  0.11644424E-01 -0.29535374E-02 -0.24874150E-02
  0.13106949E-02 -0.29951066E-02 -0.17816399E-02
 -0.32601915E-02  0.15825386E-02 -0.89073476E-03
  0.14545855E-02  0.54905171E-02  0.97192525E-03
 -0.39669266E-02 -0.56019897E-03 -0.61288487E-02
  0.24831261E-02 -0.42749616E-02  0.50321905E-02
  0.35141223E-02  0.62428480E-02  0.12628070E-02
  0.51060014E-02  0.51022728E-03 -0.19809574E-02
  0.10981865E-02 -0.45428660E-02 -0.67752266E-03
  0.16075705E-02 -0.43353995E-02 -0.40137347E-02
 -0.35379612E-02  0.39809521E-03  0.97790284E-03
 -0.10812649E-02 -0.76264070E-03 -0.20329936E-02
  0.19123411E-02 -0.29152535E-03  0.42194399E-02
  0.15467636E-02 -0.51451806E-03  0.14733390E-02
  0.24877816E-02  0.59734764E-03 -0.16147214E-02
  0.37347723E-02 -0.29190890E-02 -0.24308338E-03
  0.23977250E-02 -0.81869764E-03 -0.14366460E-02
 -0.60258632E-03  0.17118853E-02 -0.35593517E-03
  0.58450157E-03 -0.27406751E-02 -0.16037707E-03
  0.49635118E-02  0.24117946E-04 -0.43954140E-02
 -0.14025122E-02 -0.24395256E-02 -0.24238680E-02
 -0.65356537E-03 -0.34603733E-04  0.37410789E-02
  0.48854343E-02  0.33308064E-02 -0.33356073E-02
 -0.59292664E-03  0.63418237E-03  0.94823122E-03
  0.21325947E-02 -0.41825746E-02  0.14402832E-02
 -0.29912506E-02  0.65724395E-03  0.34519883E-02
 -0.39715456E-03 -0.15572104E-02  0.93340988E-03
 -0.37931511E-02 -0.22556791E-02  0.71993193E-03
  0.75835546E-03 -0.19473186E-02 -0.13683981E-02
 -0.11913095E-02  0.27827628E-02 -0.10465476E-02
  0.78952568E-02  0.36890731E-02  0.24886777E-02
 -0.28793705E-02  0.13161145E-02 -0.41830829E-03
  0.59150884E-04 -0.45385127E-02  0.39257437E-02
 -0.18890467E-02  0.24431677E-02 -0.49565435E-02
  0.13568613E-03 -0.21740540E-02  0.32425832E-02
  0.22141020E-02 -0.33256981E-02  0.88311452E-02
 -0.46896346E-02  0.22381493E-03 -0.15172820E-02
 -0.25622863E-02 -0.20405678E-02 -0.26029827E-02
 -0.43992235E-02  0.19137206E-02  0.47052613E-04
 -0.37532080E-02 -0.18127124E-02 -0.95960737E-02
  0.87414248E-04  0.14433830E-02 -0.35115491E-02
 -0.22344588E-03 -0.52014455E-02 -0.58691747E-02
 -0.37935755E-02  0.36061992E-02 -0.17145613E-02
 -0.11084737E-02  0.29875139E-02  0.10582201E-01
  0.13324080E-02 -0.11178264E-02 -0.21824513E-02
 -0.49182788E-02 -0.65710408E-02  0.19731567E-02
 -0.22610082E-02  0.75584644E-02  0.15387747E-02
  0.20811278E-02  0.47826677E-02  0.25267916E-02
 -0.34771381E-02  0.24125444E-02  0.49425770E-02
  0.24730730E-02 -0.37417794E-02  0.48708193E-02
  0.45918848E-02 -0.68890899E-02 -0.25229569E-02
  0.13278171E-02 -0.29884339E-02 -0.31266272E-02
  0.11635200E-02  0.48132827E-02  0.44615207E-02
 -0.37529297E-02 -0.31543149E-02 -0.45580767E-02
  0.12755296E-02  0.30543561E-03  0.15499605E-02
  0.40192768E-02 -0.41219977E-02  0.37064527E-02
  0.30737500E-02 -0.66292614E-02  0.85050941E-02
 -0.30811943E-02 -0.10461471E-02  0.18044337E-02
 -0.51887699E-02  0.43532200E-02 -0.24882596E-02
 -0.29332059E-02 -0.31272196E-02  0.36612024E-03
 -0.79675585E-02 -0.20308404E-02 -0.28169833E-02
  0.11523780E-02  0.14879314E-02  0.21485408E-03
  0.23019266E-02 -0.66767683E-03  0.51344275E-02
 -0.32433482E-02  0.14729749E-02 -0.19987591E-02
 -0.45261976E-02 -0.22528343E-02 -0.29510036E-02
  0.20589074E-02 -0.11103606E-02 -0.14487019E-02
  0.50136250E-02  0.66987395E-02  0.49242567E-02
  0.31398529E-02 -0.10173778E-02 -0.18453590E-02
  0.18874566E-02  0.32164115E-02 -0.52017051E-02
  0.20785065E-02 -0.62318928E-02  0.56960179E-02
  0.23837838E-02 -0.28924029E-02  0.52112218E-02
  0.41901846E-02  0.13219957E-02  0.57526383E-02
 -0.22348565E-02  0.29619787E-02  0.11365745E-02
 -0.77596467E-03  0.26345454E-02  0.16454849E-02
  0.11364705E-02 -0.60052482E-03 -0.22337263E-03
 -0.35514188E-02 -0.27067394E-02  0.86318303E-02
 -0.81626189E-02  0.11099123E-02  0.76273881E-03
 -0.43354569E-02  0.33746021E-02  0.33054138E-02
 -0.92293322E-03  0.58851778E-02 -0.26313281E-02
 -0.11961089E-02  0.10797961E-02  0.81186425E-03
  0.39264571E-02 -0.70515804E-03 -0.31893003E-02
  0.14027687E-02  0.44340100E-02 -0.61679826E-02
 -0.46546766E-02 -0.69825334E-02  0.31571997E-02
  0.18801052E-02  0.48323370E-02 -0.28190882E-02
 -0.16682827E-02 -0.64366521E-02 -0.48934491E-02
 -0.29568460E-02  0.23697357E-02 -0.58830433E-02
 -0.21578968E-02  0.36296046E-02 -0.41567159E-02
 -0.49848919E-02 -0.80045720E-03  0.41941507E-02
 -0.18404490E-02 -0.41893283E-02  0.13712843E-02
 -0.37763211E-02 -0.32856809E-02 -0.37733126E-02
  0.55077899E-02 -0.94724988E-03  0.35606003E-02
 -0.25723019E-02  0.78584151E-02  0.17066460E-02
  0.25324745E-03 -0.58459690E-03 -0.85740452E-04
 -0.21241671E-02 -0.42128657E-02  0.43464470E-02
  0.35287485E-02 -0.23709898E-02 -0.38514966E-03
 -0.34129114E-02  0.29488456E-02  0.10375233E-02
  0.34031464E-02 -0.15174375E-04 -0.11490605E-03
 -0.15008746E-02 -0.31596079E-02 -0.67899081E-02
 -0.35608174E-02 -0.40404356E-02  0.49917074E-02
 -0.98127761E-03 -0.26619343E-02  0.24033374E-03
 -0.25835416E-02  0.38999555E-03 -0.68394404E-04
  0.59096234E-02 -0.14261047E-03 -0.11413355E-02
 -0.48161377E-02 -0.99943413E-03 -0.13615763E-02
 -0.33905394E-02  0.48205934E-02 -0.71197131E-02
  0.34494190E-02 -0.48057942E-02 -0.70206285E-02
  0.10189061E-02  0.63703557E-03  0.16787178E-02
 -0.54763002E-03  0.39993543E-03 -0.28609828E-03
  0.13458868E-02 -0.45289844E-03  0.23554725E-02
  0.40863750E-02  0.34341892E-02 -0.30589904E-02
  0.27410630E-02  0.29840167E-02  0.17371329E-02
  0.85440616E-03 -0.57011739E-02 -0.37712481E-02
 -0.44710604E-03  0.52632629E-02 -0.18227606E-02
 -0.32470246E-02 -0.91229651E-03  0.26976977E-02
 -0.48649289E-02  0.19638971E-02  0.36204850E-03
 -0.37341210E-02  0.48726894E-02  0.85252118E-02
  0.10914347E-02 -0.18895540E-02 -0.56827741E-02
  0.40850915E-02  0.41045208E-02  0.25368080E-02
  0.29831441E-02  0.57492453E-03  0.97679280E-03
  0.82525717E-04  0.40266884E-02 -0.77809544E-02
 -0.66885286E-03  0.44301419E-02 -0.48542848E-02
  0.67310660E-02  0.28329238E-02  0.42123284E-02
  0.26093032E-02 -0.12623579E-02 -0.18868290E-02
  0.65056459E-02 -0.14019070E-03 -0.17024073E-02
 -0.21717623E-02 -0.86839035E-04 -0.28373430E-02
  0.48495736E-02 -0.47027013E-02 -0.11962893E-02
  0.67452124E-03  0.58686431E-03  0.70089209E-02
 -0.83636008E-02 -0.81785240E-03 -0.28121033E-02
  0.61609155E-03  0.31248506E-02  0.30919693E-02
  0.37361613E-02  0.61871794E-02 -0.27662797E-02
 -0.47898790E-04 -0.29733711E-02  0.39274026E-02
  0.51061387E-02  0.35822696E-02 -0.30852057E-02
 
           1
   2.00000000000000     
  0.13448712E+01 -0.16778602E-03  0.00000000E+00  0.00000000E+00
  0.99159929E+00  0.26189883E-01  0.11507940E+00
  0.49078611E+00  0.50486557E+00  0.75921469E+00
  0.21835450E+00  0.39564944E+00  0.87432860E+00
  0.78998711E-02  0.99701081E+00  0.25040213E+00
  0.47454581E+00  0.43973931E-01  0.86872608E+00
  0.28713426E-01  0.46772214E+00  0.39890638E+00
  0.12766817E-01  0.48399702E+00  0.81712340E-02
  0.24646460E+00  0.24429661E+00  0.13097104E+00
  0.72945673E+00  0.96611019E+00  0.62470177E+00
  0.72499268E+00  0.25468194E+00  0.74750928E+00
  0.75306863E+00  0.71301445E+00  0.37897442E+00
  0.20199720E+00  0.24662146E+00  0.77683948E+00
  0.76479160E+00  0.23071721E+00  0.12431559E+00
  0.23826619E+00  0.76534954E+00  0.62619641E+00
  0.98015702E+00  0.97241351E+00  0.86929371E+00
  0.50731324E+00  0.46952073E+00  0.37568252E+00
  0.50724575E-02  0.98822952E+00  0.51462763E+00
  0.76252249E+00  0.47756996E+00  0.62667435E+00
  0.49160305E+00  0.96767107E+00  0.12613550E+00
  0.99792086E+00  0.50014541E+00  0.87861326E+00
  0.47561471E+00  0.26828556E-02  0.37729374E+00
  0.97900094E+00  0.96323086E+00  0.37550201E+00
  0.72178341E+00  0.22891635E+00  0.87135856E+00
  0.51134545E+00  0.54613639E+00  0.63059891E+00
  0.24641674E+00  0.97498184E+00  0.11900130E+00
  0.26490979E+00  0.26962807E+00  0.50025886E+00
  0.73720001E+00  0.75593353E+00  0.10592765E+00
  0.75489833E+00  0.22873599E+00  0.49866251E+00
  0.49188981E+00  0.29952496E-01  0.50733876E+00
  0.47823812E+00  0.21575191E+00  0.99847599E+00
  0.96834117E+00  0.51153712E+00  0.53695570E+00
  0.94400535E+00  0.77095248E+00  0.75271989E+00
  0.13748819E-01  0.73711010E+00  0.25348263E+00
  0.44956083E+00  0.23703920E+00  0.75258576E+00
  0.93760765E+00  0.75377386E+00  0.25176448E-02
  0.50345281E+00  0.26306823E+00  0.50656283E+00
  0.68699010E+00  0.72801307E+00  0.96623497E+00
  0.52597592E+00  0.21642521E+00  0.25273587E+00
  0.20887925E+00  0.73946774E+00  0.75481860E+00
  0.24142634E+00  0.71861932E+00  0.24759340E+00
  0.83250736E+00  0.22299179E+00  0.26107490E+00
  0.46463433E+00  0.48181377E+00  0.87618087E+00
  0.46372706E+00  0.98647593E+00  0.76662884E+00
  0.97763053E+00  0.44607431E+00  0.25079779E+00
  0.22255444E+00  0.21774781E+00  0.96659895E+00
  0.72810980E+00  0.71297161E+00  0.50277846E+00
  0.24413055E+00  0.77302301E+00  0.49244386E+00
  0.75168539E+00  0.24299530E+00  0.99785803E+00
  0.95251228E+00  0.16770219E-01  0.74192835E+00
  0.45992186E+00  0.45917843E+00  0.24550907E+00
  0.21428082E-01  0.52252893E+00  0.74508100E+00
  0.50890910E+00  0.70490550E+00  0.25497592E+00
  0.25586489E+00  0.49393296E+00  0.36839729E+00
  0.71200875E+00  0.72017706E+00  0.78672233E+00
  0.73815095E+00  0.22816632E+00  0.62109689E+00
  0.25590715E+00  0.71241960E+00  0.98698286E+00
  0.97710202E+00  0.99415989E+00  0.99761803E+00
  0.47962598E+00  0.77513539E+00  0.50570687E+00
  0.47558448E+00  0.48830341E+00  0.12916647E+00
  0.11039791E-01  0.73050842E+00  0.48443670E+00
  0.48460723E+00  0.94995122E+00  0.47909103E-04
  0.12355315E-03  0.24780164E+00  0.49889794E+00
  0.99092246E+00  0.23363386E+00  0.51599150E-02
  0.48141721E+00  0.51521716E+00  0.50335207E+00
  0.22969735E+00  0.22504806E+00  0.25991975E+00
  0.72802394E+00  0.50087682E+00  0.89063788E+00
  0.29030628E+00  0.71909303E+00  0.11588527E+00
  0.97978205E+00  0.25339567E+00  0.74804901E+00
  0.74989659E+00  0.72201056E+00  0.25987928E+00
  0.20342357E+00  0.27492198E+00  0.62816781E+00
  0.69909489E+00  0.21147581E+00  0.37496978E+00
  0.46167192E+00  0.72223304E+00  0.74493615E+00
  0.13950046E+00  0.50375514E+00  0.11768530E+00
  0.49207399E+00  0.27402677E-03  0.64069430E+00
  0.70431381E+00  0.97483201E+00  0.87221801E+00
  0.21290768E+00  0.77594286E+00  0.38362685E+00
  0.21341489E+00  0.71405162E+00  0.88264027E+00
  0.74538740E+00  0.95859253E+00  0.37621161E+00
  0.74598081E+00  0.98780701E+00  0.12936040E+00
  0.21884651E+00  0.51314639E+00  0.62295283E+00
  0.50908551E+00  0.51052604E+00  0.99690839E+00
  0.24883116E+00  0.74209543E-01  0.36826312E+00
  0.73062449E+00  0.73674053E+00  0.63435632E+00
  0.53619075E+00  0.97876904E+00  0.23986462E+00
  0.19817898E+00  0.37573237E-01  0.62700961E+00
  0.76484191E+00  0.49911630E+00  0.12305909E+00
  0.23805964E+00  0.95452266E+00  0.87032950E+00
  0.76103881E+00  0.46381989E+00  0.37190934E+00
  0.28137938E+00  0.97897040E+00  0.24490115E+00
  0.75026767E+00  0.49413929E+00  0.74976363E+00
  0.20747933E+00  0.98639340E+00  0.74797762E+00
  0.72419068E+00  0.46819521E+00  0.25321923E+00
  0.23405410E+00  0.96702235E+00  0.39163478E-02
  0.73902181E+00  0.45978047E+00  0.50492613E+00
  0.25318092E+00  0.38421252E-01  0.50450150E+00
  0.75684808E+00  0.48106969E+00  0.77388976E-02
  0.70385857E+00  0.99571693E+00  0.75418400E+00
  0.23531192E+00  0.47250517E+00  0.25026509E+00
  0.25669419E+00  0.48207999E+00  0.75742785E+00
  0.77464411E+00  0.98093378E+00  0.24353605E+00
  0.24720644E+00  0.53223002E+00  0.49902479E+00
  0.73847436E+00  0.96524830E-02  0.99949010E+00
  0.73678370E+00  0.96096763E+00  0.49920373E+00
  0.25512569E+00  0.44740078E+00  0.99949649E+00
  0.99729305E+00  0.22618243E+00  0.37265767E+00
  0.47466709E+00  0.74467935E+00  0.87514275E+00
  0.46296512E+00  0.26001414E+00  0.63466038E+00
  0.30365470E-01  0.74458724E+00  0.12042030E+00
  0.96373964E+00  0.23444368E+00  0.86832819E+00
  0.48029015E+00  0.73497670E+00  0.38185507E+00
  0.98971932E+00  0.75281870E+00  0.62582256E+00
  0.49542226E+00  0.21184938E+00  0.12566794E+00
  0.15552405E+00  0.34019988E+00  0.40375624E-01
  0.63087161E+00  0.87800992E+00  0.55449103E+00
  0.63400098E+00  0.10027685E+00  0.95675801E+00
  0.15418129E+00  0.60585705E+00  0.44220224E+00
  0.36424966E+00  0.36831478E+00  0.95358872E+00
  0.84548735E+00  0.86853170E+00  0.44982415E+00
  0.84060537E+00  0.11328598E+00  0.45190113E-01
  0.34944555E+00  0.63946897E+00  0.54818727E+00
  0.87612128E+00  0.80419945E-01  0.19747520E+00
  0.33216898E+00  0.58169129E+00  0.70071333E+00
  0.85751477E+00  0.89103408E+00  0.30025383E+00
  0.35229063E+00  0.37954062E+00  0.80138801E+00
  0.12958937E+00  0.57178350E+00  0.29725554E+00
  0.60525026E+00  0.98018543E-01  0.80373351E+00
  0.13790578E+00  0.37999586E+00  0.19850719E+00
  0.60337841E+00  0.88060927E+00  0.70643453E+00
  0.84630338E+00  0.58199564E+00  0.95410363E+00
  0.35518238E+00  0.12460773E+00  0.45270480E+00
  0.84445871E+00  0.35210793E+00  0.54876523E+00
  0.33557676E+00  0.86330954E+00  0.47079960E-01
  0.14883820E+00  0.12925559E+00  0.55153330E+00
  0.66189112E+00  0.59068184E+00  0.48391828E-01
  0.13175559E+00  0.86224554E+00  0.95339986E+00
  0.61830773E+00  0.37899114E+00  0.45886711E+00