Na88 Ge16 P8 S96                        
   1.00000000000000     
    13.3422163233000006    0.0000000000000000    0.0000000000000000
     0.0000000000000000   13.3422163233000006    0.0000000000000000
     0.0000000000000000    0.0000000000000000   26.6844326466999995
   Na   Ge   P    S 
    88    16     8    96
Direct
  0.9687876512749261  0.9807807650933718  0.1124566903550300
  0.5244462246604185  0.4933243120002142  0.7357003604803583
  0.2222177051787524  0.4096552349845313  0.8805033572080929
  0.9789807604750905  0.0110102328974725  0.3577828645190904
  0.4521935766155933  0.9783423802931386  0.8682970290878077
  0.9794269811722102  0.5454227527844989  0.3773441711959902
  0.0133763112164370  0.4577102903165209  0.1195054112042974
  0.2448138303106566  0.2590904018034224  0.1334131341028532
  0.7164644802319832  0.0157614616571269  0.6248771376296678
  0.7209133158184334  0.2332486305785456  0.7416373970453128
  0.7321430844306450  0.4950891301633445  0.3773906030611793
  0.2059872459077697  0.2245194595826757  0.7643578811861594
  0.7645505442778608  0.2638678659028802  0.1153828795471927
  0.2440689830438323  0.7468367365333324  0.6139006506810603
  0.9790752751753720  0.9302076000433187  0.8865111423556311
  0.5032901090784005  0.4771010451841703  0.3834318522629719
  0.9677127169124647  0.0437844277008266  0.6226937251230206
  0.2216170420173979  0.5076690041666011  0.6339479730536942
  0.4701410972604254  0.9903374928241027  0.1135260915614044
  0.9786576601409707  0.4949774771945250  0.8738126784232517
  0.5078270905236792  0.0393265523944529  0.3814893446670029
  0.2886035222176250  0.0141893210642359  0.3712275824559115
  0.7077030626349288  0.2306576160099530  0.8646701876553140
  0.7982998462212210  0.5215735429892596  0.6195879014577448
  0.2517670446889765  0.7335465933162278  0.1306295013146900
  0.2396245641414963  0.2845525906142357  0.4888759702293645
  0.7347782728751725  0.7611717600506073  0.1227303945745339
  0.0121116280030213  0.2877683568920589  0.5104764891368667
  0.5018501365023709  0.9691850354449701  0.4971452385453909
  0.4830034944383291  0.2291233209691243  0.9916433880451686
  0.0098234456463620  0.5298624241473275  0.5250397539206798
  0.8749142300972780  0.7354687664309070  0.7324114280539988
  0.9985850572236210  0.7521217754456596  0.2551493423937080
  0.4696054412664398  0.2237174709126951  0.7674370016898586
  0.9963389132583541  0.6750362195971604  0.9839030039308485
  0.7656442047054512  0.2345124715051187  0.4945039823294519
  0.6894968014669531  0.7543964682387519  0.9806480520309203
  0.9195138200890473  0.2189953526706865  0.2633743890348995
  0.2192525892532328  0.7331740737799451  0.7509337075299415
  0.4856232766057015  0.7355198832210136  0.2435629399738945
  0.0388854589147973  0.9982709067613421  0.2391207924991162
  0.4417957729147844  0.4486172907970838  0.8842387438582269
  0.4446173141254579  0.9840208550872718  0.7390014122696205
  0.9600657625134400  0.4741263646524893  0.2538838475638628
  0.2417890710906771  0.2119580211147410  0.0082703416413470
  0.7110078059614776  0.7270509194453634  0.4839445864938233
  0.2714217859960450  0.7757134395919225  0.4870515880589076
  0.7628108193483468  0.2565520381978488  0.9952037790977072
  0.9430061418955311  0.9803133133454754  0.7691462542329635
  0.4730147513094549  0.4978362490159158  0.2497488606867879
  0.0146887666327594  0.4983301342772208  0.7499723718986205
  0.5408188968500970  0.0439054044566308  0.2471967518071615
  0.2580843377092698  0.2629782436203570  0.3765858385151511
  0.7424108195312791  0.7094703200715465  0.8703480389842706
  0.7393811286379188  0.2560630462827317  0.6244983474896610
  0.2137254869190753  0.7209365180046637  0.0107663564682085
  0.9964299472964809  0.0034976185736906  0.9927637828192650
  0.4962462259111708  0.5552765914122072  0.4852609816506945
  0.4803285727927843  0.5363522293423145  0.1252070427704048
  0.9626534728308941  0.7530712381902910  0.4837554450924404
  0.4783358365490383  0.9004229335964788  0.9821632487899915
  0.0095758047346928  0.0152981379316294  0.4994950383198021
  0.9912777323646759  0.4144617087255044  0.9859542400825860
  0.4937964454708126  0.2764432846519315  0.4999871560686301
  0.6355786873169642  0.2757694130173286  0.2382474126130007
  0.7343073374132123  0.4656440979909544  0.8786102812787046
  0.2610017288697823  0.7557897686780742  0.2534260848488379
  0.9746089305011241  0.2614286548942357  0.7439902307430576
  0.7351169230153392  0.7627307461375435  0.2543267945879065
  0.1909587888127192  0.2419322731077848  0.6391706402232725
  0.2408652386243819  0.2412258085435798  0.2560274998527809
  0.5517969524067009  0.7594880235599376  0.7687663042244668
  0.2285560643731357  0.4764125404331332  0.1223686701260505
  0.4589038200045488  0.9958468255760101  0.6247957163850008
  0.7316728555879685  0.9951847105932492  0.8677940253699675
  0.2250292640192969  0.5101140520639785  0.3822026887463589
  0.2306093425788198  0.7672156491621965  0.8859858151206939
  0.7439483143825883  0.9675587667608547  0.3802626670778110
  0.7252983266858108  0.0363430213082618  0.1176093465340998
  0.4820952553358438  0.5012664149428225  0.6214025683204278
  0.4834194387099402  0.5328243819811859  0.9884954779293599
  0.2352452191491990  0.7734892333263870  0.3835396785392848
  0.7152976309385481  0.7694974774742345  0.6233748871245417
  0.2275601812375060  0.9444032695985890  0.1335366081057517
  0.2165242401679604  0.9873016557999079  0.6202341359766821
  0.7512064604107266  0.4947641716739762  0.1228281712974656
  0.1918102143184924  0.0502056152162265  0.8800607474708348
  0.7358703557147462  0.2379528657662830  0.3677401543926994
  0.2876753251030812  0.0044493368570389  0.2507616261076280
  0.7469223507926903  0.4916255090650161  0.7390445419267092
  0.2051670003844819  0.9821589189232981  0.7538898799971055
  0.7296515511810993  0.4988145307084363  0.2520401431908676
  0.2286502871830325  0.9631251334533582  0.0140772363232182
  0.7431274074141241  0.4704987981031306  0.5015078596129562
  0.2391563527250389  0.0347102358088583  0.4927751423065230
  0.7306306807978622  0.5018546801756545  0.9992838371532070
  0.7134991801435971  0.9888315043064261  0.7484543967393841
  0.2256988676606279  0.5070465221514957  0.2490536227117892
  0.2621053978081164  0.4767376355642998  0.7566316717105231
  0.7864326238110094  0.0076634634541910  0.2414084929187422
  0.2491829966750226  0.5273791015002851  0.5018950104273930
  0.7388067626903875  0.9978455873515615  0.9917938824507848
  0.7418957681413560  0.9832187239238348  0.4994278549511930
  0.2425191336262827  0.4611180076618067  0.0055647133033904
  0.0064607563206701  0.2625837875707677  0.3767247155326264
  0.4798767092808097  0.7230175389896341  0.8803346258455358
  0.4714548606710516  0.2534371725594876  0.6363043982779764
  0.9955846210318390  0.7333083991687972  0.1217613827291029
  0.9720632690865801  0.2330496986166992  0.8756205334215218
  0.4919699049805016  0.7595341547939775  0.3705386404696799
  0.9933055138832269  0.7571604496287739  0.6195859737759336
  0.4867117474748515  0.2519989262432833  0.1255696613789319
  0.1443684206630717  0.3472316613388511  0.0534419792179639
  0.6495172682603688  0.8806498319178324  0.5424874440874935
  0.6435471039892009  0.0922414856273950  0.9432223469108900
  0.1460065169204759  0.6191915148146919  0.4558943540549600
  0.3423224280193523  0.3700004670636478  0.9550349664872644
  0.8574752307437492  0.8931857684832437  0.4501323335346306
  0.8463085238459177  0.0891612503752255  0.0434707138163493
  0.3605026686946625  0.6146822023144346  0.5549546353255244
  0.8844102039563663  0.0954962154766791  0.1868626764365864
  0.3490352324623707  0.5791802767672408  0.7106204727622267
  0.8693414426933640  0.9065871267736244  0.2959380610823965
  0.3504149030092395  0.3738272112671998  0.8028244689473022
  0.1204159407306961  0.6061299100614582  0.2859091315890108
  0.6029336572097290  0.0674848353303412  0.7938340854761744
  0.1420779742354133  0.3983122714281236  0.2045398180392948
  0.6101038020790909  0.8972023481360755  0.6983941212347962
  0.8198792257353762  0.5826096039716829  0.9450853150694400
  0.3495436982090608  0.1285699664857939  0.4510515273228293
  0.8489663715054170  0.3766112620772177  0.5520419585389899
  0.3419420574504341  0.8755253634995237  0.0606731190207058
  0.1337563183702347  0.1267374910527408  0.5438425498138756
  0.6440720701750225  0.6004380361447555  0.0483207269678484
  0.1202686403678444  0.8735034661879971  0.9597818110033499
  0.6466697763918039  0.3754181969601388  0.4469282260879416
  0.6385466413620207  0.4035197470562643  0.3090079601416695
  0.1104950431385996  0.8940657127279819  0.8092428503358368
  0.1042874301595931  0.0860754040678620  0.7111886144287279
  0.6316458150424815  0.5873096059740629  0.2021819398664231
  0.8591045785871195  0.3784037370260262  0.6964184344790392
  0.3640824679925537  0.8983770464670841  0.2046518538865512
  0.3818093706825055  0.1058415488496239  0.2944033492864481
  0.8508648466262211  0.5752517925135768  0.7914331898099645
  0.1449267415418397  0.0661940354814764  0.0581467202156710
  0.6364587747545979  0.5540931443701713  0.5471529603876825
  0.6369605180602882  0.3989730600202734  0.9551945252702635
  0.1478642690553938  0.9419730762924126  0.4457196178132958
  0.3197866332210987  0.0357218547274610  0.9558209388825636
  0.8334479141752411  0.5785678781891287  0.4548450729411276
  0.8325916991588855  0.4105267133630954  0.0464102369318681
  0.3274361731394844  0.9388346627310072  0.5460515685575074
  0.1916520580653417  0.0935523194817757  0.1960973138973982
  0.6878780803347847  0.6091597211758654  0.6884747665874790
  0.1874955046171034  0.9196744911506324  0.3029470676200869
  0.6477670536190843  0.3956269841309146  0.7870364952879251
  0.8337028741052179  0.5995275858058629  0.2978584854702496
  0.3149885297394158  0.0624321039695436  0.8032289338889723
  0.8134902595622026  0.3906217736060654  0.2065443695056499
  0.3029922220451889  0.8842740072561971  0.7013632215255490
  0.8309026873383638  0.8915469836966063  0.9464575884573638
  0.3322603639771994  0.4273270633829999  0.4533777546466298
  0.8466099444050070  0.0735721798689509  0.5430593430911317
  0.3241497456158673  0.5689295916492365  0.0499916395420175
  0.1530696332564646  0.4276196367091110  0.5459615634180304
  0.6340771317384076  0.9122742392621062  0.0456310738941397
  0.1402340898971960  0.5368449252613712  0.9484232403255944
  0.6495913509682617  0.0919529285496917  0.4558726041226027
  0.3343891033091955  0.4123145993381643  0.2955721287812511
  0.7882542282573226  0.8678337738615447  0.7901093887144627
  0.8140625478547551  0.0806825318065611  0.7006661778461613
  0.3241854169639448  0.5941446659643049  0.1940834312235954
  0.1631058317653867  0.3790296719379417  0.7019672906465055
  0.6764163868494291  0.9189321836102710  0.1995282234210987
  0.7030507944113042  0.1151361399495341  0.2917216542095090
  0.1626343932145412  0.5635276610997980  0.8148262071589800
  0.0943737832510238  0.1806481382006925  0.3301180722432747
  0.5426941620876190  0.5926986459963501  0.8431184802707669
  0.5526680238205175  0.3344109199576901  0.6831862720328548
  0.0762941084906517  0.8424982316480533  0.1617073639740694
  0.3739474973581002  0.1636644111274530  0.6730865325870420
  0.9149785138343411  0.6519665544501115  0.1716014303116971
  0.9047947755940524  0.3467214963548881  0.3405885527173835
  0.3782487471821624  0.7903676864565211  0.8289502931405400
  0.0348212031422865  0.1384436581814642  0.9271542729084221
  0.5689030021985734  0.6678465845846875  0.4128349374958275
  0.0818267828410564  0.8497043998792085  0.5793283470477610
  0.5721325503487380  0.3537788981929411  0.0861637735003351
  0.8916891360819080  0.6762383735701811  0.5729326578354514
  0.3966749440661986  0.1735834516917013  0.0787664518977085
  0.8806153634582605  0.3333570093922797  0.9102938966570375
  0.4104311644049913  0.8489873396954106  0.4191694711138962
  0.9039295044788611  0.8528727845941704  0.6627247798919491
  0.4095475202354581  0.3199604987666243  0.1824268205919966
  0.8781286995106251  0.1500186101333819  0.8352572334390550
  0.3913151946542028  0.6663952335235424  0.3305551021111247
  0.0701006206133112  0.3081711736201393  0.8328095834195908
  0.5865049879237845  0.8440839555905457  0.3225633656340134
  0.0754315336351076  0.6588880156560297  0.6565050073285156
  0.5871789047278441  0.1479510297224916  0.1619493266832674
  0.3893200392809968  0.3348522645035966  0.5890617046930605
  0.9128156549162937  0.7967969346217058  0.0725706109950946
  0.9308127204831228  0.1591661046936509  0.4176904856392907
  0.4207861965672272  0.6995584172452902  0.9487517532481788
  0.0990729701291324  0.3488643490168866  0.4191702070553202
  0.5905484275135379  0.8168933882825334  0.8795791200012442
  0.5691171565282833  0.1682421124850964  0.5924856371248968
  0.1059152064619073  0.6480966499789963  0.0849305991850463
 
  0.44828153E-02  0.28142464E-02  0.87334462E-02
 -0.47552716E-02 -0.56391251E-02 -0.30331173E-02
  0.78753215E-02 -0.29796856E-02  0.89196550E-02
  0.53307422E-02 -0.21143329E-02  0.10237974E-02
  0.18979178E-02  0.33030294E-02 -0.37191167E-02
  0.61447453E-02 -0.38791634E-02  0.63507448E-02
  0.61269984E-02 -0.38244452E-02  0.65495960E-02
 -0.60823670E-03 -0.38704421E-02  0.26073286E-02
  0.47005348E-02  0.38233419E-03 -0.36322974E-03
 -0.11438572E-02  0.28141059E-02 -0.79354401E-02
  0.17326300E-02  0.11038382E-02 -0.32050028E-02
  0.22173767E-02  0.11199309E-02 -0.27728393E-02
  0.81204210E-02 -0.66321987E-02 -0.25802007E-03
 -0.71026801E-02  0.35635865E-02 -0.28454704E-03
 -0.59101556E-02  0.47737439E-02 -0.37753546E-02
 -0.10050811E-02  0.29483871E-02  0.18466517E-02
 -0.16519724E-03 -0.33349295E-02  0.96479881E-03
  0.17198669E-02 -0.58312478E-03 -0.34248915E-02
  0.32062934E-02  0.28620981E-02 -0.37923371E-02
 -0.11743640E-01  0.45075067E-03  0.45063058E-02
 -0.68513790E-02 -0.10072977E-02 -0.56641576E-02
  0.10117414E-02  0.30443637E-04  0.86532924E-03
 -0.44823753E-03 -0.12280887E-02 -0.11775837E-02
  0.71074734E-02 -0.48212447E-02 -0.10281352E-01
  0.95407664E-03 -0.50411634E-02 -0.46917965E-02
 -0.72790814E-03 -0.26209315E-02  0.12404363E-02
 -0.23526619E-02  0.95969323E-02 -0.22979927E-03
  0.98535394E-03 -0.36145408E-02  0.12432724E-02
 -0.23412317E-02  0.16026502E-02  0.17805984E-02
  0.64507428E-02 -0.12497003E-02 -0.73217946E-02
 -0.20580836E-02  0.92506531E-03  0.17319962E-02
  0.14825384E-03 -0.42715987E-03  0.66323631E-03
 -0.67455194E-02  0.42426916E-02  0.53108619E-02
 -0.25531228E-02 -0.54517904E-02  0.40830270E-02
  0.35089214E-02 -0.68114707E-02 -0.33480733E-02
 -0.76313518E-02 -0.40997746E-02  0.29860578E-02
 -0.12650673E-01 -0.12293720E-02 -0.51785317E-02
  0.50798872E-02 -0.24943505E-02 -0.38258374E-02
 -0.49436020E-02  0.28205898E-02 -0.73310382E-03
 -0.10679318E-03 -0.69409576E-02 -0.68555083E-02
 -0.10966246E-01  0.49135513E-02 -0.43024601E-02
 -0.22652634E-02  0.40373940E-02  0.27041265E-03
 -0.22527586E-02  0.63116486E-02 -0.56525758E-02
  0.79322787E-02  0.36588400E-02  0.42787381E-02
 -0.45167423E-02 -0.13454527E-02  0.84210198E-02
 -0.18335101E-02  0.37801260E-02  0.42979606E-02
 -0.21609069E-02  0.10213455E-02  0.44241653E-02
 -0.11979243E-02 -0.54020333E-03 -0.39224132E-02
 -0.65432162E-03  0.72669339E-02  0.31682471E-03
 -0.44495548E-02 -0.69510676E-02 -0.25632293E-02
  0.51280722E-02  0.32400318E-02  0.66981125E-02
 -0.60064621E-02  0.52612469E-02 -0.27437665E-02
  0.51023279E-02 -0.86342896E-03  0.22237970E-03
  0.30264670E-03 -0.31509954E-02  0.28806566E-02
  0.40703610E-03 -0.59867803E-03  0.24064072E-02
 -0.17600516E-02  0.11614933E-01 -0.72055414E-02
 -0.12551555E-01 -0.10448705E-02  0.67957509E-02
  0.27034991E-02  0.37995385E-02  0.29412740E-02
 -0.79702312E-02  0.31852953E-02  0.33771555E-02
  0.95661147E-03  0.12402962E-01  0.53810317E-02
 -0.50807192E-02 -0.11700936E-03  0.15901472E-02
 -0.24714813E-02  0.19963050E-02 -0.70380684E-02
 -0.22482842E-02  0.72739761E-05 -0.22732277E-02
  0.14895374E-02 -0.91450678E-02  0.68010644E-04
 -0.46023962E-02 -0.44533483E-02 -0.27497266E-02
 -0.29488035E-02 -0.78419199E-03 -0.13095702E-02
  0.42091541E-03  0.68704631E-02  0.15711364E-02
 -0.47873385E-02  0.41782259E-02 -0.11852910E-02
 -0.63800089E-02  0.54155079E-02  0.13317674E-02
  0.27981340E-02  0.22694681E-02  0.21202148E-02
  0.20204040E-02 -0.48244884E-03  0.24296700E-02
 -0.85514987E-03  0.28158254E-02 -0.50749910E-02
  0.69588773E-02 -0.36905274E-02 -0.26899764E-02
 -0.49428989E-02 -0.61875749E-02 -0.89013461E-02
  0.10521429E-02  0.56495700E-02  0.17904465E-03
 -0.34981587E-02  0.10380492E-01  0.19543002E-02
 -0.13120902E-02  0.46168739E-02  0.55246142E-02
 -0.79823125E-03 -0.17534122E-03  0.15819386E-02
  0.45078559E-02  0.33974504E-02  0.11017011E-01
  0.67527020E-02  0.10438444E-02 -0.54462020E-02
  0.14884202E-02 -0.30591175E-02 -0.40539961E-02
  0.25525513E-02 -0.51869243E-02  0.10298498E-02
  0.24940164E-02  0.30756443E-03 -0.35997222E-02
 -0.83775435E-03 -0.34866181E-02 -0.45235373E-02
  0.23496481E-02 -0.41081526E-02 -0.55201638E-02
  0.80865013E-02  0.26127378E-02  0.64352074E-02
  0.17833825E-02  0.18038780E-02 -0.22751738E-02
  0.11304666E-02 -0.18832097E-02  0.31005217E-02
  0.41152717E-02 -0.16360745E-02 -0.13513814E-02
  0.60137700E-02 -0.46110519E-03 -0.13305721E-02
 -0.60018027E-03 -0.12024802E-02  0.37979218E-03
  0.92889258E-03  0.16210044E-02 -0.22726045E-02
 -0.18518491E-02  0.38329089E-02 -0.50409667E-02
  0.13808145E-03  0.78481139E-03  0.39004263E-02
  0.23841804E-02 -0.46587747E-02  0.13019460E-02
 -0.53955769E-02  0.19035810E-02  0.22175715E-02
  0.88998793E-03  0.45357610E-02  0.60125859E-03
 -0.16339254E-02 -0.53272806E-02 -0.15808273E-02
  0.89660494E-03  0.33726568E-02  0.16123731E-02
  0.26354617E-02  0.87184157E-04 -0.78520333E-03
  0.18385822E-02  0.74362998E-03  0.22672990E-02
  0.11961490E-02 -0.12750807E-02 -0.30275551E-02
 -0.13372984E-02 -0.35485175E-03  0.28723725E-02
  0.33161276E-02  0.15692290E-02  0.26266664E-02
 -0.32877973E-02 -0.38414555E-02  0.56197299E-03
  0.25371447E-02 -0.30543498E-02  0.95652847E-04
  0.25478703E-03 -0.30787072E-02 -0.50580577E-02
 -0.17876191E-02  0.43401416E-02  0.35424481E-02
 -0.49518324E-02  0.12205859E-03  0.43500038E-02
  0.39542498E-02 -0.44796050E-02 -0.29264016E-03
 -0.72764792E-02  0.47318997E-02 -0.18060235E-02
 -0.28577408E-03 -0.40633849E-02 -0.11519371E-02
 -0.18733342E-02 -0.17839873E-02  0.30989739E-02
  0.43714055E-02 -0.75949864E-03 -0.28550403E-02
 -0.31925903E-02 -0.10485501E-03  0.32898035E-02
 -0.63007593E-04 -0.47465792E-02 -0.70198520E-03
 -0.66648926E-02  0.74724410E-03  0.32811075E-02
  0.42001724E-02  0.54988193E-02 -0.17905214E-02
  0.40796151E-03  0.20814110E-02 -0.82369471E-03
 -0.21781688E-02  0.97517372E-03  0.79778759E-03
 -0.92401077E-02  0.70363653E-02 -0.41561981E-02
  0.43586386E-02  0.25354346E-03 -0.39343712E-02
  0.14497294E-02  0.13247018E-02 -0.17633722E-03
  0.35922299E-02  0.99596840E-03  0.60983505E-02
 -0.71206402E-02  0.67715915E-02 -0.44766344E-02
 -0.40526464E-03  0.42658438E-03  0.26962868E-02
 -0.39047225E-02 -0.80624291E-03  0.12047504E-03
  0.33267057E-02 -0.38288725E-02  0.36387359E-02
 -0.53736516E-02 -0.71364098E-02 -0.51746125E-02
  0.37170777E-02  0.24025689E-02 -0.24133239E-02
 -0.74762615E-02 -0.67646320E-02  0.76315788E-03
 -0.23852270E-02  0.25991944E-02 -0.48264463E-03
  0.29703990E-02 -0.60257815E-02 -0.88327755E-03
 -0.28144776E-02 -0.15546145E-02 -0.23381046E-02
  0.16048044E-02  0.54509238E-02 -0.22710884E-02
  0.20376539E-02  0.58316372E-02  0.30321753E-02
  0.28080536E-03  0.77428176E-03  0.14493358E-02
  0.53103557E-02 -0.10088422E-02  0.18598227E-02
 -0.67259412E-03  0.20238684E-03 -0.31154891E-02
 -0.35373965E-02 -0.10126538E-03  0.14187717E-02
 -0.40579696E-02  0.13849182E-02  0.43487555E-02
 -0.73987462E-03  0.40965635E-02  0.71120170E-03
  0.48583199E-02  0.85945301E-03 -0.62557849E-02
  0.11318511E-02  0.75175648E-03  0.78702509E-02
 -0.23680421E-02  0.61974495E-03 -0.24852843E-02
  0.27493645E-02 -0.18382092E-02 -0.80379387E-03
 -0.45578102E-02  0.62329584E-02  0.76642549E-03
 -0.36679334E-02 -0.20681701E-02  0.84761928E-03
  0.34097907E-02  0.45997452E-03  0.13948542E-02
 -0.70413032E-02 -0.98376110E-03 -0.41572903E-02
 -0.89158261E-03 -0.48467460E-02  0.35224631E-03
  0.64010123E-02  0.31351741E-04  0.92879851E-03
  0.26658039E-03 -0.48566711E-02 -0.11176244E-02
 -0.31369685E-02 -0.22236188E-02 -0.14445594E-02
  0.57139517E-03  0.15530079E-02  0.12458502E-02
 -0.77632236E-03 -0.24922273E-02 -0.68758203E-03
  0.24617129E-02 -0.20585054E-02 -0.15066389E-02
  0.25545452E-02 -0.13444954E-03  0.29875455E-02
  0.23407613E-02  0.16174475E-02 -0.83574664E-02
 -0.59919221E-02 -0.13789303E-02  0.26746501E-02
 -0.19911790E-03  0.16192443E-02  0.25958801E-03
 -0.24457096E-02 -0.14188999E-02  0.66117283E-03
  0.55160536E-02 -0.64247857E-03  0.67008975E-02
  0.32106934E-02 -0.68375914E-05  0.13796786E-02
 -0.13864312E-02  0.22730078E-03  0.21905825E-02
  0.18201416E-02  0.17785626E-02  0.39980457E-02
  0.52761039E-02  0.11359595E-02  0.99874381E-03
  0.69107028E-02 -0.24093140E-02  0.42603145E-02
 -0.28881136E-02 -0.10401943E-02 -0.72138294E-03
  0.95054505E-02 -0.74082862E-02  0.26973089E-02
  0.38657250E-02  0.10779864E-02  0.12122244E-04
 -0.18681377E-02 -0.17536959E-02 -0.44968896E-02
  0.13282746E-02  0.36443013E-02  0.17807234E-02
  0.45224689E-02 -0.95384556E-03 -0.58256196E-02
 -0.21305860E-02 -0.22136202E-02  0.30709379E-02
 -0.32702809E-02  0.71093229E-02  0.24707404E-02
  0.60325506E-02  0.22374123E-02  0.12649640E-02
 -0.47596000E-04  0.13952897E-02  0.20512834E-02
 -0.11775724E-02 -0.60348290E-02 -0.10969255E-01
 -0.15057149E-02 -0.36956664E-03  0.11594368E-02
  0.18683743E-02 -0.12570104E-02  0.53737199E-03
 -0.15902913E-03 -0.18336049E-02  0.24580425E-02
  0.18218883E-02  0.83230814E-02 -0.60920374E-03
  0.56527778E-02 -0.37800912E-02  0.26039649E-02
  0.23023297E-02 -0.41003668E-02 -0.53670391E-03
 -0.44870622E-02 -0.63166822E-02  0.33019953E-02
 -0.34841368E-02 -0.32851412E-02 -0.43104169E-02
 -0.33508117E-02  0.23930629E-02  0.57958532E-03
  0.57865594E-02 -0.29996365E-02  0.37635476E-03
 -0.33785994E-02  0.37105353E-02  0.41661871E-03
  0.53453250E-02 -0.26822030E-03  0.18164758E-02
 -0.39504921E-02 -0.92147431E-03  0.15497640E-02
 -0.91254212E-03  0.36566654E-02  0.38143474E-02
  0.21682607E-02 -0.41492473E-02 -0.30849818E-02
  0.60802732E-02 -0.34118859E-04 -0.53823899E-02
 -0.16044640E-02 -0.64044324E-02 -0.41907688E-02
 -0.87135706E-03  0.23589488E-03  0.19893075E-02
 -0.36294674E-02  0.48388216E-02 -0.44927557E-02
 -0.52797998E-02  0.36245472E-02 -0.34617157E-02
 -0.24966964E-02  0.27799150E-02 -0.11843552E-02
 -0.57329620E-02 -0.69825226E-02 -0.77994194E-03
 -0.40339751E-02 -0.19810816E-02 -0.20848367E-02
  0.29923477E-02  0.16077448E-02 -0.82596059E-02
  0.65651323E-02 -0.62185438E-02  0.16971448E-02
 -0.68820549E-03 -0.31445529E-02  0.64338217E-02
 -0.20531817E-02  0.49802847E-02 -0.53740987E-03
  0.79554050E-02 -0.46325088E-02 -0.68434162E-03
 -0.35513509E-02  0.72043803E-03  0.79501293E-02
 
           1
   2.00000000000000     
  0.11105122E+01 -0.35960729E-02  0.00000000E+00  0.00000000E+00
  0.96945963E+00  0.98120262E+00  0.11311126E+00
  0.52373341E+00  0.49247901E+00  0.73547303E+00
  0.22339822E+00  0.40920858E+00  0.88117189E+00
  0.97977984E+00  0.10693294E-01  0.35785960E+00
  0.45247807E+00  0.97883750E+00  0.86801828E+00
  0.98034808E+00  0.54484127E+00  0.37782016E+00
  0.14294749E-01  0.45713701E+00  0.11999630E+00
  0.24472266E+00  0.25851022E+00  0.13360855E+00
  0.71716909E+00  0.15818774E-01  0.62484991E+00
  0.72074185E+00  0.23367047E+00  0.74104264E+00
  0.73240281E+00  0.49525460E+00  0.37715039E+00
  0.20631963E+00  0.22468734E+00  0.76415006E+00
  0.76576780E+00  0.26287370E+00  0.11536354E+00
  0.24300429E+00  0.74737092E+00  0.61387932E+00
  0.97818934E+00  0.93092318E+00  0.88622818E+00
  0.50313945E+00  0.47754301E+00  0.38357026E+00
  0.96768795E+00  0.43284521E-01  0.62276604E+00
  0.22187485E+00  0.50758159E+00  0.63369128E+00
  0.47062172E+00  0.99076652E+00  0.11324186E+00
  0.97689729E+00  0.49504504E+00  0.87415043E+00
  0.50680007E+00  0.39175558E-01  0.38106482E+00
  0.28875518E+00  0.14193885E-01  0.37129244E+00
  0.70763587E+00  0.23047353E+00  0.86458193E+00
  0.79936526E+00  0.52085084E+00  0.61881731E+00
  0.25191006E+00  0.73279092E+00  0.13027785E+00
  0.23951545E+00  0.28415971E+00  0.48896894E+00
  0.73442561E+00  0.76261034E+00  0.12271317E+00
  0.12259333E-01  0.28722654E+00  0.51056967E+00
  0.50149919E+00  0.96942527E+00  0.49727869E+00
  0.48397046E+00  0.22893599E+00  0.99109462E+00
  0.95149386E-02  0.53000109E+00  0.52516957E+00
  0.87493645E+00  0.73540474E+00  0.73246114E+00
  0.99757390E+00  0.75275776E+00  0.25554739E+00
  0.46922273E+00  0.22290025E+00  0.76774302E+00
  0.99686490E+00  0.67401518E+00  0.98365207E+00
  0.76450026E+00  0.23389791E+00  0.49472779E+00
  0.68760046E+00  0.75421219E+00  0.98025992E+00
  0.92027530E+00  0.21862145E+00  0.26308764E+00
  0.21851154E+00  0.73359688E+00  0.75087876E+00
  0.48560727E+00  0.73447943E+00  0.24304912E+00
  0.37241617E-01  0.99900745E+00  0.23879832E+00
  0.44145621E+00  0.44922250E+00  0.88425901E+00
  0.44427963E+00  0.98496697E+00  0.73857775E+00
  0.96125481E+00  0.47467483E+00  0.25420454E+00
  0.24111201E+00  0.21175634E+00  0.89014976E-02
  0.71073296E+00  0.72761756E+00  0.48426672E+00
  0.27109787E+00  0.77586654E+00  0.48738318E+00
  0.76263125E+00  0.25647106E+00  0.99490979E+00
  0.94290806E+00  0.98140263E+00  0.76917000E+00
  0.47234776E+00  0.49679428E+00  0.24955675E+00
  0.15457465E-01  0.49881582E+00  0.75047440E+00
  0.53991853E+00  0.44694066E-01  0.24699111E+00
  0.25884918E+00  0.26284882E+00  0.37660251E+00
  0.74245619E+00  0.70899799E+00  0.87056394E+00
  0.73944214E+00  0.25597330E+00  0.62467871E+00
  0.21346165E+00  0.72267760E+00  0.10226301E-01
  0.99454847E+00  0.33409923E-02  0.99327312E+00
  0.49665148E+00  0.55584614E+00  0.48548143E+00
  0.47913383E+00  0.53682971E+00  0.12546016E+00
  0.96279687E+00  0.75493044E+00  0.48415875E+00
  0.47757424E+00  0.90040539E+00  0.98228243E+00
  0.92053294E-02  0.15597384E-01  0.49896753E+00
  0.99094071E+00  0.41446280E+00  0.98578386E+00
  0.49401973E+00  0.27507244E+00  0.49999225E+00
  0.63488879E+00  0.27510186E+00  0.23804132E+00
  0.73386531E+00  0.46552655E+00  0.87851213E+00
  0.26106482E+00  0.75681965E+00  0.25354384E+00
  0.97389131E+00  0.26205497E+00  0.74390139E+00
  0.73416056E+00  0.76354253E+00  0.25442661E+00
  0.19137823E+00  0.24227247E+00  0.63932955E+00
  0.24116810E+00  0.24115349E+00  0.25620960E+00
  0.55166877E+00  0.75991012E+00  0.76838593E+00
  0.22959920E+00  0.47585933E+00  0.12216706E+00
  0.45816288E+00  0.99491931E+00  0.62412856E+00
  0.73183057E+00  0.99603158E+00  0.86780744E+00
  0.22450489E+00  0.51167009E+00  0.38234916E+00
  0.23041266E+00  0.76790772E+00  0.88639989E+00
  0.74382866E+00  0.96753248E+00  0.38038123E+00
  0.72597405E+00  0.36852300E-01  0.11843507E+00
  0.48310749E+00  0.50142289E+00  0.62099438E+00
  0.48364255E+00  0.53236582E+00  0.98819163E+00
  0.23562785E+00  0.77271171E+00  0.38361687E+00
  0.71567148E+00  0.76954358E+00  0.62310509E+00
  0.22743460E+00  0.94388063E+00  0.13319757E+00
  0.21687645E+00  0.98668584E+00  0.61982040E+00
  0.75241863E+00  0.49515582E+00  0.12331049E+00
  0.19207754E+00  0.50476017E-01  0.87989022E+00
  0.73603981E+00  0.23767057E+00  0.36797254E+00
  0.28829220E+00  0.42040891E-02  0.25066034E+00
  0.74782382E+00  0.49155639E+00  0.73894482E+00
  0.20507703E+00  0.98197867E+00  0.75391835E+00
  0.72979079E+00  0.49905752E+00  0.25186981E+00
  0.22837269E+00  0.96369969E+00  0.13699416E-01
  0.74314811E+00  0.47061644E+00  0.50180020E+00
  0.23951374E+00  0.34011885E-01  0.49287272E+00
  0.72982188E+00  0.50214003E+00  0.99945004E+00
  0.71363259E+00  0.98951142E+00  0.74849946E+00
  0.22545394E+00  0.50624796E+00  0.24893514E+00
  0.26223980E+00  0.47724320E+00  0.75675252E+00
  0.78682768E+00  0.76765324E-02  0.24134964E+00
  0.24945860E+00  0.52749057E+00  0.50206494E+00
  0.73898607E+00  0.99765445E+00  0.99156697E+00
  0.74169531E+00  0.98316553E+00  0.49964314E+00
  0.24301622E+00  0.46135324E+00  0.57615821E-02
  0.59679151E-02  0.26200795E+00  0.37676684E+00
  0.48025703E+00  0.72255969E+00  0.88034180E+00
  0.47149305E+00  0.25297567E+00  0.63592530E+00
  0.99531666E+00  0.73395899E+00  0.12202689E+00
  0.97132099E+00  0.23306800E+00  0.87594657E+00
  0.49256265E+00  0.75886266E+00  0.37051671E+00
  0.99221477E+00  0.75786976E+00  0.61945061E+00
  0.48666891E+00  0.25138982E+00  0.12548332E+00
  0.14408761E+00  0.34696424E+00  0.53674248E-01
  0.65017254E+00  0.88053598E+00  0.54227346E+00
  0.64306853E+00  0.92225768E-01  0.94346892E+00
  0.14599707E+00  0.61848000E+00  0.45584174E+00
  0.34132336E+00  0.37011248E+00  0.95528089E+00
  0.85810484E+00  0.89401004E+00  0.44999813E+00
  0.84636968E+00  0.89473254E-01  0.43408978E-01
  0.36017616E+00  0.61482838E+00  0.55501443E+00
  0.88302511E+00  0.96550968E-01  0.18655117E+00
  0.34968859E+00  0.57921828E+00  0.71032559E+00
  0.86955876E+00  0.90678570E+00  0.29592484E+00
  0.35095338E+00  0.37397651E+00  0.80328154E+00
  0.11934856E+00  0.60714497E+00  0.28557361E+00
  0.60287291E+00  0.67548780E-01  0.79403617E+00
  0.14149266E+00  0.39819142E+00  0.20454885E+00
  0.61060248E+00  0.89662840E+00  0.69866684E+00
  0.81907371E+00  0.58153986E+00  0.94469748E+00
  0.35010089E+00  0.12893011E+00  0.45087065E+00
  0.84784568E+00  0.37559724E+00  0.55209916E+00
  0.34158451E+00  0.87591498E+00  0.60636945E-01
  0.13420158E+00  0.12583423E+00  0.54377635E+00
  0.64365018E+00  0.60020500E+00  0.48145486E-01
  0.12050920E+00  0.87432056E+00  0.95961159E+00
  0.64697522E+00  0.37629236E+00  0.44715549E+00