Na88 Sn16 P8 Se96                       
   1.00000000000000     
    14.0793397336999995    0.0000000000000000    0.0000000000000000
     0.0000000000000000   14.0793397336999995    0.0000000000000000
     0.0000000000000000    0.0000000000000000   28.1586794673000007
   Na   Sn   P    Se
    88    16     8    96
Direct
  0.2510222337341531  0.0017001898662714  0.1199754741785504
  0.4981765587793738  0.5744552344040322  0.7775191857470667
  0.0302453901829137  0.5261844943477207  0.8821441744772125
  0.9898815052266481  0.9777598327448489  0.4793284104354772
  0.7484316302064167  0.9955272980713666  0.8565094450353525
  0.9589124192888280  0.4815523380601695  0.3644543393262822
  0.7431374403522725  0.7655246167135177  0.2379515422564701
  0.2899026648783092  0.2485204772891863  0.0036935720923040
  0.7122666498847308  0.7632430297478660  0.6138670499715430
  0.7751762933067331  0.2554770813978583  0.8678641020270570
  0.7252124009887259  0.4867772801756581  0.3693997645884935
  0.9951165895117327  0.9917968389398554  0.8662430317185379
  0.7825691219485070  0.2814894101085100  0.1221599792003039
  0.2650216189077131  0.7875151533496622  0.7696913560192298
  0.4674414429992947  0.0251420648945573  0.8891798527147339
  0.9962607401071084  0.4713748722182228  0.4875715563646508
  0.1984822174488702  0.0198204794471064  0.6228128856662246
  0.9344228214808651  0.2614286674050865  0.7551900706614646
  0.5025927871763234  0.0216678083224299  0.1403840362395198
  0.0074673884665854  0.0490027471178830  0.9693305200323661
  0.4718649385976036  0.0406077085078304  0.5092924996110539
  0.2849716791848676  0.2622778617618780  0.3835468097297805
  0.7382392830150566  0.7528417091967764  0.9841387884076281
  0.5121466204923779  0.4600347163361420  0.3665902827560882
  0.2234833573806535  0.4692163192360503  0.3710948362649010
  0.2562237568336214  0.5172667686316429  0.6304164102301740
  0.3522404099930503  0.7550518207973007  0.2635065217245063
  0.7883059098334944  0.7421577492710505  0.3687978058442271
  0.5156032504205069  0.2938935006561293  0.5050458952772352
  0.5139958563887284  0.0152291813769224  0.9958812265888677
  0.1791855755534678  0.7372260838801610  0.5261847849218755
  0.7236901778117111  0.7391667921748711  0.7451358284065451
  0.9238381358043706  0.5288272377856295  0.1177952775785910
  0.7589600201586580  0.4818375939138900  0.6222389437286239
  0.8162874211752870  0.2681729255615668  0.9950214390302877
  0.7642081009971905  0.2356139154100947  0.4996907865871467
  0.5269874220390228  0.4953091331773939  0.9932960389341828
  0.2481571251168588  0.2383605749020901  0.1203424890552932
  0.2747391224676779  0.5210138018376063  0.8639054072252073
  0.0481257184798519  0.7655198877141316  0.2581613084785779
  0.0251056533666036  0.0261903116357321  0.2596280724150612
  0.6820282804853188  0.2348974389802892  0.7456092522046578
  0.4738225735507010  0.0188770816977249  0.7479972500339759
  0.0439735536233385  0.5359012819769410  0.2230098161676600
  0.9956488147548609  0.7434578273603440  0.9984807010621702
  0.8303281315286362  0.7314536099142213  0.5040563117233866
  0.5133783367075556  0.7720198900828562  0.4952923081797028
  0.5191069319693723  0.2508421838725434  0.9706593944671921
  0.9806678076191937  0.0489654330124708  0.7287057151940270
  0.2288094633453776  0.2437953759848148  0.2686214567126736
  0.0402022503395764  0.7654057597326143  0.7384547671891658
  0.5227487508597568  0.9402765009799595  0.2669448733391988
  0.2223643314086726  0.2561153459436144  0.4735319157213143
  0.7251867349830187  0.7336262963322289  0.1215732297528384
  0.7520296864908727  0.2684260438635295  0.6351776043058438
  0.2485731046500035  0.7364118332849248  0.1117408270011696
  0.9971651156278967  0.9992836774328139  0.1218294863963777
  0.4863039303294903  0.5454233604134364  0.4917806046024958
  0.5371569315868244  0.4634018113527920  0.8678572165042618
  0.7321798452744450  0.1872195185247551  0.3763258449775317
  0.4770927038321708  0.7761302551131346  0.9956172328871791
  0.0236928088599835  0.4586669096787410  0.6303103263939911
  0.0324926522213052  0.5128816979377283  0.0141108537873898
  0.4590493496111632  0.9854625533400383  0.6304413661965879
  0.9935228212375472  0.2484307478277772  0.2311435175970477
  0.7822778292032360  0.7705203231680698  0.8724376579762584
  0.2742427094432442  0.9933631813384198  0.3637859848703016
  0.2712280847290188  0.2704220114786048  0.7472394757744946
  0.4946691733798352  0.2451403929964659  0.2479222979635770
  0.4923358751312574  0.2647163849751079  0.7526000609217396
  0.7356387791250653  0.2202111112022549  0.2384414595432638
  0.2774145558586488  0.7560011902149880  0.9118138270680908
  0.2575819206889025  0.4822391253137595  0.1351341542542427
  0.7338257517066951  0.0202619393545002  0.6228281742210812
  0.2285483219085498  0.0246112709316493  0.8759685117236971
  0.5469574374752981  0.6014320968937817  0.2655829487880715
  0.0081932884811646  0.4831244805878355  0.7638842750003378
  0.6004638161833729  0.9554056619685025  0.3856685776764986
  0.7434648345579212  0.0111586453333280  0.1220626898998102
  0.3001051904174542  0.7919023969889457  0.6128432443233790
  0.7577164693852505  0.5342943330331753  0.8772571734900350
  0.0529991453375380  0.9454373826757266  0.3570491996178195
  0.4879118830298024  0.5082786709559122  0.6027460746723928
  0.2177311885928083  0.7411418516692551  0.3750985297184987
  0.1951874634750749  0.2557010335497232  0.5974283277734136
  0.5221956660541214  0.4631301668488935  0.1443715736415958
  0.2840320539900819  0.2894792376591510  0.8637275338731095
  0.9946651907772606  0.2552564319727103  0.5120235735542074
  0.2573774272007089  0.9978824869833282  0.2417170284507626
  0.7711120311545353  0.4980108448918099  0.7509285290085858
  0.2245869663278769  0.0491830002964774  0.7449333287299212
  0.7696272899386023  0.5032289968083024  0.2394821599351176
  0.2292755672055127  0.9785659330488515  0.9947169217288908
  0.7580940258099047  0.5020530998906436  0.4996276734089450
  0.2394927545496695  0.0172880510301053  0.4840596117693324
  0.7598962658421016  0.5129576900826992  0.9942625552741006
  0.7281965227522202  0.9919270703214269  0.7449715160503617
  0.2674887451040560  0.4847800270121178  0.2545576042837345
  0.2368857276616239  0.5555560249685499  0.7370388678518827
  0.7720025382289023  0.9869648424595376  0.2550671301838875
  0.2351667239760908  0.5272283082580560  0.4922471930059980
  0.7518789141644202  0.0094950773780295  0.9954142400878173
  0.7431483329761006  0.9961636059723913  0.4980247618937909
  0.2730878977174411  0.5238787835500323  0.0038675699892488
  0.9875656424536493  0.2439751348137185  0.3714626285848012
  0.4985669857008719  0.7609244431933251  0.8625687934841657
  0.4983279197518821  0.2609931696444451  0.6243918216975276
  0.9960835015507302  0.7634039564936104  0.1259880816321030
  0.9903667938912862  0.2592309910694760  0.8753981217398425
  0.5217008366452603  0.7349080068602358  0.3675655678913559
  0.0115664796932699  0.7569391476778299  0.6176055631070927
  0.4922870897052243  0.2408324150936769  0.1186291568574725
  0.1788566528315639  0.4031539105498372  0.0549404257038594
  0.6533914467843058  0.8819225369377833  0.5504434474110923
  0.6805279302927357  0.1225709747893238  0.9352422079183482
  0.1185325180018355  0.6322673830888458  0.4470487725432734
  0.3673084341630611  0.4201274140017670  0.9322579280551413
  0.7979332260423770  0.9030974952293988  0.4291271325415125
  0.8619492008948709  0.0954269821627664  0.0531855194946458
  0.3293200520822114  0.6358477147606253  0.5414584369602777
  0.8844269731306234  0.0849347665103070  0.2056163448702485
  0.3768558971553749  0.6433503269994990  0.6978734068102137
  0.8754920101633186  0.8830954172072665  0.3043907623472906
  0.3513001594567641  0.4347191456476103  0.7771833860028761
  0.1481154294689505  0.5941616234644165  0.2976068706359367
  0.6062719278391294  0.0994585934622177  0.7995470899500918
  0.1564216730790957  0.3800705050368781  0.2047245354114556
  0.6057020902784211  0.8880850834490538  0.7016180997101454
  0.8722100157222907  0.6302045376554827  0.9527550416215428
  0.3500439616529864  0.1350941594480118  0.4384146225643860
  0.8591273895844876  0.3855086275075963  0.5530148536507281
  0.3318884139756559  0.8866660919503393  0.0503368137569136
  0.1296949585683718  0.1047829683674925  0.5383583639056231
  0.6498276589162969  0.6108471940298931  0.0394820348073537
  0.1196898324854466  0.9029496977467918  0.9279461815008184
  0.6413843794219255  0.3892313232489034  0.4458395625357527
  0.6475929044336887  0.3972421097973560  0.2843633647636005
  0.1095965793907744  0.9380943231681783  0.7868581352036410
  0.1362910070726106  0.1881556531292975  0.7034815693968123
  0.6812149183109951  0.5987078986434102  0.1857727255882235
  0.8839895815545589  0.4146089490268253  0.6947808104205171
  0.3817722839884644  0.9017941945257458  0.2046704883412757
  0.3522505377907822  0.1089789823875161  0.2963087050171311
  0.8430919975854883  0.6328034226894705  0.7965844756415675
  0.1387066323639298  0.0797945001957530  0.0517520427359370
  0.6560075075055054  0.6215136265013125  0.5466022063568132
  0.6708541240057531  0.3982249929044824  0.9434821664037066
  0.1404482635377866  0.8815160242430657  0.4371245658226352
  0.3616472575762070  0.0863617878677832  0.9529317682371637
  0.8615135429173151  0.5825506050253705  0.4352836870825508
  0.8576444764436295  0.4204596261372787  0.0480411292608129
  0.3377021300723181  0.9193261200478379  0.5404711513656779
  0.1516761397648375  0.1144304782358184  0.1916042635839617
  0.6485757141645387  0.5729562442369286  0.7037564819090975
  0.1925084148679240  0.8901966527465052  0.3005382234920047
  0.6866466290516069  0.3761716741294912  0.8053121831062825
  0.8439293625399810  0.5995420039680286  0.3007841674765737
  0.3342339397276539  0.1230919773484392  0.8052705325256331
  0.8874990809659284  0.4027734439222348  0.1877267447482919
  0.3157123044133440  0.9324942724160771  0.6963196274536739
  0.8393398626097358  0.9097960979626512  0.9388218803248243
  0.3598789216667525  0.4551022873035798  0.4370555114793361
  0.8532278802705637  0.0842031472465783  0.5504075934770188
  0.4004525343146962  0.6008681246788760  0.0583608678656841
  0.1585750725824734  0.4048266149778508  0.5399728986346454
  0.6336100890835554  0.9070855289555769  0.0452988299116573
  0.1540039824890601  0.5952603376038331  0.9532811150445273
  0.6178636949329753  0.1162890519044416  0.4528603388606082
  0.3688103952376791  0.3751723757880021  0.3073886935670396
  0.8593692623582706  0.8895368413650848  0.7899026809112055
  0.8182862876269152  0.1109718241688753  0.6893693063816759
  0.3584842699654401  0.6150378062077020  0.1956182544904287
  0.1677176639947462  0.4122772084306312  0.6900753204255845
  0.6700730092506798  0.9066764637068505  0.1894831119679571
  0.6434980732569923  0.0850082225315689  0.3027503992424753
  0.1567107049831389  0.6435583833349162  0.8076485938768949
  0.1069589335111307  0.1636663101009495  0.3314173366094804
  0.6116976659655138  0.6747196821034358  0.8218738567913769
  0.5783487676829493  0.3715658126365593  0.6638269825847360
  0.0915835733839834  0.8539615488659951  0.1628567963926360
  0.4138878075047856  0.1696925847206918  0.6721453406455994
  0.9063081033261799  0.6861571144810713  0.1807485777679263
  0.8883618664832693  0.3134390093555218  0.3233793239202292
  0.3783697208956394  0.8461619903138687  0.8305545047916847
  0.0699465605883891  0.3318288374110798  0.8194381061603996
  0.6204653355288389  0.6678079865228417  0.4145565874276936
  0.0738571831618465  0.8758118611514581  0.5811580971878463
  0.5760427240345211  0.3406517675840118  0.0727255017958185
  0.9613703136689469  0.6290288923039224  0.5718329616955244
  0.4012080515546156  0.1427192544727418  0.0736753866717837
  0.9018497028111357  0.1364147647351668  0.8365997023497310
  0.4370967470560077  0.8313630416053631  0.4079652355524162
  0.8864346271761131  0.8043977894302266  0.6650582608396861
  0.3903215534204409  0.3253053532492612  0.1700885018983004
  0.9375844607961821  0.3711289742500261  0.9199941182647166
  0.4077900352224798  0.6368931268068078  0.3426314780297460
  0.1136202967905225  0.1710196309500065  0.9095823923024079
  0.5941302345203728  0.7969516950839393  0.3045355765711335
  0.1334961813411933  0.6971555212178024  0.6606372555075788
  0.6042165639975003  0.1735596095822439  0.1629647345481023
  0.3770848829862869  0.3299329559277736  0.5836523936494508
  0.8883074078987639  0.8375884491944744  0.0853376705963942
  0.9103716587911916  0.1551965759720537  0.4349973596935096
  0.4475089578509353  0.6299929736879682  0.9060274765498872
  0.0747333010090613  0.3535556068587798  0.4144055473400050
  0.5851925753439403  0.8677275083632211  0.9009169749894165
  0.5956759648025332  0.1850542525163035  0.5769262846496056
  0.0784581666966518  0.6546994980606990  0.0825169350353592
 
  0.19614844E-02 -0.88491283E-02  0.47041766E-03
 -0.32713787E-02  0.22574351E-02  0.47644887E-02
 -0.13086461E-01 -0.62991103E-02 -0.23029900E-02
 -0.83046125E-02  0.55462125E-02 -0.12681450E-02
  0.52081731E-02 -0.69636969E-02  0.28321795E-03
  0.39339254E-02 -0.18045289E-02 -0.61063790E-02
 -0.70368352E-02  0.12359834E-02  0.37128581E-02
 -0.12988551E-02 -0.49477467E-02  0.24600623E-02
  0.15758061E-02  0.27195949E-02 -0.11028223E-02
  0.61349895E-02  0.53119275E-02  0.99795566E-02
 -0.74471658E-02  0.31158288E-02  0.35584122E-02
 -0.55578786E-02  0.16296989E-02 -0.29396999E-02
 -0.61368200E-02  0.77240991E-02  0.21660754E-03
 -0.62819810E-02  0.87958690E-03  0.20885481E-02
  0.43127807E-03 -0.10391330E-01  0.69184324E-02
 -0.48994409E-02  0.30480951E-02  0.46416307E-03
 -0.38257439E-02 -0.79184747E-04  0.26192455E-03
  0.56497748E-03  0.20010305E-02 -0.47203336E-02
  0.52709947E-02 -0.49668199E-02 -0.33368309E-02
 -0.71243592E-02 -0.55893213E-03  0.20189102E-02
  0.44679831E-02 -0.74246667E-02 -0.36213470E-02
 -0.13212420E-02 -0.26209325E-02 -0.40193316E-02
  0.26617130E-02 -0.24211918E-02  0.19299906E-03
  0.15166601E-02  0.71726189E-02  0.26084546E-02
 -0.63914401E-03  0.35523046E-02 -0.61167022E-03
 -0.29551692E-02 -0.76165150E-02 -0.41533817E-03
  0.82785152E-02  0.20124049E-03  0.13547251E-02
  0.22964059E-02  0.27962285E-02  0.48475799E-02
 -0.37038211E-03 -0.18570933E-02 -0.69845421E-02
  0.71622258E-02  0.11945425E-04 -0.25921822E-02
 -0.65940687E-02  0.61465461E-02  0.20046842E-02
 -0.84362275E-02  0.96254451E-03  0.14231880E-02
  0.89264070E-03  0.60700839E-02  0.59806223E-02
  0.49003692E-02  0.57364706E-02  0.16019703E-02
 -0.28649373E-02  0.22433691E-02 -0.11188935E-02
 -0.10686589E-02 -0.34620289E-03 -0.19550005E-02
  0.28375018E-02  0.10807651E-02  0.14353555E-01
  0.39764493E-02 -0.62970943E-02 -0.10145506E-01
 -0.71227383E-03  0.10755965E-01  0.12770316E-02
 -0.95518000E-02 -0.90466873E-02  0.80463516E-02
  0.63107061E-03 -0.88968709E-02  0.56933728E-03
  0.77995755E-02 -0.24865785E-02  0.89073533E-03
 -0.76359516E-02 -0.10353881E-01  0.28184705E-02
 -0.83544735E-02 -0.49587974E-03  0.50807714E-02
  0.35487307E-02  0.11632326E-02 -0.15963894E-02
 -0.76589846E-02  0.45226698E-02 -0.33951218E-02
 -0.11828941E-01 -0.94888775E-02  0.47495963E-03
  0.20510883E-02 -0.85288144E-02  0.70224346E-02
  0.21077593E-02 -0.21479041E-02 -0.23448133E-02
 -0.16989134E-02 -0.71895316E-02  0.12963672E-02
 -0.32809702E-02 -0.41148744E-02 -0.40888728E-02
  0.52391144E-02 -0.73902605E-02 -0.53998120E-02
 -0.44980414E-02 -0.92040233E-02  0.15869485E-02
 -0.84697679E-03  0.35602809E-02 -0.65833530E-02
  0.49266226E-02  0.45991861E-02 -0.12109424E-02
 -0.49980066E-03 -0.29227438E-02  0.49468077E-03
  0.38875746E-02  0.28616684E-02  0.10936857E-01
 -0.42734958E-02 -0.79686510E-02 -0.62371325E-02
  0.55114379E-02 -0.15109085E-01  0.48555112E-02
  0.10136072E-01 -0.11877792E-02  0.67762950E-02
  0.81027832E-03  0.46440494E-02  0.14084337E-02
  0.75226360E-03 -0.27548128E-03 -0.16492534E-02
  0.43282717E-02 -0.34865631E-02  0.11757305E-02
  0.11757302E-01 -0.13583404E-01 -0.12852703E-01
 -0.56986482E-03  0.27281521E-02  0.67520476E-02
  0.55402887E-02  0.32337029E-02 -0.70676161E-02
  0.28829971E-02  0.62434459E-02 -0.51823729E-03
  0.31174066E-02  0.66318839E-02  0.37789763E-02
  0.32233875E-03  0.61001929E-02 -0.19949786E-03
  0.30282143E-02  0.92784277E-02  0.17389949E-02
  0.37647910E-02 -0.34810346E-04 -0.32476132E-02
  0.27837693E-03 -0.58427262E-02 -0.28054080E-02
 -0.86419660E-02  0.16120262E-02 -0.25156524E-02
 -0.96755177E-02 -0.21531783E-02  0.11834738E-01
 -0.90865743E-04  0.13961142E-01 -0.29632262E-02
 -0.61643853E-02  0.22582403E-02 -0.68566844E-02
 -0.25026190E-02  0.35368832E-02 -0.28835512E-02
  0.40380874E-02 -0.81626435E-02  0.17889607E-02
  0.18760886E-02  0.50991832E-02  0.86115014E-02
 -0.26121541E-02 -0.79053200E-02 -0.54614873E-03
  0.77408366E-03  0.24234941E-02 -0.33810441E-03
  0.31122945E-03  0.72987542E-02 -0.25525784E-02
 -0.10454393E-01  0.40729962E-02 -0.28219341E-02
  0.47664838E-03 -0.90379448E-02  0.11854135E-02
  0.24239708E-02  0.59395456E-03  0.36958899E-03
  0.73665430E-03  0.26638073E-02 -0.17891659E-02
 -0.44219877E-02  0.11293119E-01 -0.54642003E-02
  0.21471743E-02 -0.91716805E-02 -0.87008953E-02
  0.27257764E-02 -0.94475158E-03 -0.24418458E-02
  0.35473254E-02 -0.10108063E-02  0.42108890E-03
 -0.73159528E-02  0.19938890E-02  0.25318657E-02
 -0.31116308E-02  0.23261822E-02 -0.96784906E-03
  0.19907919E-02  0.39266920E-03  0.25853269E-02
  0.26490546E-02 -0.32143241E-02 -0.43753883E-03
 -0.17021141E-02  0.27529462E-02 -0.22872250E-03
  0.45835191E-02 -0.15048589E-02  0.30881609E-02
  0.28992701E-02  0.47302789E-04 -0.11181664E-02
  0.80115031E-03 -0.10306288E-02 -0.25248135E-02
 -0.24716204E-02 -0.11995494E-02 -0.17682262E-02
  0.22519922E-02 -0.86858818E-03  0.19564508E-02
  0.16192156E-02 -0.28806300E-02  0.27833127E-02
 -0.38501672E-02 -0.19437912E-02 -0.65955612E-03
 -0.36978062E-02 -0.37470524E-02 -0.31204247E-02
  0.98115596E-03  0.10098491E-02  0.10531388E-02
 -0.60276749E-03 -0.94633903E-03  0.42176879E-02
  0.48180814E-02 -0.29471306E-02  0.61402508E-02
  0.35611816E-02 -0.47959644E-02 -0.27363462E-02
  0.51699909E-02 -0.59375105E-03 -0.43900435E-03
 -0.11212909E-02  0.29271703E-02 -0.18779285E-02
 -0.52880371E-02 -0.43324632E-02  0.15897982E-02
  0.21451145E-02 -0.31840983E-02 -0.14019409E-02
  0.24660093E-02  0.39239524E-02 -0.78911194E-02
  0.47530866E-02 -0.27413322E-03 -0.71320160E-03
 -0.12201561E-02 -0.43916191E-02 -0.11463198E-03
  0.14610706E-02 -0.24259608E-03  0.14017402E-02
 -0.83095442E-03  0.13148861E-02  0.16918915E-02
  0.23046520E-02  0.11579214E-02  0.58430189E-02
  0.74517276E-03 -0.33825230E-02 -0.29409489E-02
  0.25298742E-02  0.33136917E-02 -0.17683794E-02
 -0.16112473E-02 -0.10708711E-02  0.13835446E-02
 -0.92278172E-03  0.36558327E-02 -0.39190125E-02
  0.37593329E-02  0.24420520E-02  0.53831493E-02
  0.94269233E-03  0.20545972E-02  0.16566106E-02
 -0.84078560E-03 -0.31175016E-03  0.34318695E-02
 -0.31690440E-02 -0.14423579E-02  0.81049907E-03
 -0.17568774E-02 -0.86758154E-03 -0.10272836E-02
  0.50999313E-03 -0.47639912E-02 -0.14691618E-02
  0.32407732E-02 -0.31938569E-02  0.74012859E-02
 -0.17054667E-02  0.51749221E-02 -0.22173083E-02
  0.10084390E-02 -0.20000664E-02  0.39081946E-03
  0.27697531E-03  0.90732692E-03 -0.27501608E-02
  0.38734487E-02 -0.56330563E-02  0.44830233E-02
 -0.54118014E-02  0.30837465E-02 -0.28218205E-02
 -0.47126395E-02  0.88211822E-04 -0.52126521E-02
  0.11763996E-02  0.29635669E-02  0.11314549E-02
 -0.13728465E-02  0.64091020E-02 -0.74686624E-03
  0.35672815E-02 -0.19852968E-02 -0.24731835E-02
  0.39954631E-02  0.79255695E-03 -0.17743257E-02
  0.10626830E-02 -0.36033169E-02 -0.39470225E-02
 -0.99282154E-03  0.76276518E-03 -0.79159073E-02
 -0.29031583E-02 -0.22234654E-02  0.38723308E-02
 -0.24795309E-02 -0.42377316E-03 -0.19430984E-02
  0.99354998E-03 -0.50430714E-02 -0.33582545E-02
 -0.94436961E-04  0.17901434E-03  0.28022165E-03
 -0.11426243E-02  0.56844661E-02  0.11522662E-02
 -0.20771004E-02  0.25602191E-02  0.65808358E-02
 -0.23001431E-02 -0.99242354E-03 -0.18136743E-02
  0.29561626E-02  0.32878836E-03  0.18819648E-02
 -0.40734293E-02  0.70157702E-03  0.25788288E-04
  0.82573431E-03 -0.22045525E-02  0.88888343E-03
  0.50493793E-02  0.84858124E-03 -0.70118648E-03
 -0.67847465E-03 -0.41727004E-02 -0.72920926E-02
  0.12132833E-02  0.78116121E-02  0.13962967E-02
 -0.41000872E-02  0.90534424E-03  0.81655834E-03
 -0.11065375E-02  0.16589446E-02  0.22785222E-02
 -0.83214794E-02 -0.37186262E-03  0.23255968E-03
  0.27737587E-03 -0.14091987E-02 -0.47824342E-02
 -0.14893664E-02  0.16123092E-02 -0.10467417E-02
  0.16268698E-02  0.16694810E-02 -0.24327103E-02
 -0.53095882E-02 -0.26978978E-02 -0.57627342E-03
  0.17706696E-03  0.14041318E-03  0.22545390E-03
 -0.17863287E-02 -0.66928165E-03 -0.11912903E-03
  0.13728371E-02 -0.40092664E-02  0.24158228E-02
 -0.55790880E-03 -0.30555528E-02 -0.22694745E-02
 -0.26642102E-02 -0.29707458E-02  0.33127116E-02
 -0.41133377E-02  0.12816781E-02 -0.44309450E-02
 -0.59746499E-03  0.64100924E-02 -0.29596875E-02
  0.24492893E-02  0.54703482E-02  0.58008697E-03
 -0.46067271E-02 -0.44891924E-03  0.69200650E-03
 -0.47572322E-02  0.62732427E-02  0.26007529E-02
  0.50846593E-02  0.64493162E-02  0.10690836E-02
  0.34037266E-02 -0.43831258E-02  0.64695009E-02
  0.62819938E-02 -0.32050883E-02  0.45857145E-02
 -0.10311178E-02  0.23911321E-02 -0.40483866E-02
  0.11716629E-02  0.97562758E-03  0.24557281E-03
 -0.48259650E-02  0.39579178E-02  0.54849595E-02
 -0.27367408E-02 -0.39249915E-02 -0.27220307E-02
 -0.75654056E-03  0.21945194E-05  0.13419008E-03
  0.13463317E-02 -0.44608991E-02 -0.50903416E-02
 -0.15124070E-02  0.62068290E-03 -0.10137215E-02
  0.31275782E-02  0.38109421E-02  0.12723437E-03
  0.57457511E-03 -0.12244283E-02 -0.57214177E-03
  0.58364385E-02 -0.28065444E-03 -0.18683507E-02
  0.47506923E-02  0.39533012E-03 -0.17413516E-03
  0.15529083E-02  0.13437398E-03 -0.30259076E-03
  0.22223129E-02  0.18649516E-02 -0.86081565E-03
 -0.82177124E-03  0.15485987E-02  0.83799446E-03
 -0.30226029E-03  0.52054157E-02 -0.18748201E-03
 -0.41400623E-03  0.84279253E-03 -0.29512829E-02
  0.10063937E-02  0.16677473E-02  0.17758089E-02
  0.28263994E-02  0.64049272E-03  0.43891920E-02
 -0.20715916E-02 -0.13138020E-02 -0.41865575E-02
  0.14788776E-02 -0.34757763E-03 -0.53810979E-02
  0.22557024E-02 -0.16958934E-02  0.86534712E-03
 -0.57205169E-03  0.35133261E-02 -0.13300743E-02
 -0.43905740E-02 -0.17778818E-02 -0.18026926E-02
  0.31055947E-02  0.19634270E-02 -0.22920541E-03
 -0.37900328E-02  0.31385340E-03  0.14327520E-02
  0.36292331E-02  0.38359378E-02 -0.37351547E-02
  0.45201723E-02 -0.91344292E-03  0.37354159E-02
  0.14405596E-02  0.18262192E-02  0.40179534E-02
  0.98121001E-03 -0.93828423E-03 -0.36657534E-03
 -0.20804608E-02  0.42341176E-03  0.76006191E-02
 -0.10542489E-02 -0.31773475E-02 -0.32726389E-02
  0.44121877E-02  0.47024481E-02  0.20226782E-02
 -0.27263428E-02 -0.36684084E-03  0.11107375E-02
  0.40014207E-02 -0.46846056E-02 -0.71390559E-05
 -0.24307267E-02  0.41757226E-02  0.10721529E-02
 
           1
   2.00000000000000     
  0.56859088E+00  0.14026713E-02  0.00000000E+00  0.00000000E+00
  0.25130087E+00  0.44315246E-03  0.12000889E+00
  0.49771185E+00  0.57477591E+00  0.77785759E+00
  0.28386431E-01  0.52528969E+00  0.88198060E+00
  0.98870182E+00  0.97854768E+00  0.47923834E+00
  0.74917146E+00  0.99453809E+00  0.85652956E+00
  0.95947124E+00  0.48129600E+00  0.36402063E+00
  0.74213784E+00  0.76570019E+00  0.23821525E+00
  0.28971816E+00  0.24781764E+00  0.38683006E-02
  0.71249050E+00  0.76362935E+00  0.61378872E+00
  0.77604778E+00  0.25623165E+00  0.86857291E+00
  0.72415452E+00  0.48721989E+00  0.36965250E+00
  0.99432708E+00  0.99202834E+00  0.86603424E+00
  0.78169737E+00  0.28258663E+00  0.12217536E+00
  0.26412925E+00  0.78764010E+00  0.76983970E+00
  0.46750271E+00  0.23665954E-01  0.88967124E+00
  0.99556476E+00  0.47180786E+00  0.48760452E+00
  0.19793876E+00  0.19809231E-01  0.62283149E+00
  0.93450308E+00  0.26171292E+00  0.75485480E+00
  0.50334154E+00  0.20962261E-01  0.14014703E+00
  0.64553582E-02  0.48923350E-01  0.96947392E+00
  0.47249963E+00  0.39553019E-01  0.50903529E+00
  0.28478399E+00  0.26190555E+00  0.38326133E+00
  0.73861738E+00  0.75249777E+00  0.98415250E+00
  0.51236207E+00  0.46105360E+00  0.36677555E+00
  0.22339257E+00  0.46972093E+00  0.37105139E+00
  0.25580397E+00  0.51618483E+00  0.63038691E+00
  0.35341639E+00  0.75508041E+00  0.26360274E+00
  0.78863212E+00  0.74255496E+00  0.36914211E+00
  0.51555064E+00  0.29362970E+00  0.50454981E+00
  0.51501327E+00  0.15230878E-01  0.99569711E+00
  0.17824887E+00  0.73809921E+00  0.52632717E+00
  0.72249179E+00  0.73930352E+00  0.74523691E+00
  0.92396494E+00  0.52968951E+00  0.11822006E+00
  0.75965613E+00  0.48265247E+00  0.62235273E+00
  0.81588045E+00  0.26849160E+00  0.99494197E+00
  0.76405630E+00  0.23556474E+00  0.49955193E+00
  0.52739050E+00  0.49546266E+00  0.99431552E+00
  0.24872199E+00  0.23746606E+00  0.11962189E+00
  0.27463794E+00  0.52254171E+00  0.86399611E+00
  0.46768865E-01  0.76423479E+00  0.25873281E+00
  0.25195298E-01  0.24926492E-01  0.25966851E+00
  0.68313623E+00  0.23454422E+00  0.74567252E+00
  0.47273787E+00  0.17406291E-01  0.74819743E+00
  0.42786783E-01  0.53583084E+00  0.22337068E+00
  0.99615292E+00  0.74362307E+00  0.99836732E+00
  0.82924016E+00  0.73209606E+00  0.50381517E+00
  0.51169801E+00  0.77067197E+00  0.49532604E+00
  0.51939829E+00  0.24963065E+00  0.97115817E+00
  0.98096722E+00  0.48660319E-01  0.72853917E+00
  0.22856813E+00  0.24277409E+00  0.26871353E+00
  0.39736182E-01  0.76482123E+00  0.73816435E+00
  0.52349298E+00  0.93922670E+00  0.26656135E+00
  0.22172538E+00  0.25480789E+00  0.47364463E+00
  0.72506642E+00  0.73413204E+00  0.12110564E+00
  0.75272952E+00  0.26907937E+00  0.63509160E+00
  0.24850211E+00  0.73599665E+00  0.11177596E+00
  0.99771735E+00  0.99969018E+00  0.12260629E+00
  0.48569687E+00  0.54429140E+00  0.49133761E+00
  0.53793984E+00  0.46125553E+00  0.86820208E+00
  0.73361970E+00  0.18705079E+00  0.37680714E+00
  0.47720781E+00  0.77678995E+00  0.99571727E+00
  0.23799669E-01  0.45862778E+00  0.63019319E+00
  0.33107492E-01  0.51238642E+00  0.14194361E-01
  0.46071950E+00  0.98353300E+00  0.62952849E+00
  0.99344187E+00  0.24881829E+00  0.23162309E+00
  0.78306484E+00  0.77097968E+00  0.87193567E+00
  0.27465225E+00  0.99425008E+00  0.36374918E+00
  0.27167092E+00  0.27136408E+00  0.74750788E+00
  0.49471496E+00  0.24600694E+00  0.24790813E+00
  0.49276604E+00  0.26603441E+00  0.75272357E+00
  0.73617358E+00  0.22020617E+00  0.23821079E+00
  0.27745410E+00  0.75517122E+00  0.91161457E+00
  0.25635431E+00  0.48246812E+00  0.13495548E+00
  0.73245132E+00  0.19956076E-01  0.62366875E+00
  0.22853541E+00  0.26594481E-01  0.87575805E+00
  0.54608177E+00  0.60175288E+00  0.26509595E+00
  0.78377862E-02  0.48362690E+00  0.76367947E+00
  0.60103744E+00  0.95424614E+00  0.38579564E+00
  0.74373134E+00  0.11882995E-01  0.12267433E+00
  0.29973413E+00  0.79077943E+00  0.61280445E+00
  0.75782643E+00  0.53463860E+00  0.87723316E+00
  0.53043356E-01  0.94647419E+00  0.35686790E+00
  0.48642681E+00  0.50885725E+00  0.60254564E+00
  0.21779890E+00  0.73985799E+00  0.37518272E+00
  0.19553179E+00  0.25578541E+00  0.59745458E+00
  0.52230031E+00  0.46350857E+00  0.14424450E+00
  0.28340390E+00  0.29108345E+00  0.86333943E+00
  0.99497020E+00  0.25395358E+00  0.51140558E+00
  0.25776463E+00  0.99774828E+00  0.24154359E+00
  0.77161594E+00  0.49786726E+00  0.75095844E+00
  0.22354772E+00  0.49466236E-01  0.74511316E+00
  0.76918528E+00  0.50355944E+00  0.23941342E+00
  0.22955836E+00  0.97862171E+00  0.99490055E+00
  0.75847033E+00  0.50159650E+00  0.49959660E+00
  0.23925097E+00  0.17679113E-01  0.48404337E+00
  0.76054736E+00  0.51274392E+00  0.99448190E+00
  0.72860837E+00  0.99193379E+00  0.74489210E+00
  0.26760255E+00  0.48463362E+00  0.25437828E+00
  0.23653463E+00  0.55538563E+00  0.73691328E+00
  0.77232244E+00  0.98684146E+00  0.25520609E+00
  0.23539674E+00  0.52681911E+00  0.49244488E+00
  0.75133199E+00  0.92189577E-02  0.99536739E+00
  0.74262305E+00  0.99563133E+00  0.49780313E+00
  0.27322727E+00  0.52402223E+00  0.39423703E-02
  0.98748002E+00  0.24384071E+00  0.37176219E+00
  0.49925140E+00  0.76050580E+00  0.86300491E+00
  0.49883379E+00  0.26031189E+00  0.62419747E+00
  0.99681791E+00  0.76331961E+00  0.12595690E+00
  0.99020751E+00  0.25964680E+00  0.87526474E+00
  0.52094966E+00  0.73429257E+00  0.36767848E+00
  0.11871198E-01  0.75648684E+00  0.61750599E+00
  0.49263739E+00  0.24138982E+00  0.11806868E+00
  0.17953184E+00  0.40311497E+00  0.54889770E-01
  0.65321812E+00  0.88129870E+00  0.55043531E+00
  0.68073548E+00  0.12253651E+00  0.93534177E+00
  0.11841448E+00  0.63245417E+00  0.44716894E+00
  0.36763581E+00  0.42029190E+00  0.93267293E+00
  0.79803908E+00  0.90261700E+00  0.42891825E+00
  0.86230857E+00  0.95897699E-01  0.53059918E-01
  0.32909117E+00  0.63569560E+00  0.54155670E+00
  0.88429589E+00  0.85454085E-01  0.20533799E+00
  0.37738992E+00  0.64369723E+00  0.69825575E+00
  0.87562592E+00  0.88338728E+00  0.30450842E+00
  0.35118072E+00  0.43467486E+00  0.77742714E+00
  0.14766526E+00  0.59395673E+00  0.29766444E+00
  0.60602236E+00  0.99335352E-01  0.79947413E+00
  0.15649412E+00  0.37939377E+00  0.20462019E+00
  0.60616245E+00  0.88763139E+00  0.70214378E+00
  0.87196775E+00  0.63093965E+00  0.95259755E+00
  0.35018721E+00  0.13481005E+00  0.43844238E+00
  0.85916673E+00  0.38563752E+00  0.55281952E+00
  0.33243865E+00  0.88586590E+00  0.50655225E-01
  0.12892620E+00  0.10522102E+00  0.53815794E+00
  0.64915822E+00  0.61085972E+00  0.39111801E-01
  0.11985694E+00  0.90337068E+00  0.92802654E+00
  0.64118936E+00  0.39014175E+00  0.44578652E+00