Na88 Ge16 P8 Se96                       
   1.00000000000000     
    13.9614333504000001    0.0000000000000000    0.0000000000000000
     0.0000000000000000   13.9614333504000001    0.0000000000000000
     0.0000000000000000    0.0000000000000000   27.9228667008000002
   Na   Ge   P    Se
    88    16     8    96
Direct
  0.4743968581970005  0.4223395149616808  0.0325100931597034
  0.4913260273268843  0.2445856501953875  0.4670354226806535
  0.7139486980724750  0.7303202685277992  0.0011933181529004
  0.7262560586712613  0.9988842940895594  0.3869300171744796
  0.4736097340614436  0.0280784969635700  0.8611916665316154
  0.9810253983370422  0.5087048857165970  0.3826712002489526
  0.2743058187913660  0.4719461117811378  0.1318696009682475
  0.8155718218120022  0.2339142707148819  0.1223152763820399
  0.4619280231674822  0.9674174550731879  0.6370091054435597
  0.7331022912604311  0.2508921498131351  0.6047222850752977
  0.2628165486931011  0.7422519337191777  0.5075897128867275
  0.4900778594684298  0.0332368255046931  0.0127501306202698
  0.2274023906581030  0.2675392307392776  0.1266685708907066
  0.4873902715377124  0.0248078177030921  0.3703654003876373
  0.3003272287598715  0.2125753095409882  0.7224685925391123
  0.2198274836204795  0.7392044388935817  0.3544548253058385
  0.0029315180286027  0.9368673772319113  0.8842470161718736
  0.7276960665680504  0.2417039760203160  0.3645305537234584
  0.9925733236938825  0.4748941854451573  0.2475632181263681
  0.7706131847605165  0.9961721284135678  0.6436521108463267
  0.0100519633055747  0.7832609449898090  0.4935461376351104
  0.4769329237588755  0.4968752962079868  0.2377569496272259
  0.4710245033329071  0.5240554131752738  0.7669628777089533
  0.4428117407886012  0.7289925725580514  0.7343664060785976
  0.0210263594511280  0.5049318514559341  0.1120980789381744
  0.5047555089639633  0.9836427016956669  0.7599137073351904
  0.2568941713193732  0.7205114077227622  0.9772286759190749
  0.7141421593284133  0.0276031571961953  0.1405538652399391
  0.7312130086259604  0.7791271808540412  0.6376266094450782
  0.7589837205596724  0.7847749074163227  0.1396797117699080
  0.7721654672092855  0.2515423894082414  0.4974749681653268
  0.0020547805309661  0.0507199980783564  0.7637932395271817
  0.2851324839118649  0.7537742993170095  0.1117836973455408
  0.7284726149225149  0.2517111666957785  0.8835067548291794
  0.9808013494287172  0.0951738994020235  0.2647506717716718
  0.4588279819497067  0.7236105146457830  0.2681916492890241
  0.8572763603596893  0.7389268244009329  0.7260100847599803
  0.4708290636414589  0.2501740774976473  0.2588376026449717
  0.0060948800431717  0.4772066295638673  0.7412382575882964
  0.2251482128735557  0.0216849267034803  0.3654051172525061
  0.9406314025306604  0.7511972203914289  0.2661805478799340
  0.1873002468463519  0.7206684315862825  0.7193918034894708
  0.9960680647811492  0.0557006965957262  0.6290731374566583
  0.1560061003737619  0.7645203915599801  0.2353059616988067
  0.2540365998853947  0.2434175870445434  0.8739252217189197
  0.0911388818753761  0.2232874507554147  0.7512011364614708
  0.0014724861253745  0.5372378614067143  0.5148683365852795
  0.9906941907614683  0.9859385766154301  0.9816766518602248
  0.9863935597754576  0.0376756173213376  0.4833236284185967
  0.2419366062018385  0.7521742517529953  0.8644187604789942
  0.2176381048466637  0.2452018113301158  0.9903939758199779
  0.4681541895408886  0.0010997680420034  0.2572430488506054
  0.1917557021664218  0.2543461802448047  0.4538667000242191
  0.3418916641057069  0.4572257028557823  0.8713096517233332
  0.6613535661008203  0.2530945351653944  0.7533912256366966
  0.0180508541696450  0.4783861269435668  0.9951461001072661
  0.9912782910884127  0.7037900611194233  0.9886279344214363
  0.5017787814117050  0.9811816997492786  0.4909006298299153
  0.4951654672067077  0.5339193143334223  0.1311017650754784
  0.8366423509262430  0.5441317195184137  0.6280249543822681
  0.2081677253666233  0.9724886112614234  0.1181142107845579
  0.5183561600794429  0.5088022284130503  0.9079521522229825
  0.9269556580511885  0.2491012594609836  0.0089854330695921
  0.2288254291542051  0.9828691432744125  0.6246177257328434
  0.4682238345142538  0.5039499864957926  0.3791316494342056
  0.7532040862835279  0.7387477857036250  0.8424022593553286
  0.0095600337468796  0.0077136462124333  0.3683878962835385
  0.2743843451475582  0.2894040447277825  0.5883334527545065
  0.9794181793250719  0.2466323087897747  0.5281101333788227
  0.0350242133570406  0.4911182175190760  0.8704258725246959
  0.5005607178237712  0.7533833998428966  0.0114445893888338
  0.7143089437091081  0.7458205503372556  0.4836389224432661
  0.7323972361903860  0.5382002876687749  0.1233308519505430
  0.5742644423523540  0.5009574819660658  0.6474539790253833
  0.7960475666877568  0.4535772648138197  0.8676210785316477
  0.1843756525663056  0.4445850221880434  0.3810297006988988
  0.5714091886955187  0.2172469942597834  0.0258149466970149
  0.7335996666670452  0.2723144413574620  0.2387076541975084
  0.4615668561451243  0.9767766982098012  0.1263547772298246
  0.1755356512706663  0.5421978655147249  0.6200738566838422
  0.7363943440615398  0.9922008714035010  0.8847255032230447
  0.7170864861397706  0.7952182997404462  0.3108468248703343
  0.4852582665999666  0.7363134365977237  0.5245900325054678
  0.9880632598210859  0.0320287535588652  0.1397828299385065
  0.4853128193086089  0.4695430149951554  0.5250134623226917
  0.2261627749347703  0.2818806353234584  0.2589315684410924
  0.2679330780288903  0.9807620702374698  0.8841253011748632
  0.7122499589853268  0.5186633278125345  0.3819691488821166
  0.2338446734489693  0.0206716000215462  0.2451405060434993
  0.7658371628406075  0.5145381836064139  0.7522505119347617
  0.2546269703946108  0.9409875871259394  0.7437607481034408
  0.7418101435486816  0.5101249202994679  0.2384550822337108
  0.2407627214641202  0.9693118005497192  0.0014499766961023
  0.7429313234033750  0.4772491110570553  0.5025196212653018
  0.2821281539934357  0.0221645738549769  0.4927580438962504
  0.7366868649399174  0.4885654947551866  0.0042814192658395
  0.7807240066168645  0.0114519004403993  0.7537808584027405
  0.2190478305820218  0.5206493170090779  0.2519508882902633
  0.2377218678300601  0.4537173703575411  0.7429106963278276
  0.7365340414785602  0.0193495198530447  0.2521684931096236
  0.2382886474077359  0.5118197116312250  0.4982305339131381
  0.7330902987493193  0.9921782519759641  0.0124451808655618
  0.7374443193555273  0.0099551176584334  0.5142798058001394
  0.2575928424233700  0.5015513416186025  0.0025156797613284
  0.9555813675309534  0.2559952113837150  0.3741655714654807
  0.5041096206279334  0.7479102805615478  0.8798051629010527
  0.4870380273213958  0.2228748000573806  0.6414997046143143
  0.0060067151961733  0.7360274498858618  0.1238340592971972
  0.0011043175619854  0.2164560153311846  0.8697600896050879
  0.4892852545218120  0.7600707736867761  0.3834855958381010
  0.9796597993627275  0.7425425488760196  0.6163960082908615
  0.4950565224667883  0.2361942135871247  0.1258217835525401
  0.1601565154909729  0.3986469772203384  0.0521704267467911
  0.6416325137212809  0.9238390967734909  0.5665627683228595
  0.6561815217511683  0.0905149152020552  0.9585552115225948
  0.1453820497592797  0.6072596186266429  0.4439470473858398
  0.3643464749415666  0.3870271439208359  0.9592257753230773
  0.8381404864387936  0.9078999593194627  0.4676874276053924
  0.8466912495304302  0.0718771662705913  0.0615335616535835
  0.3322292809481890  0.5914382010423629  0.5554114093490419
  0.8322775330002852  0.1167837069881577  0.2036289760506615
  0.3257429779811937  0.5566408072442448  0.6916724438405412
  0.8418133019268900  0.9492584563683787  0.3119794361139160
  0.3147217634125262  0.3370681611142226  0.7892628422633957
  0.1277665322829183  0.6134258127116383  0.2988019413623807
  0.6677050758221038  0.0933501187870529  0.8122968642982105
  0.1334514481688629  0.4023523997941248  0.2023548891758934
  0.6672996542072966  0.9100069959103341  0.7113016520304097
  0.8295368192242496  0.5852154346014740  0.9411045309308084
  0.3575624839932046  0.1049050698853614  0.4313412115603290
  0.8587355958135657  0.4039591871475766  0.5548001515111626
  0.3350654363788756  0.8719478694055345  0.0494688859037282
  0.1816029502601858  0.1064641694754528  0.5472899341652533
  0.6157960636521289  0.5889947894831702  0.0413158934370362
  0.1509910317735183  0.8650935069993727  0.9546453383626903
  0.6369403158474982  0.3960091004553198  0.4493503579411047
  0.6165206999992928  0.4111469099530762  0.2816147266952089
  0.1396295746454096  0.8484211345176428  0.7975983431924242
  0.1609356846331922  0.0604078997006958  0.6977860592827323
  0.6369304196684439  0.6271771031855521  0.2005558811899447
  0.8258562684399329  0.3887689183771763  0.7066845471932586
  0.3203003718583752  0.8969791890229448  0.2080907716986028
  0.3202992420418651  0.1282420290067768  0.2913237335883623
  0.8723939165179846  0.5926303858832772  0.8044518408980855
  0.1381354298678017  0.0777786084071674  0.0355688681806582
  0.6415557007093894  0.5909343542772010  0.5519144662439046
  0.6345879598864154  0.3818533972638409  0.9622092358559260
  0.1735273456616547  0.9108282069358408  0.4521620899051291
  0.3344634390988491  0.0880974505813428  0.9569261299708645
  0.8332456839991990  0.5787045777660371  0.4471493174050079
  0.8348890642404958  0.3966921432880364  0.0561906934303174
  0.3509228232546630  0.9102163116652910  0.5491752345967796
  0.1425813607055381  0.1143021894593407  0.1904580069208818
  0.6968834645888021  0.6294271342328759  0.6939403372661072
  0.1229649468459435  0.9216093536902741  0.2891943863631978
  0.6318452837681033  0.4494061973587133  0.7941625220447597
  0.8439350052606547  0.5950858355229727  0.2949797253646546
  0.3302598883130121  0.0462050793395233  0.7973477396046968
  0.8480629041304688  0.4286573199824851  0.1843296216902836
  0.3411775243084288  0.8457040706518877  0.6921529184296257
  0.8230172824591362  0.8870963026605134  0.9562699229668056
  0.3420516202859730  0.4135234870577692  0.4476331139456806
  0.8414349695371117  0.1094608140791077  0.5624167735000609
  0.3601441956720350  0.5857221423980228  0.0492258435858622
  0.1398458346397793  0.4066509324759561  0.5476614764627205
  0.6640936145857252  0.8881270384678445  0.0657228800019712
  0.1749696961372777  0.5630579221009269  0.9414254559923469
  0.6505074959648763  0.1045988693835623  0.4613370314779124
  0.3186189494245560  0.4374692846483983  0.3003340200479480
  0.8702515461761517  0.8981916323210668  0.7969591394573666
  0.8553851431642896  0.1253249038313883  0.6994082670875372
  0.3346429490810460  0.6084699404277232  0.1985660785175642
  0.1530838795808964  0.3679070835257658  0.6846226516908119
  0.6415050485628393  0.8978809986499194  0.2090572916373472
  0.6231305769758966  0.1166790909328780  0.2996322185020857
  0.1911624752976245  0.5505451375128140  0.8117716502435882
  0.0108976459438671  0.3425436614307389  0.4374220500214888
  0.5687231316324530  0.8271804303974256  0.8191696362524683
  0.4269757008587193  0.3724103770003495  0.6535040889708171
  0.9336043273027047  0.8373060089070328  0.1747760714195021
  0.3722410993887551  0.1273836876919150  0.6179936103788201
  0.9059695921545096  0.6480756024658328  0.0691240141678201
  0.8784410392007718  0.3644652728202989  0.3380278576543205
  0.4078842626329346  0.6313975658114536  0.8358914345222243
  0.0609811081031513  0.3039000866749030  0.9297110532329729
  0.5675805571636211  0.6581220848630586  0.3424590143423358
  0.9204231052177066  0.8855654273679584  0.6439268359247384
  0.5374617353641696  0.1181461528891246  0.1782312976866977
  0.1247229782806970  0.7845497572579210  0.5833570271258659
  0.4085216160330349  0.3430182642582182  0.1704013975097549
  0.8934584313713504  0.1430400911632701  0.9107726869295989
  0.5958404806277144  0.8632264470622794  0.4134669503368420
  0.8958574177075170  0.6827041769083437  0.5565785897643194
  0.3892420161724859  0.1451678107647436  0.0839654752525131
  0.1155959435426896  0.1142791545436003  0.8468411189058228
  0.3942792505985707  0.6887647105205430  0.4321573602318385
  0.9258158067293126  0.2891722858514325  0.8126954837646706
  0.4023876792706278  0.8515589630241472  0.3282133863312828
  0.0140599526113333  0.6202380219669662  0.6727574971661406
  0.6161075371181526  0.3215331914680587  0.0964406080077875
  0.5566440722529060  0.2473560987870606  0.5666887208008148
  0.0913666032042387  0.8168511144623821  0.0764969365059443
  0.0966552518213898  0.2108895986060492  0.3363129827674404
  0.6310575754595641  0.6750091595220254  0.9148564566827059
  0.8707646898888209  0.1265708158335377  0.4047571659468239
  0.3933319496960749  0.8231712249463603  0.9296273446713827
  0.5838717339804087  0.1518945899843991  0.6852316862252169
  0.1153674340142107  0.6369472934052821  0.1543050004849975
 
 -0.62495692E-02 -0.24247519E-02  0.50385703E-03
  0.21486743E-02  0.44034915E-02 -0.14879896E-02
  0.83348631E-02  0.38988682E-02  0.20079436E-02
 -0.40145192E-03  0.16755889E-02  0.44942116E-02
  0.20964749E-02 -0.16388341E-02  0.53006346E-03
 -0.21895467E-02  0.16823691E-02  0.50973225E-02
  0.35989400E-02 -0.31013489E-02  0.70383397E-02
  0.81578651E-02 -0.39150772E-03  0.22581110E-04
  0.25532931E-02 -0.66613153E-02 -0.36521106E-02
  0.22536781E-02  0.48113613E-02 -0.51746611E-02
 -0.55890645E-03 -0.61179912E-02 -0.37298275E-03
 -0.88052240E-02  0.69878629E-02  0.29401548E-03
  0.37677647E-02  0.11625596E-03 -0.36081327E-03
 -0.86049339E-02 -0.20451944E-02 -0.15876628E-02
  0.18322147E-02  0.96959915E-02 -0.95076143E-02
  0.83457468E-02  0.14734890E-02  0.58995244E-02
 -0.35996278E-03  0.66973692E-02  0.72350625E-02
  0.42538898E-02  0.85480523E-02 -0.10304604E-01
 -0.46787383E-03  0.61973770E-02 -0.26331298E-02
 -0.29680646E-02 -0.47571622E-02 -0.11342840E-03
  0.87599458E-02 -0.23673135E-02 -0.11392898E-01
  0.62454930E-02  0.38202999E-03  0.32630600E-03
 -0.11774462E-01 -0.58179958E-02  0.79290648E-02
 -0.94225255E-02 -0.20281060E-02 -0.49930060E-02
  0.38188861E-02  0.87878443E-03  0.66123792E-02
  0.20642817E-02  0.45519419E-02 -0.36028656E-02
 -0.45344553E-02  0.23872173E-02  0.11964286E-01
 -0.11426542E-02 -0.24583811E-02 -0.72936672E-02
 -0.14778486E-02  0.84031954E-02 -0.95752333E-03
  0.35180801E-02  0.66403190E-02 -0.33166258E-02
 -0.46236576E-02 -0.84608457E-02  0.13179287E-02
 -0.67900263E-02 -0.59291039E-03 -0.16428925E-02
  0.16281882E-02 -0.65952397E-02 -0.97593643E-02
  0.47648080E-03 -0.40617411E-02  0.27950186E-02
  0.12522139E-01  0.82428593E-02  0.20745544E-02
  0.48036810E-02 -0.31089049E-02  0.26949266E-03
 -0.37006220E-02  0.66695746E-02  0.26700169E-02
  0.45693837E-02  0.84804813E-02  0.64798403E-02
 -0.17351324E-02 -0.29405436E-02  0.76917947E-02
  0.40110297E-02  0.73690243E-02 -0.30400416E-02
 -0.15775459E-02 -0.32161793E-02  0.48319238E-03
 -0.10367923E-01 -0.37651994E-02 -0.88687713E-02
 -0.37979911E-02 -0.19471162E-02 -0.56042016E-05
 -0.27945754E-02 -0.99162236E-03  0.79347283E-02
 -0.60462087E-02  0.42878466E-02 -0.49964619E-02
 -0.79937699E-02  0.65726896E-02 -0.51848918E-02
 -0.33349889E-04  0.31572280E-02  0.73602434E-02
 -0.67708032E-02 -0.33140707E-02  0.10216766E-03
  0.42863611E-02  0.12801896E-02 -0.12882694E-03
  0.66957647E-03 -0.14360136E-03 -0.29968706E-02
 -0.67647881E-02 -0.49784746E-02  0.13378699E-02
  0.72796536E-03  0.27138624E-02  0.50194740E-02
  0.34259273E-02  0.75005605E-02 -0.60973146E-03
 -0.52524187E-02  0.14332393E-01 -0.29438774E-02
  0.58311974E-02 -0.76009074E-02 -0.26875168E-02
  0.20995233E-04  0.84925447E-02  0.12150490E-02
  0.46912627E-02 -0.77000548E-02 -0.41918287E-02
  0.23256922E-02  0.84730449E-02  0.26257666E-04
  0.51125970E-02  0.84184746E-02 -0.36687974E-02
 -0.10313127E-01 -0.19205831E-02  0.10282354E-03
 -0.13291031E-01 -0.57618041E-02  0.18086069E-02
  0.42652195E-02 -0.16818441E-02 -0.15951985E-02
 -0.16318365E-02  0.36554160E-02  0.45045324E-02
  0.84247997E-02 -0.15464454E-02 -0.80440992E-02
 -0.28980510E-02 -0.13795972E-01  0.14038078E-01
 -0.33595476E-02  0.46329624E-02 -0.91925521E-03
  0.10917322E-01 -0.52261086E-02 -0.24731722E-02
  0.10278328E-02  0.20775146E-02  0.37027433E-03
 -0.46475641E-02  0.97563897E-03 -0.53290079E-02
  0.48061664E-02 -0.54765184E-02  0.11729936E-03
 -0.15940227E-02 -0.82254539E-02  0.21432002E-02
 -0.46965005E-03 -0.87482804E-02  0.66065882E-02
  0.11103083E-01  0.37904011E-02 -0.13503358E-02
  0.53746612E-02  0.73918380E-02  0.76584635E-03
 -0.86808985E-02 -0.53108201E-02  0.35871586E-02
  0.13741300E-01 -0.16282064E-02  0.93992592E-03
  0.59465758E-02 -0.29626875E-02  0.16107631E-02
  0.83479710E-02 -0.17131114E-02 -0.29317344E-02
  0.55570075E-02 -0.99538793E-03 -0.69349652E-03
  0.42444740E-02  0.55845272E-02 -0.26856236E-02
  0.35576553E-02 -0.69781616E-03  0.44258147E-02
  0.26295367E-02 -0.34687422E-02  0.91606165E-02
  0.67242717E-02  0.79864858E-03  0.70854611E-02
  0.18379225E-01 -0.28638539E-02 -0.57418573E-03
 -0.38897195E-02  0.25306892E-02 -0.48773639E-03
  0.39951595E-02  0.61744120E-02 -0.76441712E-02
  0.31818444E-02  0.25362865E-02 -0.81284854E-02
  0.54210895E-02  0.20064766E-02 -0.49837869E-02
  0.23206894E-02 -0.63550012E-02 -0.64722982E-03
 -0.64430363E-04  0.53271351E-03  0.32260442E-02
 -0.51565938E-02  0.11610412E-02 -0.41420233E-02
 -0.17372895E-02 -0.43970569E-02  0.12442357E-02
 -0.19483820E-02  0.17050530E-02 -0.43610822E-02
 -0.87855995E-03  0.55996701E-02 -0.23541243E-02
 -0.10658352E-02  0.45028387E-03  0.16747573E-03
  0.25680148E-03  0.66266377E-02  0.26167581E-02
 -0.32143063E-02 -0.37475380E-02 -0.36073805E-02
  0.59074667E-03 -0.10498575E-02 -0.76364364E-02
 -0.57681752E-02 -0.78814190E-03  0.23957773E-02
  0.33864338E-03 -0.94608569E-03  0.19663224E-02
 -0.31324018E-02  0.12456869E-02  0.43005770E-02
  0.95275746E-03 -0.48110973E-02 -0.39201720E-02
 -0.82395613E-03 -0.47633188E-03 -0.61952318E-02
  0.16315734E-02  0.77308895E-03  0.37447539E-02
  0.90394654E-03 -0.29486772E-02 -0.46905300E-03
  0.72114497E-02 -0.81203741E-03  0.51505470E-02
 -0.86368412E-02 -0.51824356E-02 -0.29317922E-02
  0.93512981E-03  0.20268930E-02 -0.37409198E-02
 -0.48048564E-02  0.48991009E-02  0.36499566E-02
 -0.24887744E-02 -0.31434762E-02 -0.47545856E-02
  0.58549722E-03  0.22614292E-02  0.38642470E-02
 -0.73499176E-02  0.55256424E-02 -0.91489778E-02
 -0.59000255E-03 -0.12936352E-02  0.60184323E-02
 -0.56280409E-02  0.64573549E-02 -0.43938321E-02
 -0.12253465E-02 -0.35299911E-02 -0.35763326E-02
  0.76757899E-03 -0.15086194E-02 -0.10923951E-02
  0.12389780E-02  0.16777293E-02 -0.24541284E-02
  0.58107313E-03 -0.11360771E-02 -0.21127991E-02
 -0.19655707E-02 -0.29850153E-02 -0.62941047E-03
  0.15812640E-02  0.10631211E-02  0.10800124E-02
  0.18789413E-02 -0.18060880E-02  0.70694594E-02
 -0.17743592E-02  0.10730803E-02  0.33041666E-02
  0.27217094E-02  0.75962807E-03  0.15393026E-02
  0.45069302E-02 -0.40236992E-02 -0.38633661E-02
 -0.81654916E-03 -0.14683857E-02  0.20757452E-02
 -0.15737911E-02 -0.24791414E-02  0.34034703E-02
  0.32808227E-03 -0.31926815E-02  0.13984879E-02
 -0.33754997E-02  0.11376662E-02 -0.23495276E-02
  0.51455383E-02  0.19137224E-02 -0.51811057E-02
  0.34115633E-02  0.57449921E-02 -0.71829062E-03
  0.14933144E-02  0.27828796E-02 -0.48602068E-02
  0.53788249E-03  0.74660870E-03 -0.76068855E-04
  0.57713405E-03 -0.34898834E-03 -0.25466492E-02
  0.17864761E-02 -0.64785754E-03  0.15003975E-02
  0.15091790E-02  0.38774574E-02  0.41495478E-02
 -0.79831370E-02 -0.21562047E-02 -0.95030121E-03
 -0.13780937E-02 -0.63437966E-03  0.17781940E-02
  0.19026906E-02  0.56653248E-02 -0.13431270E-02
 -0.63039358E-02 -0.56913237E-02 -0.14897123E-02
 -0.84842858E-03 -0.35281533E-02  0.42809278E-03
 -0.27332608E-02  0.36801482E-02  0.28207916E-02
  0.75177332E-02  0.14881079E-02 -0.29512697E-02
  0.11266753E-02 -0.52589487E-02  0.41863793E-02
  0.78421924E-02 -0.32099781E-02 -0.12355966E-02
  0.58444586E-02  0.22744134E-02  0.53557598E-02
 -0.15271689E-02  0.30234794E-02  0.70147100E-03
 -0.12887079E-02 -0.37990020E-02  0.80457364E-02
  0.20621191E-02 -0.15822773E-02 -0.42197038E-02
 -0.28796121E-02  0.18713152E-02  0.67297050E-02
  0.28446952E-02  0.18303729E-02  0.50379892E-03
 -0.51471907E-03 -0.12159994E-02  0.12252934E-02
  0.18913433E-02  0.26863485E-02 -0.39604817E-02
  0.21515760E-02 -0.44168823E-02  0.75243381E-03
 -0.57666912E-03  0.61336276E-03 -0.18939439E-02
  0.38982454E-03 -0.24430943E-02  0.55657695E-02
  0.28433806E-02 -0.58708173E-02  0.43497522E-02
 -0.13572433E-02 -0.61219160E-02 -0.28269165E-03
 -0.21481908E-02 -0.43817901E-02  0.26595860E-02
 -0.18611562E-03 -0.53300612E-02 -0.58432458E-02
 -0.56919011E-02 -0.93365304E-03  0.80727058E-03
 -0.10832462E-02 -0.99308388E-03 -0.11714845E-02
  0.30299009E-04  0.92582417E-03  0.13609397E-02
  0.11225490E-02  0.58038463E-02  0.37258529E-02
  0.73134775E-03  0.29827596E-02 -0.56519654E-02
 -0.42303970E-03  0.34407957E-02  0.53559741E-03
 -0.37796825E-02 -0.16245801E-02  0.80113561E-04
  0.88646476E-03  0.64176470E-03  0.54317969E-02
 -0.18608411E-02 -0.21182816E-02 -0.23994169E-02
  0.59759244E-04 -0.36506531E-02 -0.60533634E-03
 -0.12515766E-02 -0.45037835E-02  0.15000424E-02
 -0.34939341E-04  0.58099492E-02  0.30835665E-02
  0.34951591E-02 -0.37937580E-02 -0.78017041E-02
  0.22755671E-02  0.47077282E-02  0.19176470E-02
  0.42857534E-02  0.68230093E-02 -0.10769435E-02
  0.17936029E-02  0.16184547E-02 -0.22108221E-02
 -0.46382398E-02  0.36021303E-02  0.37967646E-02
 -0.35118039E-02 -0.13797755E-02  0.15026124E-02
 -0.35094233E-02 -0.42498320E-02  0.24669948E-02
 -0.28427351E-02  0.17009534E-02  0.10393330E-02
  0.67012009E-02  0.44946944E-03 -0.22620005E-02
 -0.26814501E-02 -0.29033605E-03  0.69613480E-03
 -0.45553170E-02 -0.39586662E-03 -0.14233548E-02
 -0.27049654E-02  0.38521626E-02  0.51514331E-02
  0.10956130E-02  0.13023991E-02  0.12695230E-02
  0.13640315E-02 -0.10910345E-02 -0.70832393E-02
  0.26596215E-02 -0.14847789E-02 -0.11495851E-02
  0.25167335E-02 -0.19406150E-03  0.60554620E-03
 -0.19424747E-02 -0.29806584E-02 -0.66691060E-02
 -0.42308294E-02  0.24421783E-02 -0.95493218E-03
  0.20398709E-02  0.22943571E-02  0.15030919E-02
 -0.67006591E-03 -0.63574153E-02 -0.22821026E-02
 -0.15488920E-02  0.62318033E-03  0.86437836E-03
 -0.22797095E-02  0.36220937E-02  0.75032437E-03
 -0.85204154E-03 -0.29072210E-02 -0.12227004E-02
 -0.24510504E-02 -0.47196014E-03  0.14885147E-02
 -0.66186718E-02 -0.45149822E-02  0.22549163E-02
 -0.15178456E-02 -0.14227442E-02 -0.10895611E-02
 -0.38454207E-02  0.26981549E-02 -0.38339067E-02
  0.24817837E-02 -0.17180809E-02  0.26012666E-02
 -0.48016283E-02  0.19266493E-02 -0.73128544E-02
 -0.12956709E-02  0.29271214E-02  0.75158941E-03
  0.70043042E-03  0.32111535E-02  0.17790699E-02
 -0.78155586E-03 -0.72324501E-03  0.18172049E-02
 -0.39768919E-04  0.10141166E-02  0.35653972E-02
 -0.75306532E-03 -0.48309377E-02  0.19873107E-02
  0.76637299E-02  0.19997044E-02  0.19910917E-02
  0.46415442E-02  0.34607454E-02 -0.54695531E-02
  0.71942043E-02  0.20421890E-02  0.25388617E-02
 
           1
   2.00000000000000     
  0.10547667E+01  0.96616954E-04  0.14068616E-17  0.00000000E+00
  0.47350160E+00  0.42199216E+00  0.32546182E-01
  0.49163383E+00  0.24521646E+00  0.46692884E+00
  0.71514268E+00  0.73087879E+00  0.13371389E-02
  0.72619855E+00  0.99912433E+00  0.38725192E+00
  0.47391006E+00  0.27843731E-01  0.86122963E+00
  0.98071174E+00  0.50894589E+00  0.38303630E+00
  0.27482137E+00  0.47150184E+00  0.13237373E+00
  0.81674045E+00  0.23385819E+00  0.12231689E+00
  0.46229379E+00  0.96646321E+00  0.63674752E+00
  0.73342513E+00  0.25158139E+00  0.60435165E+00
  0.26273648E+00  0.74137552E+00  0.50756300E+00
  0.48881650E+00  0.34237849E-01  0.12771190E-01
  0.22794213E+00  0.26755588E+00  0.12664273E+00
  0.48615760E+00  0.24514840E-01  0.37025168E+00
  0.30058970E+00  0.21396428E+00  0.72178760E+00
  0.22102303E+00  0.73941552E+00  0.35487738E+00
  0.28799527E-02  0.93782679E+00  0.88476523E+00
  0.72830544E+00  0.24292850E+00  0.36379248E+00
  0.99250630E+00  0.47578197E+00  0.24737462E+00
  0.77018800E+00  0.99549066E+00  0.64364399E+00
  0.11306841E-01  0.78292182E+00  0.49273011E+00
  0.47782760E+00  0.49693002E+00  0.23778032E+00
  0.46933779E+00  0.52322197E+00  0.76753080E+00
  0.44146195E+00  0.72870204E+00  0.73400878E+00
  0.21573422E-01  0.50505774E+00  0.11257170E+00
  0.50505122E+00  0.98429478E+00  0.75965565E+00
  0.25624460E+00  0.72085338E+00  0.97808563E+00
  0.71397847E+00  0.27250990E-01  0.14003145E+00
  0.73100130E+00  0.78033095E+00  0.63755803E+00
  0.75948769E+00  0.78572614E+00  0.13944216E+00
  0.77150312E+00  0.25033036E+00  0.49756937E+00
  0.10820973E-02  0.50635063E-01  0.76367557E+00
  0.28536572E+00  0.75282952E+00  0.11108467E+00
  0.72854087E+00  0.25112932E+00  0.88370695E+00
  0.98259517E+00  0.96354704E-01  0.26489926E+00
  0.45951612E+00  0.72316516E+00  0.26821095E+00
  0.85674624E+00  0.73988225E+00  0.72620133E+00
  0.47148364E+00  0.25138892E+00  0.25930173E+00
  0.58463193E-02  0.47678539E+00  0.74178919E+00
  0.22572280E+00  0.22740552E-01  0.36518737E+00
  0.94040542E+00  0.75073650E+00  0.26621516E+00
  0.18581502E+00  0.72012906E+00  0.71875657E+00
  0.99552400E+00  0.55421769E-01  0.62907274E+00
  0.15560577E+00  0.76437834E+00  0.23587429E+00
  0.25317047E+00  0.24403183E+00  0.87356735E+00
  0.89993760E-01  0.22422900E+00  0.75082976E+00
  0.14677087E-02  0.53769014E+00  0.51539552E+00
  0.98972426E+00  0.98546383E+00  0.98168397E+00
  0.98700759E+00  0.37859007E-01  0.48331440E+00
  0.24203252E+00  0.75215368E+00  0.86420411E+00
  0.21666904E+00  0.24448864E+00  0.99048980E+00
  0.46825847E+00  0.14885336E-02  0.25760257E+00
  0.19224647E+00  0.25542065E+00  0.45382303E+00
  0.34113925E+00  0.45927884E+00  0.87109879E+00
  0.66218890E+00  0.25200569E+00  0.75319873E+00
  0.18053862E-01  0.47960270E+00  0.99523313E+00
  0.99195032E+00  0.70268701E+00  0.98832769E+00
  0.50211194E+00  0.98239548E+00  0.49090251E+00
  0.49589786E+00  0.53512528E+00  0.13083898E+00
  0.83516498E+00  0.54385659E+00  0.62803232E+00
  0.20626376E+00  0.97166322E+00  0.11824375E+00
  0.51896716E+00  0.50856130E+00  0.90783789E+00
  0.92672189E+00  0.24962490E+00  0.93080742E-02
  0.23003230E+00  0.98264761E+00  0.62404156E+00
  0.46780868E+00  0.50197369E+00  0.38013714E+00
  0.75272283E+00  0.73941147E+00  0.84233642E+00
  0.11123959E-01  0.69649969E-02  0.36821075E+00
  0.27453158E+00  0.28970165E+00  0.58835997E+00
  0.97875241E+00  0.24677207E+00  0.52772844E+00
  0.35712705E-01  0.49033370E+00  0.87043427E+00
  0.50033237E+00  0.75220509E+00  0.11598098E-01
  0.71424167E+00  0.74456734E+00  0.48411213E+00
  0.73398777E+00  0.53874327E+00  0.12323413E+00
  0.57503437E+00  0.50201638E+00  0.64750883E+00
  0.79480401E+00  0.45281648E+00  0.86787801E+00
  0.18634412E+00  0.44435178E+00  0.38109702E+00
  0.57226105E+00  0.21682258E+00  0.25930319E-01
  0.73479553E+00  0.27206904E+00  0.23849767E+00
  0.46236291E+00  0.97663411E+00  0.12630510E+00
  0.17614368E+00  0.54299786E+00  0.61988150E+00
  0.73690398E+00  0.99210091E+00  0.88504251E+00
  0.71746317E+00  0.79472140E+00  0.31150296E+00
  0.48622153E+00  0.73642784E+00  0.52509753E+00
  0.99069612E+00  0.31618501E-01  0.13974170E+00
  0.48475561E+00  0.46990554E+00  0.52497853E+00
  0.22673509E+00  0.28276513E+00  0.25838405E+00
  0.26838888E+00  0.98112540E+00  0.88354309E+00
  0.71302654E+00  0.51895076E+00  0.38161218E+00
  0.23417712E+00  0.19761235E-01  0.24509415E+00
  0.76582793E+00  0.51461450E+00  0.75248158E+00
  0.25388828E+00  0.94115391E+00  0.74346407E+00
  0.74156127E+00  0.50949503E+00  0.23854420E+00
  0.24048361E+00  0.96955605E+00  0.11376103E-02
  0.74280547E+00  0.47805127E+00  0.50235101E+00
  0.28197547E+00  0.22229078E-01  0.49277004E+00
  0.73672365E+00  0.48951477E+00  0.44688469E-02
  0.78026355E+00  0.10915059E-01  0.75352248E+00
  0.21913246E+00  0.52049892E+00  0.25140392E+00
  0.23689557E+00  0.45360447E+00  0.74308230E+00
  0.73658255E+00  0.19213991E-01  0.25230933E+00
  0.23783993E+00  0.51199816E+00  0.49853857E+00
  0.73322678E+00  0.99148905E+00  0.12164395E-01
  0.73732629E+00  0.98868823E-02  0.51383607E+00
  0.25782657E+00  0.50166209E+00  0.27839011E-02
  0.95571086E+00  0.25557281E+00  0.37413198E+00
  0.50514267E+00  0.74779395E+00  0.88017408E+00
  0.48580078E+00  0.22213241E+00  0.64128971E+00
  0.61406742E-02  0.73631781E+00  0.12356611E+00
  0.41601339E-03  0.21715782E+00  0.87002152E+00
  0.48892873E+00  0.75962047E+00  0.38314504E+00
  0.97974367E+00  0.74286650E+00  0.61667279E+00
  0.49400363E+00  0.23698577E+00  0.12516648E+00
  0.16007200E+00  0.39846166E+00  0.52601502E-01
  0.64082629E+00  0.92476412E+00  0.56624806E+00
  0.65600599E+00  0.90009238E-01  0.95829905E+00
  0.14549201E+00  0.60704351E+00  0.44386880E+00
  0.36452396E+00  0.38726748E+00  0.95905000E+00
  0.83822373E+00  0.90773721E+00  0.46753610E+00
  0.84640968E+00  0.71449558E-01  0.61488480E-01
  0.33245580E+00  0.59159050E+00  0.55548877E+00
  0.83254669E+00  0.11652498E+00  0.20413533E+00
  0.32548880E+00  0.55679453E+00  0.69190911E+00
  0.84220319E+00  0.94936727E+00  0.31208969E+00
  0.31536739E+00  0.33649176E+00  0.78898613E+00
  0.12764956E+00  0.61321546E+00  0.29895062E+00
  0.66747963E+00  0.92994977E-01  0.81254064E+00
  0.13349845E+00  0.40189504E+00  0.20245506E+00
  0.66681611E+00  0.91016997E+00  0.71113337E+00
  0.83027393E+00  0.58548958E+00  0.94073343E+00
  0.35805120E+00  0.10572805E+00  0.43128976E+00
  0.85894952E+00  0.40435784E+00  0.55445203E+00
  0.33514249E+00  0.87205482E+00  0.49463437E-01
  0.18168563E+00  0.10641418E+00  0.54710753E+00
  0.61605198E+00  0.58890198E+00  0.41423361E-01
  0.15120722E+00  0.86564896E+00  0.95494255E+00
  0.63579672E+00  0.39570022E+00  0.44928229E+00