Na88 Ge16 P8 S96                        
   1.00000000000000     
    13.3422163233000006    0.0000000000000000    0.0000000000000000
     0.0000000000000000   13.3422163233000006    0.0000000000000000
     0.0000000000000000    0.0000000000000000   26.6844326466999995
   Na   Ge   P    S 
    88    16     8    96
Direct
  0.5101925331334229  0.6925588404058750  0.2220029105752593
  0.8339065799564809  0.9916980117101736  0.8794504005026300
  0.2315127040363021  0.5278716918016342  0.8742136319384262
  0.2009324208148620  0.2668103497762209  0.2694620138063626
  0.7759504947865258  0.4093224461996619  0.8835037736975495
  0.9811916973946627  0.7409999096370113  0.4650424242493851
  0.9232272909378537  0.9725537067190159  0.0059180683011206
  0.0099859906042060  0.3948989575899969  0.1408479340264769
  0.0285901559057537  0.8466090389889116  0.7329181528781130
  0.7548307318049189  0.2210426343414277  0.1189725772059265
  0.9817688868452846  0.6656885631583928  0.2589559576211063
  0.2548056553853641  0.2259770095313148  0.8912687404063786
  0.5113592483986041  0.0008009797805561  0.1245174189574769
  0.3997400155392824  0.7553157392048677  0.5023187553451153
  0.4667302333290941  0.0056201502391463  0.7648274760703074
  0.7405184304474374  0.7396670843482908  0.4966432938053420
  0.7436038561444278  0.2431014539381341  0.4774315718128421
  0.7349344557318784  0.7681186391079740  0.7968060590590236
  0.4484866843367308  0.9847462228541810  0.9926190284557957
  0.6710154936889620  0.2321484219437497  0.7380792492663608
  0.7736527153313054  0.2102351360041889  0.2606769458463773
  0.6825102685903799  0.9820500997915689  0.3673461605721907
  0.9607852584506382  0.4999458529006479  0.7664567315033545
  0.4847205810068357  0.4695869358904530  0.6136097787679198
  0.4719868624305705  0.0096742615023866  0.2597175677809612
  0.2247674002752250  0.7336603904641051  0.7471504347829546
  0.5270551363655890  0.4989545285693157  0.8763549426773632
  0.7744073762243321  0.9682043148343022  0.6303930728739200
  0.9436925794246955  0.4823090932155091  0.4938877508757969
  0.1788616048648995  0.7487045996682048  0.8850570824817436
  0.2720931437387654  0.0776336059872777  0.6475390094438259
  0.9553507138090911  0.6388694549918980  0.8862286380786907
  0.9669645851850056  0.9961855150768076  0.3835334470762726
  0.9992189982653051  0.0398474046177074  0.6426598316249528
  0.2055775057321917  0.7773951545861800  0.1424998564856660
  0.4700313424912620  0.0419610942491795  0.3772433332933417
  0.4828310365945328  0.2626513633453229  0.9970764444625375
  0.2190907476545903  0.2749742758416827  0.5167169410535944
  0.2930912748950424  0.3186623240035817  0.6940532504510230
  0.6277470352909298  0.7992756793318344  0.9361497696695724
  0.9703206149314044  0.3499896740497507  0.2613509657487218
  0.2141620645906865  0.2631797052307652  0.0042546758945679
  0.9186453694567427  0.2064114934146423  0.7531333728975591
  0.9554560163125149  0.4426426172853824  0.9560982587784197
  0.2446344794156137  0.9822476509289800  0.3881996619948084
  0.7281720772565453  0.6984843957593485  0.3795467887345880
  0.4693942486463146  0.4949855837073118  0.4951010440675799
  0.4546804454842671  0.7224614240494943  0.7422648760632531
  0.4816033121372351  0.0213127170379711  0.8804987740068755
  0.4087766773828554  0.4416314257919495  0.1878075501742427
  0.7378428257559776  0.5832120066326799  0.6197080258183891
  0.9865534282539964  0.9910077452895406  0.4999730790582761
  0.0001449110538452  0.2552075081269187  0.5206814792166548
  0.2151092483574904  0.2639175534960175  0.1389636176158314
  0.9391467485772464  0.4827122815030142  0.3756837088431684
  0.9981212358081286  0.0089049976280760  0.2733188453625351
  0.1534787266001210  0.2472907318542625  0.7777738563768685
  0.2282125192024298  0.2590091932938033  0.3999480257182920
  0.4314931297264163  0.7689542487320300  0.0096197384002605
  0.2267888777349339  0.5057477900848337  0.3660280665336649
  0.9833684327329765  0.2000796858724340  0.9881673108939609
  0.7367980977439216  0.4938460451075032  0.1235069596167306
  0.7542964060777776  0.7491864462359465  0.0309895869984986
  0.5164044221303240  0.9728355383300873  0.5062153244140195
  0.7210458576755072  0.8698988712857578  0.1326613302211901
  0.7865284100758491  0.7669672697543344  0.6857567903844707
  0.1991622332211923  0.5471139505830724  0.6307827619583590
  0.2189725550784476  0.0099054438692862  0.8852033240055139
  0.4646418545597805  0.2539765488136158  0.2676960078157215
  0.6772627484571367  0.2268328553852494  0.8702558319632278
  0.2787337883915565  0.0335586426429934  0.1374034352248018
  0.4569599120282018  0.3820062553550311  0.7505551902012082
  0.2009808882721114  0.5024926869630925  0.1149285588999849
  0.7609285252871880  0.2490551855483117  0.6260014227506895
  0.4612974833411372  0.4854270296518775  0.0134689231341465
  0.5111595370498180  0.5129761311872600  0.3542300544981812
  0.9844653547255153  0.5716613024108141  0.0416218949538695
  0.7707485221769309  0.3361740946968224  0.3625028814294123
  0.9602513452449123  0.9712124037178713  0.1219443188351152
  0.9684519976481520  0.4663668026057659  0.6273379953425691
  0.7497022161719097  0.7308186171633696  0.2367049353219301
  0.2764249995796907  0.7394826068606924  0.2820264246335683
  0.2130816184939802  0.7324658618876208  0.4048611706344779
  0.7423497778508688  0.2511589737786438  0.9968556271623397
  0.2024236593760781  0.7692119901672561  0.5567948560360347
  0.4949545301292527  0.2072589819612239  0.5096787351452957
  0.1939301197643356  0.7389474611654486  0.9942995922207924
  0.5168301262353345  0.9548879490402101  0.6270397201539044
  0.2281683476945137  0.9998892649648738  0.2571118237455245
  0.6993328122119080  0.4922068892266115  0.7581107870426053
  0.2473391070976803  0.9916848127886779  0.7655794073325320
  0.7184086923622355  0.4649354768512011  0.2525044061534641
  0.1818423053690482  0.0041346556282188  0.0173659887998993
  0.7077846364343517  0.4866204949915485  0.4888490782001227
  0.2644751476183695  0.0039989205664600  0.5169119889301681
  0.7091576894590041  0.4954079629935133  0.9978312296292711
  0.7447716227399502  0.9967741522619066  0.7434555319858894
  0.2364872382643479  0.5296157077033845  0.2452489599266426
  0.2096684711593332  0.4959670423809181  0.7491916044446576
  0.7129667513518418  0.9849093304042514  0.2528451737692565
  0.1998935444771579  0.5131066404078262  0.4949117797063877
  0.6899125783738871  0.0006076884836410  0.0076895420935768
  0.7533295397145705  0.9852781888063177  0.5105689200117046
  0.2075095287700501  0.4999037181782602  0.9944142512941865
  0.9874161786977322  0.2546432741339631  0.3921305485829270
  0.4296345645865316  0.7449149783571809  0.8773947924291291
  0.4930050442639221  0.2327492934667516  0.6354968654487660
  0.9603486627898176  0.7295161531829227  0.1420227384258172
  0.9795083287006885  0.2296048008884936  0.8765299682705303
  0.4603238279635924  0.7462679550676979  0.3800608762450907
  0.9785531383305340  0.7333812690796180  0.6252795935551962
  0.4618444658197020  0.2457597117584885  0.1271832811318863
  0.0944208876226849  0.4134197987393494  0.0426793127812740
  0.6582135082571120  0.8895885061674749  0.5526748831680806
  0.6134918650156133  0.0910725496815934  0.9434019032645471
  0.0829065981562457  0.5956719989887892  0.4431824198195078
  0.3176735715212742  0.4054655014748548  0.9481625836870536
  0.8438252766147027  0.8883324765142250  0.4525056434215138
  0.8163488068869243  0.0767226606727933  0.0502962441341176
  0.2974599247565141  0.6084326347407663  0.5420211910057743
  0.8023601952229187  0.0677665739589581  0.1828777757904616
  0.3235958850219811  0.5659068718277050  0.7026018611876094
  0.8344185528117894  0.9101182887845106  0.3011483379431534
  0.2766310470015607  0.3903926603103309  0.8066485364565253
  0.1408055044478765  0.6076399297363865  0.2942554587940722
  0.6530032135184755  0.0508172002017328  0.8090086178416852
  0.1400975938491159  0.4026097029373049  0.2040748717214262
  0.6340543672682274  0.9122525400266943  0.6948769746589143
  0.7919921309831165  0.5881746595400724  0.9476822130247041
  0.3383182573913435  0.1046881423154917  0.4552533385302259
  0.8276307872763318  0.3832339168471368  0.5496618189544463
  0.2993261376105546  0.8901817477701545  0.0559969609917514
  0.1440277229270866  0.0800384602967995  0.5548368002893932
  0.6192510408380781  0.5923436955404626  0.0511358620166702
  0.1030703461207766  0.9057830464772891  0.9688742397616162
  0.6066292608713275  0.3853250311801446  0.4420667490342804
  0.6255964903213761  0.3693833447085292  0.3021960556787736
  0.1229967972928785  0.9058268559468066  0.8128724112021765
  0.1371581806356265  0.1039237037327810  0.7228170729242965
  0.6413211821308118  0.5715515057178296  0.2065288748322517
  0.8011105378971863  0.4078700452212003  0.7056403590718350
  0.3252168614830932  0.9083653702075982  0.2128279422900758
  0.3045449908168020  0.1122570339073710  0.3189031098003107
  0.7853849506195897  0.5731168288993019  0.8143314638890568
  0.1057801240934290  0.1051367025640519  0.0672309760318214
  0.6297392069093508  0.5886329866438272  0.5433631696739606
  0.6200874269551977  0.3929191207952493  0.9475919794321302
  0.1964541507855450  0.8773093256788724  0.4764370571653385
  0.2857203665925349  0.1042627032580652  0.9709164400244621
  0.8135815368528568  0.5902789482970529  0.4465720437461984
  0.8113468976175587  0.4094581410369777  0.0388574462854746
  0.3550547260086367  0.9418485397741584  0.5778911909073946
  0.1262431119729529  0.0923042350775891  0.2128490710137207
  0.6111731568591560  0.6040692443552558  0.7109590114167293
  0.1377615324555735  0.9092444977461374  0.3115332827809393
  0.6258059049007141  0.3711450872876926  0.8059030742327429
  0.8311279387398232  0.5234754774163020  0.3007982351831622
  0.3426658224951385  0.0863462771474345  0.8199325336959082
  0.8170409356736563  0.3494809410807018  0.2063916194459456
  0.3442056211257159  0.8878574687772240  0.7241280757283655
  0.7847026090630348  0.9041329933915209  0.9646813229874602
  0.3013765575123554  0.4176438435799189  0.4549603460195750
  0.8509109031738595  0.1004751077640160  0.5514341808799738
  0.2871931211400338  0.5983306008183427  0.0462467712052044
  0.1118506324784232  0.4174211109537353  0.5522177275684126
  0.5921862292259669  0.8759313454875786  0.0498750785811870
  0.0951938973604125  0.5927943364384520  0.9417106020595264
  0.6648829925002514  0.0729315019304881  0.4552859482434869
  0.3470136336165123  0.4327300496292560  0.2827164206271907
  0.8551226700328496  0.8949953485268951  0.7742957651221439
  0.8211151081011934  0.1074130307575437  0.6905904090674074
  0.3225300405170721  0.6290244826478930  0.1910180875945286
  0.1219074215064212  0.4011235762508778  0.7044506557288606
  0.6136335188648738  0.8754984176322715  0.2170579782877517
  0.6264175815298079  0.1096274505094342  0.2947160112084499
  0.1245663149425565  0.5978758808569503  0.7973760976282864
  0.0872542742031739  0.3669269961444542  0.3580984016919353
  0.5228325094827090  0.8093382702438150  0.8272730494550652
  0.4232717524874964  0.1584797832740469  0.6884334065061158
  0.8339625693239432  0.6694147882815222  0.1126235310204940
  0.5942634363970752  0.3366013587941774  0.6572947181829697
  0.9052321596749082  0.8209861679889691  0.1983789969023119
  0.9057104551370352  0.3289418322528651  0.4429973721256878
  0.5076366497086203  0.6552809724833772  0.9362102606947421
  0.9239709850066949  0.3347366132437869  0.8298691931432199
  0.5582512051555785  0.8132644757293988  0.4365517027529928
  0.9538701149714300  0.6502404364821212  0.6840686027654491
  0.5320939110157192  0.1606217396254388  0.0771871412267953
  0.8532008255214280  0.7940786493237184  0.5963028648676825
  0.3748884974102112  0.1536433766745915  0.1794665386519971
  0.9909053512905430  0.0990068185262828  0.8364682896024218
  0.3827611947467430  0.8606514638049364  0.3457716902191624
  0.0516967678162579  0.6315548679412261  0.5816514232561792
  0.3780541682430323  0.3475126147603659  0.0845823465007949
  0.8581903261480942  0.2195919790609895  0.9255526130475600
  0.3730990601624095  0.6371975795146885  0.4045622580867101
  0.0893884161296939  0.2813688425407792  0.9175322722281488
  0.5632844820260907  0.6955715289042608  0.3185335808838685
  0.0831956231932912  0.8368324939260808  0.6406891297150106
  0.5752054125522280  0.3258178447957881  0.1668450620485346
  0.5697390204680660  0.1355062423409136  0.5946137969358911
  0.0546333031388201  0.6093420527094238  0.1607946091636504
  0.9179095812665014  0.2015518086706700  0.3318324424072541
  0.3356364701998108  0.8461736363247412  0.9190310033656560
  0.0682404345752796  0.1603123137235659  0.4351026655793584
  0.3229573258154559  0.6639147234523145  0.8324582723873327
  0.3876826780866222  0.2896012460752679  0.5895285988227265
  0.0111650858392749  0.8078321459407658  0.0799101086699499
 
  0.50886860E-02 -0.73549130E-02 -0.35546215E-02
 -0.10025342E-01  0.24771288E-02 -0.19979007E-02
 -0.16370790E-02  0.12261824E-01  0.59577459E-02
  0.87102967E-02 -0.35421125E-02  0.21437446E-02
 -0.86454938E-02  0.68421867E-03  0.33028112E-02
 -0.18854219E-02  0.21991416E-02  0.53822992E-02
 -0.23496831E-02  0.82244238E-03 -0.19995722E-03
 -0.18763314E-02 -0.36734820E-02 -0.13783381E-02
 -0.80259069E-02  0.41194598E-04 -0.84246202E-03
 -0.84799303E-02 -0.40474926E-02  0.48244644E-02
 -0.18321564E-02 -0.88946785E-03  0.14904537E-01
  0.70271020E-02 -0.76503833E-02 -0.68906835E-03
 -0.37663096E-03 -0.14214535E-02  0.55462608E-02
  0.19356057E-02 -0.42983167E-02  0.69864111E-02
 -0.94607062E-02 -0.29942052E-02 -0.26697625E-02
  0.52400815E-02  0.13246196E-02  0.82904450E-02
  0.14729419E-02 -0.28979955E-02 -0.82264432E-02
 -0.42813280E-02 -0.55504957E-02  0.24060073E-02
  0.43877959E-02  0.43642521E-02  0.30981829E-02
  0.26743524E-03  0.43515003E-02  0.52923499E-02
 -0.40570924E-02  0.15083261E-02 -0.89291429E-03
  0.48003297E-02 -0.25217127E-02 -0.30178362E-03
 -0.35087584E-02  0.20838276E-02 -0.94699736E-02
 -0.35318764E-02 -0.57426792E-02  0.90255341E-03
 -0.16706534E-02  0.15780993E-02 -0.41698325E-02
  0.71168218E-02 -0.11442842E-02  0.11674867E-02
 -0.46681972E-03 -0.54618480E-02 -0.71753878E-02
 -0.58968461E-03  0.15186505E-02  0.57349085E-02
  0.28156081E-02  0.25088685E-02 -0.10616320E-01
  0.21360171E-02 -0.69484598E-02  0.13431722E-02
  0.43622434E-02  0.16623997E-02  0.73978684E-03
  0.77006376E-03 -0.15438569E-02  0.23908752E-02
  0.63666636E-02 -0.35997571E-02  0.46227172E-02
  0.28358928E-02 -0.49999443E-02 -0.64679370E-02
 -0.67664753E-03  0.64422927E-03  0.25230995E-03
  0.16690798E-02  0.55912607E-02 -0.69181827E-03
  0.17954101E-02 -0.23607377E-02 -0.85415338E-02
 -0.11078360E-02  0.78325934E-02 -0.57391058E-02
  0.98372690E-03  0.33736399E-02  0.24500406E-02
  0.42264856E-04 -0.17144436E-02  0.12484149E-01
 -0.99149934E-02 -0.36618550E-03  0.11863593E-02
  0.80758010E-02 -0.16214013E-02 -0.34659001E-02
  0.87718828E-02  0.11410685E-01 -0.12959316E-02
 -0.21060853E-02  0.25510877E-02 -0.70670608E-02
 -0.59387059E-02 -0.65188481E-02 -0.17036717E-02
 -0.10362047E-02  0.82229859E-02  0.62573613E-02
 -0.10463449E-01 -0.59625655E-02  0.12285686E-03
  0.22387020E-02  0.95057761E-02 -0.51835752E-02
 -0.50895457E-03 -0.30075298E-02 -0.59939752E-02
  0.50645841E-02 -0.19760072E-02  0.29065550E-02
 -0.41364761E-02  0.13588136E-01 -0.21791211E-02
  0.41772449E-02 -0.26052292E-02  0.12755496E-02
  0.40863664E-02 -0.12535255E-01  0.25574408E-05
 -0.46832868E-02  0.12131016E-03  0.81434457E-02
 -0.61334136E-02 -0.13571693E-02  0.10048001E-02
  0.42128638E-02  0.16878708E-02 -0.25504229E-02
  0.21498526E-02  0.24887048E-03 -0.58922032E-02
 -0.37505206E-03 -0.95640015E-02  0.24781937E-02
  0.34668504E-02  0.34934468E-03  0.47376176E-02
  0.23888653E-02 -0.84819403E-02  0.42434788E-02
  0.56717284E-02  0.86710930E-02  0.67677644E-02
 -0.12371652E-01  0.14240824E-01 -0.49443630E-02
  0.62193210E-02 -0.54171634E-02 -0.57338383E-02
 -0.30716172E-02  0.11755229E-01 -0.90517021E-02
  0.32912872E-02  0.58270907E-02  0.10727508E-02
 -0.32368519E-02 -0.12142376E-02  0.10082983E-01
  0.13090167E-01  0.11065800E-01 -0.46788074E-02
 -0.26021529E-02 -0.59021894E-02 -0.45772575E-02
 -0.54928345E-02 -0.14704689E-02 -0.98223758E-02
 -0.31230297E-02 -0.84896182E-02 -0.13890205E-02
 -0.21222233E-02  0.75472064E-02  0.95215108E-02
  0.33352138E-02 -0.69667965E-02  0.24462500E-02
 -0.10733185E-01  0.79924532E-02 -0.17328049E-02
  0.38131110E-02 -0.52284285E-02 -0.52777097E-02
 -0.37250727E-02 -0.18873591E-02  0.59613767E-02
 -0.62334034E-02  0.40644393E-02 -0.13249859E-02
  0.21098427E-02  0.47165027E-02  0.34949137E-02
 -0.19306182E-02 -0.45333283E-02  0.97302482E-02
 -0.31311991E-02 -0.14296259E-02  0.24179674E-02
  0.11088856E-01  0.48228406E-02  0.28189839E-02
 -0.54199222E-02  0.69185947E-02 -0.43592169E-04
 -0.11236917E-01 -0.27877752E-02  0.20402209E-02
  0.65191215E-03  0.21124281E-02 -0.10232403E-02
 -0.58078299E-02  0.38294933E-03  0.10132865E-01
  0.16146312E-03 -0.35511467E-02  0.13818517E-02
 -0.66218933E-02  0.11038510E-01  0.34265353E-02
  0.10422564E-02  0.82593352E-02 -0.43761358E-02
 -0.11243302E-03  0.43765776E-02  0.29477069E-02
 -0.37695128E-02 -0.48041305E-02  0.48524556E-02
 -0.58260671E-02  0.18297074E-02  0.36129304E-02
  0.39269899E-02  0.48522301E-03  0.44132348E-04
  0.94632251E-03  0.19616589E-02 -0.11852733E-02
  0.86158255E-02  0.10164077E-02 -0.17303811E-02
  0.48522329E-02 -0.36703762E-03  0.13766490E-02
 -0.12187609E-02  0.70733396E-02  0.21577425E-02
  0.22713169E-02 -0.60701287E-02 -0.48791348E-02
  0.65058913E-03  0.19046584E-03 -0.43907881E-02
 -0.10220134E-02  0.47863834E-02 -0.30802336E-02
 -0.54066849E-02 -0.76571357E-03 -0.84605175E-03
 -0.11313481E-03 -0.26051354E-03 -0.10334011E-02
 -0.10929789E-02 -0.12158963E-02 -0.85356570E-03
 -0.42063875E-02  0.25663729E-02 -0.91546023E-03
  0.49472195E-02  0.70793346E-03 -0.11502191E-01
 -0.27626761E-02  0.88931064E-03 -0.17971815E-02
 -0.40339574E-02  0.11416811E-02  0.61042740E-02
 -0.59474385E-02  0.22313453E-03  0.11774896E-02
 -0.54681571E-02 -0.29559031E-02 -0.51462346E-02
  0.16740203E-02  0.22426509E-02 -0.34625127E-02
  0.78016970E-02 -0.12121083E-02  0.18195137E-02
 -0.64387864E-02  0.10176939E-01  0.26958981E-03
  0.80469197E-02  0.28899134E-02  0.62749437E-02
 -0.41176944E-02  0.15977067E-01  0.98588541E-02
 -0.22108505E-02  0.21298137E-02 -0.19758814E-02
  0.49148606E-02  0.14697202E-02  0.49852743E-02
  0.37629725E-03 -0.31001095E-02  0.34790858E-02
 -0.32990852E-02  0.11535549E-01  0.38547088E-02
 -0.10204571E-01  0.78080405E-02  0.41719066E-02
 -0.73174036E-03 -0.24059722E-02  0.12682236E-02
  0.55805290E-02  0.49051350E-02  0.58890573E-02
  0.29532275E-02 -0.61476825E-02  0.78808164E-03
  0.32678072E-03 -0.10414626E-01  0.42182455E-03
  0.31022654E-02 -0.41625819E-02  0.57785227E-02
  0.15637830E-03  0.37881787E-02 -0.36593081E-02
 -0.71879359E-02  0.60993315E-02 -0.11986256E-02
 -0.46673333E-02 -0.52084660E-02  0.13365026E-02
  0.16849988E-02 -0.27609886E-02  0.45991189E-02
  0.50772348E-02 -0.39734700E-02 -0.61476044E-03
  0.13214403E-03  0.62882228E-02  0.11859676E-02
 -0.91390841E-02 -0.12604996E-02 -0.53092843E-02
  0.12110832E-02  0.40850346E-02  0.20704374E-02
  0.24789734E-02 -0.35727632E-02  0.77148240E-02
 -0.57873213E-02 -0.54130109E-02  0.19955769E-03
 -0.59230355E-03 -0.25606815E-02  0.11305383E-02
  0.89736638E-02 -0.27760201E-03  0.92280156E-02
  0.84813280E-02  0.29100078E-02  0.40177450E-03
 -0.17718744E-02 -0.52605927E-03  0.50999366E-02
  0.37626195E-02  0.16302205E-02  0.82247208E-02
 -0.32416068E-02 -0.68222273E-04 -0.85402096E-02
  0.11980512E-01  0.15514365E-02  0.25377684E-02
 -0.16902035E-02  0.43546276E-03 -0.10402254E-03
 -0.21757643E-02 -0.20252021E-02  0.12012666E-01
 -0.49564993E-02 -0.69705804E-02 -0.24415593E-02
 -0.17601379E-02 -0.61538463E-02  0.42961083E-04
  0.10913797E-02 -0.51569393E-03  0.35046329E-02
  0.39558249E-02 -0.17012254E-02  0.19712826E-02
 -0.11686659E-02  0.32943142E-02  0.61143789E-02
 -0.93206739E-02 -0.44415673E-02 -0.39728678E-02
 -0.28715545E-02  0.12155603E-02  0.95797746E-03
 -0.35446171E-04 -0.80076751E-03 -0.16292181E-03
 -0.11177956E-02 -0.67177428E-02  0.28004384E-02
 -0.33625345E-02 -0.11067476E-01 -0.22105921E-02
 -0.14835345E-02 -0.14429936E-02  0.10473145E-01
  0.83398779E-02 -0.70785251E-02  0.80295445E-02
 -0.13877319E-03 -0.48739332E-02  0.41646597E-02
  0.12775063E-01 -0.19733331E-02 -0.50705003E-02
 -0.88112087E-02  0.25039811E-02 -0.54696279E-03
  0.26907109E-03 -0.15087803E-03 -0.75619364E-03
 -0.25281543E-02 -0.35837581E-02 -0.94214931E-02
 -0.19218835E-02  0.15585140E-02 -0.60679324E-02
 -0.38295365E-02  0.30605821E-02  0.56801185E-02
 -0.65551037E-02 -0.50360189E-02  0.39718947E-03
 -0.26080767E-02  0.13223566E-02 -0.59267982E-03
 -0.30659439E-02  0.51981885E-02 -0.62705843E-02
  0.21471695E-02 -0.62018327E-02 -0.78556584E-02
  0.15105038E-02  0.93323949E-02 -0.22139005E-02
 -0.83265384E-03  0.21981969E-02  0.72910404E-02
  0.50240437E-02 -0.37255858E-02  0.10479457E-02
 -0.24659930E-02 -0.22720052E-02  0.22648724E-03
  0.25799960E-02 -0.56038035E-02 -0.68327978E-02
  0.31360953E-02 -0.49738003E-03  0.78969884E-03
  0.23444830E-02 -0.18175738E-02 -0.23747964E-02
  0.26739880E-02  0.94325856E-03  0.87502434E-03
  0.34245994E-02 -0.41644882E-02 -0.52446987E-02
 -0.29082194E-03 -0.28397295E-02 -0.17836298E-02
  0.45972247E-02 -0.32966595E-02 -0.78628895E-02
  0.44992738E-02 -0.19078416E-02  0.12099422E-02
  0.74058958E-02 -0.54672878E-03 -0.98834023E-02
 -0.69848441E-02 -0.28772812E-02  0.81494068E-03
 -0.18384710E-02  0.82258341E-02  0.57470132E-02
  0.38809728E-02 -0.44623229E-02 -0.73331607E-02
  0.48461583E-02 -0.78690633E-02 -0.76633083E-02
 -0.31579064E-02  0.53181939E-02  0.80774150E-02
  0.69801418E-03 -0.51148622E-02 -0.43077814E-02
 -0.12231230E-02  0.36160451E-02  0.48204379E-02
  0.11338086E-02 -0.11398697E-03  0.36864325E-02
  0.40881806E-02 -0.14653984E-02 -0.14046923E-02
 -0.63245186E-02 -0.65502756E-02 -0.56179125E-02
 -0.47007749E-02  0.87305320E-02 -0.16446669E-02
 -0.13862548E-02  0.77539178E-02 -0.93495356E-02
 -0.83200525E-02 -0.36401727E-03 -0.43687582E-02
  0.47162355E-02 -0.56315246E-02  0.32994245E-03
 -0.19520608E-02  0.64252498E-03  0.16837702E-02
  0.29143502E-02 -0.52869725E-03 -0.84631256E-02
 -0.40215326E-02  0.21415398E-02  0.38698339E-02
  0.48434022E-02 -0.12595278E-02 -0.39634126E-02
  0.25601179E-02 -0.80741497E-05  0.56496751E-02
  0.89189658E-02 -0.68806227E-03 -0.41577417E-02
  0.17186875E-03 -0.42701259E-02 -0.63007464E-03
  0.74184485E-03 -0.82398768E-03  0.24966660E-02
  0.40564700E-02 -0.16948107E-03 -0.25812245E-02
  0.32036617E-02 -0.60732117E-02 -0.25797133E-02
 -0.30561884E-02  0.68864369E-02 -0.71407562E-03
  0.15442576E-02 -0.15686362E-02  0.31179945E-02
  0.46071499E-02 -0.57526122E-02 -0.64085369E-02
 -0.25807891E-02  0.24920033E-02  0.10895714E-02
  0.73247656E-02  0.37922141E-02 -0.24252924E-02
  0.17681601E-02  0.40533844E-02 -0.84468318E-02
  0.47709523E-02 -0.48930387E-02 -0.42852657E-03
 
           1
   2.00000000000000     
  0.98212806E+00 -0.55282675E-03  0.00000000E+00  0.00000000E+00
  0.51095533E+00  0.69145634E+00  0.22173649E+00
  0.83240378E+00  0.99206933E+00  0.87930066E+00
  0.23126731E+00  0.52970974E+00  0.87466017E+00
  0.20223810E+00  0.26627939E+00  0.26962269E+00
  0.77465453E+00  0.40942501E+00  0.88375132E+00
  0.98090907E+00  0.74132956E+00  0.46544583E+00
  0.92287507E+00  0.97267699E+00  0.59030815E-02
  0.97047283E-02  0.39434830E+00  0.14074463E+00
  0.27387071E-01  0.84661521E+00  0.73285501E+00
  0.75355959E+00  0.22043591E+00  0.11933417E+00
  0.98149425E+00  0.66555523E+00  0.26007305E+00
  0.25585902E+00  0.22483022E+00  0.89121709E+00
  0.51130279E+00  0.58790372E-03  0.12493311E+00
  0.40003016E+00  0.75467142E+00  0.50284239E+00
  0.46531207E+00  0.51713185E-02  0.76462738E+00
  0.74130392E+00  0.73986564E+00  0.49726466E+00
  0.74382465E+00  0.24266704E+00  0.47681500E+00
  0.73429268E+00  0.76728662E+00  0.79698639E+00
  0.44914442E+00  0.98540042E+00  0.99285124E+00
  0.67105558E+00  0.23280071E+00  0.73847591E+00
  0.77304456E+00  0.21046123E+00  0.26061002E+00
  0.68322984E+00  0.98167209E+00  0.36732354E+00
  0.96025930E+00  0.50025822E+00  0.76574696E+00
  0.48419115E+00  0.46872611E+00  0.61367743E+00
  0.47173643E+00  0.99108188E-02  0.25940504E+00
  0.22583421E+00  0.73348886E+00  0.74723794E+00
  0.52698516E+00  0.49813580E+00  0.87581715E+00
  0.77431898E+00  0.96843196E+00  0.63082290E+00
  0.94411464E+00  0.48268517E+00  0.49309206E+00
  0.17918179E+00  0.74766302E+00  0.88515775E+00
  0.27274704E+00  0.77882800E-01  0.64759446E+00
  0.95546615E+00  0.63863803E+00  0.88640783E+00
  0.96791895E+00  0.99564591E+00  0.38387992E+00
  0.99964410E+00  0.39097912E-01  0.64217506E+00
  0.20547608E+00  0.77749172E+00  0.14251877E+00
  0.47028154E+00  0.42799225E-01  0.37719148E+00
  0.48310017E+00  0.26229749E+00  0.99643626E+00
  0.21892468E+00  0.27614838E+00  0.51628679E+00
  0.29323874E+00  0.31916803E+00  0.69423688E+00
  0.62775337E+00  0.79901868E+00  0.93708546E+00
  0.96883436E+00  0.34993478E+00  0.26143988E+00
  0.21537263E+00  0.26293666E+00  0.39949065E-02
  0.91996028E+00  0.20812196E+00  0.75303624E+00
  0.95514031E+00  0.44302503E+00  0.95556858E+00
  0.24374427E+00  0.98127047E+00  0.38807197E+00
  0.72801675E+00  0.69971702E+00  0.38001578E+00
  0.46782578E+00  0.49409179E+00  0.49511025E+00
  0.45501603E+00  0.72388634E+00  0.74187637E+00
  0.48152702E+00  0.20861888E-01  0.88004953E+00
  0.40953586E+00  0.44133522E+00  0.18802540E+00
  0.73722277E+00  0.58524887E+00  0.61954470E+00
  0.98717960E+00  0.99061722E+00  0.50006868E+00
  0.75745792E-03  0.25332847E+00  0.52068167E+00
  0.21440722E+00  0.26393574E+00  0.13957397E+00
  0.93822735E+00  0.48250884E+00  0.37575902E+00
  0.99875274E+00  0.91580097E-02  0.27312769E+00
  0.15380099E+00  0.24732804E+00  0.77733224E+00
  0.22815630E+00  0.25757555E+00  0.40013377E+00
  0.43201281E+00  0.76900662E+00  0.99748232E-02
  0.22714697E+00  0.50447635E+00  0.36634612E+00
  0.98421863E+00  0.20137948E+00  0.98867456E+00
  0.73494359E+00  0.49598075E+00  0.12313638E+00
  0.75522868E+00  0.74837441E+00  0.30559835E-01
  0.51594399E+00  0.97459765E+00  0.50553690E+00
  0.72153922E+00  0.87077235E+00  0.13274173E+00
  0.78604321E+00  0.76678526E+00  0.68651251E+00
  0.20112445E+00  0.54877272E+00  0.63043209E+00
  0.21858249E+00  0.90207049E-02  0.88486026E+00
  0.46381848E+00  0.25375613E+00  0.26695982E+00
  0.67679461E+00  0.22556026E+00  0.87015172E+00
  0.27841567E+00  0.34689970E-01  0.13811707E+00
  0.45745986E+00  0.38096193E+00  0.75073854E+00
  0.19937198E+00  0.50369076E+00  0.11479869E+00
  0.76150011E+00  0.24827144E+00  0.62560586E+00
  0.46073909E+00  0.48514411E+00  0.13915729E-01
  0.51022515E+00  0.51358539E+00  0.35413075E+00
  0.98478162E+00  0.57236831E+00  0.41883839E-01
  0.77045912E+00  0.33549455E+00  0.36323216E+00
  0.95978198E+00  0.97099810E+00  0.12212555E+00
  0.97011422E+00  0.46708975E+00  0.62754928E+00
  0.74888977E+00  0.73185572E+00  0.23670167E+00
  0.27474058E+00  0.73906472E+00  0.28217934E+00
  0.21317934E+00  0.73278252E+00  0.40478448E+00
  0.74147918E+00  0.25121638E+00  0.99761509E+00
  0.20244786E+00  0.76867967E+00  0.55689843E+00
  0.49396191E+00  0.20891366E+00  0.50993555E+00
  0.19408635E+00  0.74018554E+00  0.99397160E+00
  0.51681327E+00  0.95554400E+00  0.62726065E+00
  0.22760330E+00  0.99916913E+00  0.25747552E+00
  0.69845948E+00  0.49248116E+00  0.75838158E+00
  0.24792776E+00  0.99175755E+00  0.76558272E+00
  0.71855055E+00  0.46522953E+00  0.25241557E+00
  0.18313382E+00  0.42870153E-02  0.17236297E-01
  0.70851199E+00  0.48656548E+00  0.48895226E+00
  0.26429246E+00  0.50592151E-02  0.51707371E+00
  0.70949816E+00  0.49449805E+00  0.99746554E+00
  0.74486915E+00  0.99680270E+00  0.74312644E+00
  0.23633404E+00  0.53033319E+00  0.24501810E+00
  0.20885801E+00  0.49585226E+00  0.74912819E+00
  0.71294979E+00  0.98487028E+00  0.25276772E+00
  0.19972971E+00  0.51292438E+00  0.49484780E+00
  0.68928204E+00  0.99238812E-03  0.76209283E-02
  0.75407113E+00  0.98538431E+00  0.50970683E+00
  0.20709540E+00  0.50003703E+00  0.99427955E+00
  0.98681149E+00  0.25481441E+00  0.39258806E+00
  0.42874304E+00  0.74494843E+00  0.87748305E+00
  0.49218537E+00  0.23230620E+00  0.63511115E+00
  0.96059960E+00  0.72985233E+00  0.14176322E+00
  0.98067780E+00  0.22942311E+00  0.87666634E+00
  0.45935865E+00  0.74779348E+00  0.38008108E+00
  0.97975937E+00  0.73381447E+00  0.62574990E+00
  0.46122722E+00  0.24815468E+00  0.12792220E+00
  0.94089481E-01  0.41373906E+00  0.42531220E-01
  0.65895025E+00  0.88980882E+00  0.55304853E+00
  0.61354827E+00  0.90607843E-01  0.94366266E+00
  0.82412065E-01  0.59740118E+00  0.44347133E+00
  0.31614390E+00  0.40663593E+00  0.94847527E+00
  0.84371559E+00  0.88797182E+00  0.45260070E+00
  0.81718533E+00  0.77457941E-01  0.50737629E-01
  0.29790261E+00  0.60751110E+00  0.54208026E+00
  0.80240918E+00  0.66205420E-01  0.18290939E+00
  0.32406092E+00  0.56528290E+00  0.70303496E+00
  0.83444199E+00  0.91068614E+00  0.30087407E+00
  0.27555357E+00  0.39130695E+00  0.80655870E+00
  0.14010587E+00  0.60685918E+00  0.29435563E+00
  0.65325580E+00  0.50403328E-01  0.80935332E+00
  0.14085867E+00  0.40201408E+00  0.20402880E+00
  0.63407418E+00  0.91319515E+00  0.69496586E+00
  0.79062218E+00  0.58798571E+00  0.94728428E+00
  0.33849980E+00  0.10530049E+00  0.45540852E+00
  0.82800239E+00  0.38269836E+00  0.55024005E+00
  0.29845862E+00  0.88937034E+00  0.56011918E-01
  0.14393894E+00  0.79654614E-01  0.55492153E+00
  0.62059619E+00  0.59230208E+00  0.51827502E-01
  0.10434170E+00  0.90621926E+00  0.96890435E+00
  0.60636366E+00  0.38524617E+00  0.44244899E+00