Na88 Ge16 P8 Se96                       
   1.00000000000000     
    13.9614333504000001    0.0000000000000000    0.0000000000000000
     0.0000000000000000   13.9614333504000001    0.0000000000000000
     0.0000000000000000    0.0000000000000000   27.9228667008000002
   Na   Ge   P    Se
    88    16     8    96
Direct
  0.1358645646381094  0.9888072326645543  0.1152751761622729
  0.5222316845994898  0.4945776280271471  0.4840141923179028
  0.5132366480000802  0.5043195547941859  0.8780183124344689
  0.9080439270664761  0.0117344569058785  0.3523809037983480
  0.2958175124407310  0.9838085905343384  0.8661857222434857
  0.0127177201053979  0.4617805885032880  0.3941928882725554
  0.9823137404046822  0.4650606089954734  0.1153814715135305
  0.2134141883511993  0.2783069318548546  0.2579311244858304
  0.7245238166200902  0.7538541099634247  0.6288677888033605
  0.7397249389685692  0.2525797070017583  0.8611635652673066
  0.7362639516162517  0.7393952676248124  0.3738966711118220
  0.2378865601928977  0.2498778667344668  0.8795261044987540
  0.6888523554610008  0.1535807470623429  0.1031595006043600
  0.2829046729578221  0.7737264150278949  0.5208276959854948
  0.0061905683326437  0.0432190248728936  0.7838004802351619
  0.2620305113055464  0.4969536847137792  0.3991849627284504
  0.2130788167253584  0.1578128929066910  0.6248757126835568
  0.9401939015204093  0.5042155484350468  0.6142484901482492
  0.5207488133303495  0.9248893953981949  0.1232039845562733
  0.9997813490308862  0.5644852696406729  0.8698436785057476
  0.6300282372258739  0.9035630332329594  0.4108104982429989
  0.2726872515983553  0.1870165091342963  0.3850708151688826
  0.7732666598425041  0.7783822132913485  0.8812850104816352
  0.7434357474885632  0.2380960444724192  0.6257767374817295
  0.2640410281027977  0.7393236989720777  0.1410128299123646
  0.2625706400971881  0.2686418386210206  0.7442315030083462
  0.8017851257093882  0.7460197744645357  0.0394369268350018
  0.7643555077613715  0.4447484242429785  0.3707866767643609
  0.5302335811380259  0.7127472986767467  0.4980346051303973
  0.5174085840059677  0.9700372969925527  0.9855313502130110
  0.0036702045072726  0.5078351758390823  0.5068131316870120
  0.4580871092568012  0.7500428211239871  0.7417919814255922
  0.9655536818533801  0.7204604625068999  0.2480754276017929
  0.4996020883434124  0.2560934523983570  0.7686189913829676
  0.0225764197094923  0.0058333834184166  0.0140454925398368
  0.5199580039109509  0.9953208469659313  0.5199199168429897
  0.5076679282352021  0.6979060170803846  0.0113094359502586
  0.4385795093437313  0.2715568711637891  0.2533861900406300
  0.9898343552449332  0.7460550580817755  0.7465181992439205
  0.4576425783179532  0.7429760246739933  0.2504884910164354
  0.0317912425409939  0.9637122248097110  0.2717397877919958
  0.4850022263397107  0.4842609304277872  0.7511211915906529
  0.4611021107195570  0.0491958150188435  0.7557933961899396
  0.9664089073027048  0.4766176687200737  0.2556805004718191
  0.3156931214951296  0.2389201519152233  0.0141656780421320
  0.7482025283094690  0.7071653418753927  0.4872354602385443
  0.0378708885687288  0.7280935416797979  0.5194011073290377
  0.7112984179884996  0.2679244225906828  0.0205799324113549
  0.0690634683141562  0.9893115782621004  0.6067200806668562
  0.5035837563750111  0.4900713145249962  0.1526614536721541
  0.9875278965332547  0.5354007162024147  0.7434602745700248
  0.5368803737197538  0.0110349726342919  0.2690240582221962
  0.2830454512461994  0.2763937425657577  0.5263096642021841
  0.0169639181438557  0.7612932803271442  0.9728870801808108
  0.7628715753683373  0.1894247637107870  0.5134163075788946
  0.2887780095317282  0.7306632089027164  0.9985825754671281
  0.9934821519617025  0.2614689424186162  0.0113736963954940
  0.5183643970467122  0.2435772026660382  0.4814668708156166
  0.4700871074666039  0.4504611948195314  0.0320257389951193
  0.0123689259969495  0.0264207552835991  0.4571993369864434
  0.5727883673739674  0.0285607422228117  0.8787137557765190
  0.9912139747469432  0.2836867794623493  0.4873857947068543
  0.9833962663639876  0.5080454205869200  0.0088109042439586
  0.4756138978268313  0.0154986116251475  0.6322668584199898
  0.9423406986507619  0.2067317167090715  0.2514358983739528
  0.7364542154158481  0.7642946996367123  0.7591978183385679
  0.2333116317796415  0.7340746566994655  0.2635059907541229
  0.7597606380922839  0.2616628124990912  0.7560637908525376
  0.7341889410653315  0.7409705584949974  0.2484041597867468
  0.0262034837605049  0.2723142252779931  0.7382235672908135
  0.7199280758751511  0.2273626621475475  0.2245985128240741
  0.2174015983033410  0.7979484989023626  0.7330264424269521
  0.2396116080741220  0.4977370681058408  0.1290587826102476
  0.7258090254723193  0.9970389355196556  0.6158478905564153
  0.8783198418695495  0.0730147065029623  0.8968469242787798
  0.2241386369628957  0.7633234442351524  0.3892559406528456
  0.2182877239047818  0.5051273167205962  0.8723512655725094
  0.7085629988654071  0.2297009082932033  0.3612898115301322
  0.8465913063578110  0.9822746099397687  0.1087445574011319
  0.2238811018058213  0.6393095408473023  0.6202636154032376
  0.7633939895077200  0.5205761834816848  0.8837343324190829
  0.3824007789211950  0.9437529295325154  0.3536355128748420
  0.5255465297959170  0.5548633415071003  0.6238358202837218
  0.3337817752856807  0.1110142232720389  0.1356793596474063
  0.3239279033453110  0.4177564374898964  0.6412999013078270
  0.7460748385254143  0.5209167880942847  0.1252587077619501
  0.2313563170214043  0.7391625808200345  0.8731490738226009
  0.4888373047122230  0.5329608651804130  0.2780663365716032
  0.2851854742398549  0.9982217947338295  0.2441034767184294
  0.7381799393017362  0.5165359192437586  0.7528391174600747
  0.2336641523209141  0.0153634833597445  0.7545058396496716
  0.7349202706746989  0.4953532189198365  0.2450752321347693
  0.2716891179736226  0.9829452255875224  0.9993619279809787
  0.7741799146874794  0.4495322137172669  0.5078105659557942
  0.2662724377859233  0.0296483890678216  0.4962469888008259
  0.7261277164838620  0.5052060645586623  0.0073114203679998
  0.7207817956993674  0.0024623787729927  0.7467879138711656
  0.2275447918101693  0.5032476480351681  0.2585934591996408
  0.2530151370639676  0.5106423158118509  0.7508467898976092
  0.7754253500232797  0.9915466178141554  0.2517911926591761
  0.2520285541007237  0.5172054151789564  0.5123340209527882
  0.7727426395347140  0.0115823868768657  0.9944064539236800
  0.7808973616250209  0.9456383644250810  0.4927836865647348
  0.2312636020250206  0.4739765433534303  0.9936027477357411
  0.9834160181708809  0.2364973830513298  0.3731602272843869
  0.4952466987013001  0.7537930200109902  0.8745064395075909
  0.5053971251713046  0.2740816377065804  0.6285946668611460
  0.0068371925298072  0.7309488825919230  0.1231127442273545
  0.9951052970841773  0.2748828017655657  0.8784609470913139
  0.4934116770650175  0.7369830596035208  0.3799299432329735
  0.9821042359444050  0.7479277486347334  0.6237488296956437
  0.5069374119331278  0.2507485949088568  0.1327680241777957
  0.1587109407189924  0.3767753653360864  0.0570378285020897
  0.6557051205448065  0.8605407880150793  0.5395297581368445
  0.6897429389136389  0.1199641677629367  0.9403412784451539
  0.1560003794071469  0.6097759181263566  0.4508548568003709
  0.3345589943223973  0.3849993706726696  0.9410752983446660
  0.8655604773526322  0.8773977541900337  0.4341349485827775
  0.8688223152492340  0.1192864661648144  0.0361383049200369
  0.3731719914970337  0.6114395283198439  0.5504538580548987
  0.8494688009951229  0.0792876855691118  0.1932117186816263
  0.3520233090980470  0.5892643062265155  0.6944762413574534
  0.8597552361962024  0.8657124017841176  0.2977573737826274
  0.3337849142112452  0.4154388129639887  0.8030954512521415
  0.1256992958317987  0.5903243654665030  0.3220774765493483
  0.6158314082004361  0.1204932256753478  0.7929309528986381
  0.1366411627839859  0.4334471981185188  0.2021053202400626
  0.6106254360278915  0.9223460200098119  0.7068977656862006
  0.8018273040032953  0.6240292813153107  0.9553954374033571
  0.3933459036068073  0.1156645977724347  0.4540216966956064
  0.8613119924345829  0.3389819059809084  0.5514148003933669
  0.3759498200148487  0.8824079252009887  0.0475505505193642
  0.1378582125811398  0.1340629501499253  0.5363092615668554
  0.6509162513312760  0.6227228700366805  0.0664134456284785
  0.1595803413474809  0.8866346457091991  0.9523114240718407
  0.6806887477197312  0.3626349609269446  0.4482612594776029
  0.6439105063100211  0.3739192271292726  0.2832213000578607
  0.1602164752180389  0.9111718524245169  0.8050031736664104
  0.1237028009104758  0.1132390822486571  0.7180917238290216
  0.6299599411146402  0.5904218318151218  0.1995673116890765
  0.8499325478205794  0.4073735926185298  0.7110197627656663
  0.3491485562690512  0.9038923729538920  0.1852858489358254
  0.3804617620149098  0.1023170387983532  0.2895868059683118
  0.8405541144898645  0.6158005687141345  0.7967430578687166
  0.1888207714842510  0.0996612774120954  0.0484965292186435
  0.6808257803225242  0.5563715377338452  0.5519367197263628
  0.6148024540696718  0.4009386460495139  0.9687223014301999
  0.1742670862761498  0.9204304490243223  0.4569208889001366
  0.3730067854690143  0.0806532674176031  0.9462671528796007
  0.8612117497037852  0.5581981456825286  0.4474004930790617
  0.8431378189561664  0.4145749078475863  0.0520843483227384
  0.3372685532793650  0.9546140980098783  0.5609034908886644
  0.1680254386942243  0.0926239048122441  0.2111451796466548
  0.6415116404809235  0.6395260639125283  0.7141581092909961
  0.2180996020532746  0.9186047240217469  0.3141630700485007
  0.6384835326613978  0.4254237563804414  0.8016836692964663
  0.8229821929571667  0.5704152111620293  0.3056865679119853
  0.3240322301232082  0.1301647971139790  0.8028253996840988
  0.8334000325140689  0.3872112700469119  0.1908660150588101
  0.3351642520358593  0.9320541308299053  0.6886128632525526
  0.8739620457177624  0.9125709947563495  0.9494699642780817
  0.3351505357414492  0.3895625408961290  0.4659913218452943
  0.8980314823470932  0.0212162274658278  0.5423292227210377
  0.3271944536344938  0.5714494179794970  0.0380250369931318
  0.1417751732427869  0.4341928535548217  0.5704377604644756
  0.6859983714951292  0.9312336724369739  0.0492200359305071
  0.1277013355760566  0.5803569351441173  0.9442009211845264
  0.6738876257162152  0.0661681669608063  0.4693003766301098
  0.3352389054585898  0.4076085519975016  0.3059387582102349
  0.8262297386940270  0.9367857369546707  0.8050869998178536
  0.8240359994290041  0.0993668759317567  0.6932533080064146
  0.3382464716050301  0.6021245445883562  0.2047119002926066
  0.1382921721150279  0.4295339914925901  0.7025845898443257
  0.6665334309903467  0.9008690632016901  0.2071948310046408
  0.7222600933799748  0.0832183387104542  0.3179840471490087
  0.1535605925721905  0.6430751274480586  0.7919796390148750
  0.0746281934826303  0.1170510172169963  0.3351265680700540
  0.5775581916180207  0.6562161689292101  0.8322759572898981
  0.6015546023732102  0.2965916386838185  0.6857350087550035
  0.0927049900874537  0.8215231805940997  0.1847087223492153
  0.3727755314174425  0.2116937769484820  0.6603583894032585
  0.8732942862990821  0.6694809277974274  0.1600664757786749
  0.9211573578654764  0.3544068582154829  0.3319708941541543
  0.4308601747968899  0.8595099992831192  0.8221453528229286
  0.0695304513442348  0.1558494860807752  0.9164343894509390
  0.5912914455524970  0.6357920978295398  0.4086958025221175
  0.1296258757972714  0.7922840414546756  0.5900082988935791
  0.4878133543561320  0.1741395161949609  0.0633661235211214
  0.8875912592546842  0.6586381499977061  0.5737395813012618
  0.3740617452236765  0.3213620782869084  0.1548915294343377
  0.8846474821389732  0.3559667072080309  0.9289155477970782
  0.4409598964087813  0.8317555610807968  0.4385486798377729
  0.9148497784593346  0.8710739550214942  0.6700207018734398
  0.6209755617346260  0.3570495135929035  0.1117437526752420
  0.9161446244008460  0.2027948083016018  0.8161988321892844
  0.3715286796007697  0.6653747391061819  0.3452119281745556
  0.0940266242102270  0.3625380429847486  0.8321424826754593
  0.5722502955234232  0.8161761025650600  0.3186877144454844
  0.0506919037287416  0.6348119589387659  0.6682470747268453
  0.5542884963098578  0.1562435127520000  0.1902888491852373
  0.4435971847558095  0.3762576646058848  0.5763500374133450
  0.9778469168669294  0.8371652154157404  0.0591846212138081
  0.8546980662720117  0.1658357272149764  0.4142505260637038
  0.3984939771745696  0.6512001214750154  0.9180557341359956
  0.1054310396347392  0.3070671000435982  0.4090366148831279
  0.5914017515342268  0.8369488234969614  0.9233611831564013
  0.5855208995275439  0.1544767130937545  0.5785619872417875
  0.0972862495438676  0.6157293434834759  0.0909745566413982
 
  0.17818955E-02 -0.17765658E-01  0.16003116E-02
  0.51523006E-04 -0.80825829E-02 -0.34260959E-02
 -0.25785647E-02  0.10445813E-01  0.29687955E-02
  0.33849772E-02  0.35141571E-02 -0.17253096E-02
 -0.16486443E-02  0.91680045E-02  0.42338218E-02
  0.36978303E-02 -0.61258944E-03 -0.79467679E-03
 -0.38001998E-02 -0.11854946E-02  0.99277627E-02
 -0.42460365E-02  0.39621719E-02  0.52000518E-02
  0.11638579E-01  0.23474340E-02  0.52865077E-02
  0.10334479E-01 -0.97227599E-02  0.66056231E-03
 -0.63283847E-02 -0.15739818E-02 -0.32571172E-02
  0.11583255E-02 -0.36100912E-02 -0.24515621E-02
 -0.79957584E-02  0.19578229E-02 -0.77581397E-02
 -0.43827223E-02  0.19588689E-02 -0.73348573E-02
  0.71422184E-02  0.10531613E-01  0.19249418E-03
  0.44824529E-02 -0.27399343E-02 -0.50352642E-02
 -0.15477560E-02 -0.66717338E-02  0.13255577E-01
 -0.57584761E-02  0.10842068E-02 -0.65332752E-03
 -0.39566646E-02  0.26915192E-02 -0.57570798E-02
  0.11192624E-01  0.25962701E-03  0.12239700E-01
 -0.18993439E-02  0.43743248E-02  0.66205154E-02
  0.12820156E-02 -0.26462337E-02 -0.26370161E-02
  0.10286857E-02  0.69472310E-02  0.50916044E-02
  0.77903327E-02 -0.11471177E-03  0.51418487E-02
 -0.10432628E-01 -0.84903057E-02 -0.57230378E-04
  0.10884298E-02 -0.80208199E-02  0.43984495E-02
  0.44060510E-02 -0.26828480E-03  0.44120048E-02
  0.55019087E-02 -0.19683447E-02  0.15349506E-02
  0.12643024E-02 -0.75069718E-02 -0.16196927E-02
 -0.17277323E-02  0.10725483E-01  0.31063017E-02
 -0.67646459E-02 -0.36361990E-02  0.11350977E-01
  0.60858178E-02  0.77219171E-02 -0.59447438E-04
  0.35650494E-02 -0.85509496E-03 -0.74506741E-02
 -0.22882367E-02 -0.18944876E-04  0.17563974E-02
 -0.23641792E-03 -0.23223892E-02 -0.79488106E-02
  0.11864490E-01 -0.29415501E-02 -0.49565167E-02
  0.76353066E-02 -0.16139827E-02  0.33262340E-02
  0.24133339E-02 -0.27746022E-02  0.19077094E-03
  0.61961954E-02 -0.86894711E-02  0.50920579E-02
 -0.11130212E-01 -0.59590854E-02  0.43661240E-02
 -0.49626815E-02 -0.64115577E-02  0.37539410E-02
  0.21563128E-02  0.95461284E-02  0.74293457E-03
  0.75852633E-02 -0.58800001E-02 -0.82916704E-02
 -0.15363986E-02 -0.59759744E-04 -0.53766757E-02
 -0.66183924E-02  0.49062038E-02  0.38485648E-02
  0.32053936E-03  0.48469863E-02 -0.14757240E-01
 -0.25330785E-02  0.34996093E-02 -0.42040939E-02
  0.86456187E-03 -0.27948492E-03 -0.50497786E-02
 -0.38650866E-03  0.76850719E-02 -0.70751712E-02
  0.24403219E-02  0.17858265E-02  0.35532653E-02
 -0.42777300E-02 -0.51402389E-02 -0.43031417E-02
 -0.30514219E-02 -0.87599842E-02  0.74102744E-05
  0.34784043E-02  0.12103872E-02  0.66050264E-02
  0.11816680E-01 -0.43649845E-02 -0.11956442E-01
  0.42307421E-03  0.25273776E-02  0.52507357E-02
 -0.20016492E-03  0.26291023E-02 -0.56521555E-03
 -0.60200451E-02 -0.42503020E-03 -0.22016148E-02
 -0.16866134E-02 -0.16396671E-02  0.36158125E-02
 -0.34916179E-02  0.77442765E-02 -0.96814877E-02
 -0.67942644E-02 -0.70965201E-02 -0.74129392E-03
  0.56999576E-02 -0.65799879E-02 -0.40662508E-02
  0.65852040E-02 -0.43635357E-02  0.31372410E-02
  0.48284194E-02  0.59736493E-03  0.20562109E-02
 -0.39521716E-02  0.66222026E-02  0.13827387E-02
  0.27586735E-02 -0.37814228E-02  0.54797615E-02
  0.16536535E-02 -0.10353480E-02 -0.25099283E-02
  0.75823281E-02 -0.34423691E-03  0.41064101E-02
 -0.23040192E-02 -0.76357149E-03 -0.17066542E-02
  0.12836087E-02 -0.95362664E-02  0.11740879E-02
 -0.45057541E-02 -0.11111221E-01  0.26237603E-03
 -0.76275500E-02 -0.36565051E-02 -0.14672810E-02
  0.15161821E-02  0.20890248E-02  0.13822192E-01
  0.11082637E-02  0.87504729E-02  0.27743502E-02
 -0.51872898E-02 -0.49247551E-02  0.93251854E-03
 -0.64030873E-02  0.36677914E-02  0.69820236E-02
  0.22848174E-02 -0.29695278E-02  0.76054779E-02
  0.41516705E-02  0.57598694E-02 -0.55693189E-02
 -0.58276138E-03  0.53519663E-02  0.39487855E-02
  0.91610291E-02 -0.81200480E-03  0.70970698E-02
 -0.29536531E-02 -0.54610550E-02  0.70443400E-03
  0.99849977E-03  0.10510085E-01 -0.41087881E-02
 -0.43124807E-02  0.26628909E-02 -0.17663428E-02
 -0.16368089E-01 -0.84113256E-02  0.16713422E-02
  0.69207000E-02  0.98566591E-02  0.68320281E-04
  0.40472056E-02 -0.64360003E-02  0.73949232E-02
  0.30928532E-02 -0.27474833E-02  0.18392162E-02
 -0.44814991E-02  0.12870664E-02  0.13841285E-01
 -0.19538548E-02 -0.18184996E-03  0.51916479E-03
  0.15042879E-02  0.11950411E-02  0.62982386E-02
 -0.14497971E-02 -0.29847011E-02 -0.56823751E-02
 -0.20601153E-02  0.90002792E-03 -0.24602022E-02
  0.20437968E-02 -0.49194764E-02  0.35606674E-02
  0.47630688E-02 -0.74113610E-02  0.50874214E-03
  0.61635894E-03  0.38305961E-02  0.27201106E-02
  0.38258110E-03 -0.47506593E-02  0.10610757E-02
  0.15129104E-02  0.25952324E-02 -0.40233976E-02
 -0.35456701E-03 -0.57821273E-03 -0.28974737E-02
 -0.76619930E-03 -0.18177508E-02 -0.32141380E-03
 -0.32711615E-02  0.21517234E-02 -0.59561068E-02
 -0.16390141E-02 -0.10593004E-03  0.43848135E-02
 -0.38992395E-02  0.44678863E-02 -0.79771196E-03
 -0.37272281E-03  0.27956420E-02 -0.33845477E-03
 -0.37930923E-02  0.17020006E-02 -0.47299953E-02
 -0.65299904E-02 -0.41649406E-02  0.56639310E-03
  0.55024452E-02 -0.46552691E-02 -0.32767158E-02
  0.24969871E-02  0.34728775E-02 -0.40215775E-02
  0.28729663E-02 -0.81200644E-02 -0.18709545E-02
  0.84652752E-02  0.65798130E-02  0.33917458E-02
  0.24634357E-02 -0.38960584E-03 -0.46462802E-03
 -0.43033403E-02  0.88161657E-02  0.20023897E-02
  0.77376443E-02 -0.65533719E-02  0.78183532E-02
 -0.36710034E-02  0.32989372E-02  0.26945697E-02
  0.62590495E-02  0.16306438E-02  0.15844573E-02
  0.94212277E-03  0.25654093E-02  0.14203562E-03
  0.12454840E-02  0.69648774E-02  0.59038193E-03
  0.35860173E-02 -0.11216964E-02 -0.44837925E-03
 -0.17977375E-02 -0.14335258E-03  0.29277108E-02
  0.15760019E-02  0.96789466E-03 -0.84633158E-03
  0.18868351E-02  0.23709584E-02 -0.14792957E-02
  0.61368037E-03  0.75768532E-03 -0.62356867E-02
  0.67757822E-02  0.66649519E-02  0.65687863E-02
  0.34594492E-02  0.20893478E-02 -0.84738018E-03
 -0.30810812E-02  0.38716690E-02  0.12719507E-02
 -0.18173751E-02  0.73273551E-03 -0.36773894E-02
 -0.40450238E-02 -0.62412217E-04 -0.11483033E-02
 -0.72416161E-04  0.86454478E-04 -0.24959411E-02
 -0.29295856E-02 -0.20126551E-02 -0.61287711E-03
 -0.49351667E-03 -0.26250410E-02 -0.10512005E-02
  0.37443377E-02 -0.38885954E-02  0.21451401E-02
 -0.38056036E-02  0.82757391E-03 -0.27811689E-02
  0.34022247E-02 -0.94202659E-03  0.54310749E-02
 -0.67612697E-03 -0.49110157E-02 -0.24521289E-03
  0.42126278E-02  0.26410249E-02  0.19140908E-02
 -0.15896536E-02 -0.37890402E-03 -0.30588988E-02
 -0.50318534E-02 -0.58670282E-02  0.44740915E-02
  0.96010746E-03 -0.57198393E-03 -0.67186472E-02
  0.40828330E-03  0.48066688E-02  0.72793194E-03
  0.16112279E-02 -0.27472763E-02 -0.64500097E-03
  0.33333930E-03  0.10879290E-02  0.40756219E-02
  0.19608625E-02 -0.17005317E-02 -0.44037178E-02
  0.19906562E-02  0.71026626E-03  0.36883444E-02
  0.73989221E-02  0.56041319E-03  0.21297525E-02
 -0.25929959E-04 -0.30497404E-03 -0.64041865E-02
 -0.42533266E-02  0.32637873E-02 -0.97400631E-04
  0.11159490E-02 -0.28458137E-02  0.17268596E-02
 -0.16085229E-02 -0.54702832E-03  0.25445762E-02
  0.42714570E-02  0.37660443E-02 -0.46311840E-02
  0.49977368E-03  0.29748767E-02 -0.28577204E-03
 -0.11379943E-02  0.32966384E-02  0.33708144E-03
 -0.27635527E-02 -0.47813634E-03  0.45147148E-02
 -0.66843079E-04 -0.24168609E-02 -0.35370306E-02
  0.44724796E-03 -0.62404108E-03 -0.27976355E-02
  0.34549317E-02 -0.98728996E-03 -0.15750283E-03
 -0.13947667E-02  0.99127268E-03 -0.18291770E-02
 -0.27152793E-02 -0.42901126E-02 -0.30791642E-02
 -0.18547514E-02  0.60893049E-03 -0.34415706E-02
 -0.11498787E-01  0.13786906E-02 -0.23455306E-05
 -0.16751803E-02  0.53240776E-02 -0.55126568E-02
 -0.10931041E-02  0.25746781E-02 -0.49714223E-03
  0.17300575E-02  0.85575838E-03  0.20759094E-02
 -0.21558989E-02  0.12510380E-02 -0.45454381E-02
  0.52429499E-02  0.87273993E-03 -0.19632124E-02
 -0.30960959E-03  0.16306141E-02  0.24047831E-02
 -0.62338669E-02  0.42678194E-02  0.27126023E-02
  0.13620524E-02  0.39426931E-03 -0.32001855E-02
 -0.59191289E-03 -0.32404138E-02 -0.10073341E-02
 -0.39933331E-03  0.12313994E-02  0.26278398E-02
 -0.13176881E-03  0.30466868E-03  0.25483081E-02
  0.18739321E-02 -0.26337971E-04 -0.12521154E-03
  0.16054957E-02  0.42798384E-02  0.90228539E-03
  0.34164323E-02  0.65348338E-03  0.21581616E-02
 -0.18800682E-02  0.52010899E-04 -0.73336820E-02
 -0.62668577E-02 -0.24583866E-02 -0.62702077E-02
 -0.40610786E-02 -0.20918746E-02  0.15742819E-02
 -0.19858059E-02 -0.12222638E-02  0.20444128E-02
 -0.56373492E-02 -0.33056526E-02  0.33964497E-03
  0.28692522E-03  0.15631057E-02 -0.41403578E-02
 -0.25429718E-02 -0.29355704E-02 -0.22031260E-02
 -0.36845014E-02  0.21112474E-02 -0.36631642E-02
 -0.14571338E-02 -0.74237419E-03  0.87752695E-03
  0.99950162E-03 -0.25862331E-02 -0.73054749E-03
  0.54728151E-03 -0.22224702E-02  0.46649813E-02
 -0.38434532E-02 -0.71122215E-02  0.22074919E-04
 -0.10759323E-02  0.17297757E-02  0.18507752E-02
  0.25553060E-02  0.34495896E-02  0.23176869E-02
 -0.71087059E-03 -0.48319747E-02  0.59804333E-03
 -0.41137896E-02  0.14639843E-02  0.10606597E-03
  0.55557303E-02  0.12948164E-02 -0.44384310E-02
  0.35694453E-02  0.12635315E-02  0.82560610E-03
 -0.51811660E-02  0.33285060E-03  0.53204487E-02
 -0.32668653E-03 -0.19862996E-02  0.19105850E-02
 -0.13012982E-02  0.18772577E-02  0.21165872E-02
  0.23299262E-02 -0.57042286E-03  0.13197711E-02
 -0.15036318E-02 -0.10215669E-03 -0.23872931E-02
  0.80602458E-03  0.14242621E-02  0.23094328E-02
  0.11932121E-02 -0.26389681E-02 -0.48963569E-03
  0.73911082E-02  0.66606206E-03  0.63963739E-02
  0.13595733E-03  0.39920797E-02  0.26382000E-02
  0.39135570E-02 -0.33258878E-02  0.34982177E-02
  0.37251385E-02  0.18519850E-02 -0.13102788E-02
 -0.35789230E-03 -0.10373380E-02  0.51433268E-03
 -0.32609515E-02  0.48639465E-03 -0.31374722E-02
  0.32986447E-02 -0.16444650E-02  0.12130161E-02
  0.41132841E-02 -0.86343973E-03  0.15938921E-02
  0.77409081E-04  0.23267965E-02 -0.35854174E-02
 -0.18162246E-02  0.11033890E-02  0.34406462E-03
 -0.61397040E-02 -0.38075367E-02  0.12273115E-02
 -0.99455055E-04 -0.31115385E-03 -0.30979606E-02
 
           1
   2.00000000000000     
  0.55759505E+00  0.75349982E-03  0.00000000E+00  0.00000000E+00
  0.13611982E+00  0.98626227E+00  0.11538980E+00
  0.52223907E+00  0.49341978E+00  0.48376880E+00
  0.51286726E+00  0.50581594E+00  0.87823096E+00
  0.90852883E+00  0.12237866E-01  0.35225733E+00
  0.29558134E+00  0.98512192E+00  0.86648897E+00
  0.13247441E-01  0.46169283E+00  0.39413597E+00
  0.98176936E+00  0.46489078E+00  0.11609256E+00
  0.21280594E+00  0.27887452E+00  0.25830358E+00
  0.72619106E+00  0.75419038E+00  0.62924644E+00
  0.74120537E+00  0.25118690E+00  0.86121088E+00
  0.73535740E+00  0.73916979E+00  0.37366338E+00
  0.23805249E+00  0.24936071E+00  0.87935051E+00
  0.68770695E+00  0.15386121E+00  0.10260382E+00
  0.28227684E+00  0.77400703E+00  0.52030233E+00
  0.72137037E-02  0.44727697E-01  0.78381427E+00
  0.26267263E+00  0.49656118E+00  0.39882431E+00
  0.21285710E+00  0.15685716E+00  0.62582516E+00
  0.93936899E+00  0.50437086E+00  0.61420169E+00
  0.52018201E+00  0.92527496E+00  0.12279163E+00
  0.13847122E-02  0.56452246E+00  0.87072036E+00
  0.62975615E+00  0.90418966E+00  0.41128470E+00
  0.27287090E+00  0.18663743E+00  0.38488194E+00
  0.77341402E+00  0.77937742E+00  0.88164970E+00
  0.74455173E+00  0.23807961E+00  0.62614503E+00
  0.26254654E+00  0.73810745E+00  0.14100873E+00
  0.26272656E+00  0.26749284E+00  0.74454655E+00
  0.80241630E+00  0.74598134E+00  0.39752941E-01
  0.76514367E+00  0.44446646E+00  0.37089662E+00
  0.53041469E+00  0.71167191E+00  0.49791859E+00
  0.51716108E+00  0.97157374E+00  0.98575384E+00
  0.27011570E-02  0.50731428E+00  0.50762616E+00
  0.45895891E+00  0.75114900E+00  0.74178772E+00
  0.96606438E+00  0.72033797E+00  0.24754177E+00
  0.49927429E+00  0.25609074E+00  0.76874479E+00
  0.22542552E-01  0.55006971E-02  0.13476152E-01
  0.52165761E+00  0.99489946E+00  0.51956490E+00
  0.50876170E+00  0.69767481E+00  0.11547680E-01
  0.43892522E+00  0.27115940E+00  0.25339985E+00
  0.99072197E+00  0.74481028E+00  0.74688292E+00
  0.45604816E+00  0.74212238E+00  0.25080122E+00
  0.31080330E-01  0.96279376E+00  0.27200867E+00
  0.48531112E+00  0.48562843E+00  0.75117440E+00
  0.46218871E+00  0.48353495E-01  0.75519950E+00
  0.96618882E+00  0.47660911E+00  0.25529539E+00
  0.31474503E+00  0.23962297E+00  0.14441335E-01
  0.74824845E+00  0.70785968E+00  0.48617846E+00
  0.37508021E-01  0.72859487E+00  0.51909999E+00
  0.71142227E+00  0.26788439E+00  0.20218238E-01
  0.69008100E-01  0.99041248E+00  0.60621332E+00
  0.50393334E+00  0.49032714E+00  0.15291596E+00
  0.98691510E+00  0.53466437E+00  0.74315206E+00
  0.53644325E+00  0.97800894E-02  0.26902459E+00
  0.28354374E+00  0.27656713E+00  0.52678276E+00
  0.18656678E-01  0.76066799E+00  0.97203069E+00
  0.76293218E+00  0.18978682E+00  0.51379240E+00
  0.28874934E+00  0.73103983E+00  0.99854209E+00
  0.99261977E+00  0.26140806E+00  0.11216004E-01
  0.51812279E+00  0.24334232E+00  0.48172586E+00
  0.46958693E+00  0.45157058E+00  0.31332294E-01
  0.11395636E-01  0.25404166E-01  0.45714624E+00
  0.57360490E+00  0.27618147E-01  0.87842251E+00
  0.99215732E+00  0.28306170E+00  0.48761050E+00
  0.98408795E+00  0.50813099E+00  0.89581822E-02
  0.47504774E+00  0.16447254E-01  0.63236590E+00
  0.94273588E+00  0.20619002E+00  0.25182839E+00
  0.73669110E+00  0.76414638E+00  0.75901804E+00
  0.23439781E+00  0.73402534E+00  0.26380012E+00
  0.75943058E+00  0.26155343E+00  0.75594155E+00
  0.73437282E+00  0.73960447E+00  0.24848825E+00
  0.25558027E-01  0.27072252E+00  0.73824236E+00
  0.71883542E+00  0.22683886E+00  0.22449342E+00
  0.21761879E+00  0.79824776E+00  0.73401647E+00
  0.23977037E+00  0.49899059E+00  0.12925750E+00
  0.72506594E+00  0.99633346E+00  0.61591468E+00
  0.87740259E+00  0.73540124E-01  0.89734702E+00
  0.22446594E+00  0.76289805E+00  0.38980069E+00
  0.21888246E+00  0.50595243E+00  0.87195236E+00
  0.70847952E+00  0.23046759E+00  0.36157265E+00
  0.84790364E+00  0.98215829E+00  0.10925289E+00
  0.22345799E+00  0.63852724E+00  0.62031407E+00
  0.76353703E+00  0.52208177E+00  0.88344004E+00
  0.38178301E+00  0.94413439E+00  0.35350900E+00
  0.52320177E+00  0.55365840E+00  0.62395553E+00
  0.33477318E+00  0.11242621E+00  0.13568425E+00
  0.32450767E+00  0.41683447E+00  0.64182957E+00
  0.74651790E+00  0.52052321E+00  0.12539044E+00
  0.23071433E+00  0.73934696E+00  0.87414047E+00
  0.48855741E+00  0.53293481E+00  0.27810352E+00
  0.28540097E+00  0.99839299E+00  0.24455459E+00
  0.73797225E+00  0.51610836E+00  0.75243211E+00
  0.23336904E+00  0.15492414E-01  0.75432963E+00
  0.73521305E+00  0.49464850E+00  0.24533027E+00
  0.27237144E+00  0.98188354E+00  0.99939837E+00
  0.77426821E+00  0.45008095E+00  0.50800540E+00
  0.26632724E+00  0.28967849E-01  0.49632299E+00
  0.72634444E+00  0.50557784E+00  0.70232410E-02
  0.72073100E+00  0.23795488E-02  0.74658038E+00
  0.22743503E+00  0.50298725E+00  0.25857044E+00
  0.25254654E+00  0.51095055E+00  0.75042018E+00
  0.77519056E+00  0.99153144E+00  0.25210526E+00
  0.25146998E+00  0.51784545E+00  0.51227688E+00
  0.77268925E+00  0.11982868E-01  0.99438221E+00
  0.78035399E+00  0.94588218E+00  0.49244490E+00
  0.23032817E+00  0.47337991E+00  0.99364332E+00
  0.98420425E+00  0.23583051E+00  0.37292553E+00
  0.49560440E+00  0.75429052E+00  0.87421839E+00
  0.50580868E+00  0.27291842E+00  0.62846066E+00
  0.80498582E-02  0.73189145E+00  0.12335568E+00
  0.99545819E+00  0.27482699E+00  0.87842767E+00
  0.49279522E+00  0.73824599E+00  0.38007337E+00
  0.98321267E+00  0.74698897E+00  0.62430883E+00
  0.50641153E+00  0.25122117E+00  0.13296103E+00
  0.15960756E+00  0.37700896E+00  0.57151317E-01
  0.65584008E+00  0.86090829E+00  0.53953993E+00
  0.68992136E+00  0.12096190E+00  0.94038357E+00
  0.15651408E+00  0.60961523E+00  0.45082274E+00
  0.33430147E+00  0.38497884E+00  0.94128500E+00
  0.86578624E+00  0.87753641E+00  0.43407433E+00
  0.86909261E+00  0.11962611E+00  0.36032349E-01
  0.37325990E+00  0.61154807E+00  0.55000722E+00
  0.85043944E+00  0.80242452E-01  0.19368221E+00
  0.35251888E+00  0.58956361E+00  0.69441555E+00
  0.85931387E+00  0.86626703E+00  0.29784848E+00
  0.33352457E+00  0.41554378E+00  0.80283205E+00
  0.12511984E+00  0.59031542E+00  0.32199523E+00
  0.61582103E+00  0.12050561E+00  0.79275218E+00
  0.13622149E+00  0.43315888E+00  0.20206142E+00
  0.61055474E+00  0.92196998E+00  0.70682247E+00
  0.80236369E+00  0.62347223E+00  0.95554908E+00
  0.39280074E+00  0.11578315E+00  0.45382249E+00
  0.86179937E+00  0.33884696E+00  0.55180381E+00
  0.37585296E+00  0.88170441E+00  0.47532987E-01
  0.13846168E+00  0.13444128E+00  0.53644636E+00
  0.65068853E+00  0.62266859E+00  0.66194349E-01
  0.15885952E+00  0.88579418E+00  0.95263188E+00
  0.68082628E+00  0.36255302E+00  0.44778003E+00