Na88 Sn16 P8 S96                        
   1.00000000000000     
    13.4813327813000008    0.0000000000000000    0.0000000000000000
     0.0000000000000000   13.4813327813000008    0.0000000000000000
     0.0000000000000000    0.0000000000000000   26.9626655626000016
   Na   Sn   P    S 
    88    16     8    96
Direct
  0.9833218552731808  0.0099548570876730  0.1377965743134038
  0.5096235136202506  0.5407951033050690  0.6239101853137633
  0.5341708053330010  0.5237077628661079  0.7541167280556262
  0.0225069052642724  0.9413068538562881  0.3779143126088301
  0.2285053568088313  0.9846470750650587  0.8756232236685570
  0.9810346108070394  0.5104933216131575  0.3782819816663444
  0.0118908979518733  0.4690295756109868  0.1245372500046305
  0.2557147054728346  0.2189096137950886  0.2589904739874559
  0.7687511046602402  0.0002416379048353  0.6361779733236389
  0.7637984961728741  0.2528986602361697  0.8702017676608091
  0.7606000922460520  0.7365796563453773  0.3668303202798356
  0.2530895817092809  0.2077819302098890  0.8712710183214267
  0.7263304930167773  0.0284270912561935  0.1262585796356105
  0.2762172894441304  0.7502021383893692  0.6189434418883351
  0.9943146286842224  0.9840898989525700  0.8734740263293520
  0.2737797359986276  0.4942592631483833  0.3704165905530388
  0.9964596070608818  0.9979044200919996  0.7356692036647879
  0.0134793770948696  0.4804332922224643  0.6381010947864882
  0.2932321502749313  0.9935760850166140  0.1187922418156824
  0.9935533052044173  0.5518664938627319  0.8699358777423218
  0.5380163947126153  0.0415853118300919  0.3733061043163761
  0.2484852389781435  0.2550384997147973  0.3796003227700197
  0.7924199755528664  0.7701476349214251  0.8659869243898333
  0.7755946598704753  0.5227751608718796  0.6092063239678860
  0.2487125514465239  0.7452715188964766  0.0071412213773864
  0.2537100474429395  0.2085742000930650  0.6216225889727992
  0.7333460865691186  0.4856118958376179  0.1313025950413391
  0.7073029366475243  0.2688030053613119  0.3558658887800997
  0.2372401911003866  0.7752619955616890  0.5060553879943100
  0.5248385364410773  0.2717899262229481  0.9839816889222273
  0.0038649523201821  0.5237550245197841  0.5002970502164389
  0.4893244587970271  0.0403423585651409  0.7476459435150692
  0.0244477267993006  0.7395153283000310  0.2664333073702679
  0.5843332170837118  0.2916728357747035  0.7614485758177001
  0.9996259658147807  0.9975074106184794  0.0020026795798536
  0.5208398399075410  0.2935413295946463  0.4946892694652030
  0.5176752755517071  0.7571887209048697  0.0196880937463100
  0.4929680184032272  0.2617647379332484  0.2532955722633598
  0.0017039869067398  0.7345193543027785  0.7533613471940389
  0.5403142903926884  0.7792276736270202  0.2275143377381157
  0.0290300961322745  0.9716680307380271  0.2574048392708332
  0.5168544826556545  0.7356326411143431  0.7336903573231581
  0.4919762973209276  0.0169610799921899  0.8753598409456861
  0.9834728821382456  0.4477540159786539  0.2675922948299113
  0.2562218160137414  0.2525107374382824  0.0171455995632429
  0.7319969927566465  0.7295580113288628  0.4856212394654058
  0.0239563576303674  0.7501316834440586  0.4966375398950887
  0.7524949712230599  0.2848477225434804  0.0122155453060432
  0.9777936235126696  0.2257592639693923  0.7392765393337191
  0.4434720675839057  0.5284997844476877  0.2555747694519341
  0.0144627390098406  0.4461637164392739  0.7630947223737354
  0.5439851614316280  0.0400500257283316  0.2187431499767515
  0.2595175680159164  0.2747836980570218  0.5024692214431539
  0.7645168879964065  0.7587451477843142  0.9909068499060278
  0.7725175836410334  0.2307514077940822  0.4904634068094455
  0.9906130994545309  0.7109475722206611  0.9928573578964209
  0.0174604950242568  0.2564631759623281  0.0174044657978278
  0.5064454239505480  0.7182660461110434  0.5008747710216510
  0.5046706162620960  0.5326675281158515  0.9840530922462160
  0.9831092265191638  0.9993657069024522  0.5154831529363026
  0.5128445960288316  0.0114384689509897  0.0565937558491991
  0.9788197826456039  0.2662895620650441  0.5099985597712290
  0.0150225154601415  0.4666395081352313  0.9617105245279942
  0.5110074779566185  0.9913054976581959  0.5041490075106803
  0.9912791135028346  0.2139364194070155  0.2387466985844474
  0.7484196034562624  0.7962424252629655  0.7433152375408629
  0.2849457927142870  0.7375362154726200  0.2556755797099801
  0.7750664327113707  0.2480507971112024  0.6367574769844533
  0.8036259675737408  0.7337692032870818  0.2254488998253925
  0.2960971081128963  0.2543043166891485  0.7397589583108668
  0.7320353661329244  0.2576110392241496  0.2241760776911455
  0.2827595954035912  0.7398260963464799  0.7684888819840172
  0.2347437699260221  0.2865703997112735  0.1439167143667643
  0.4851756855681211  0.0041225222525808  0.6328463371926206
  0.7290968184148433  0.0075760083130377  0.8848115932576583
  0.2379731496552986  0.7547537029980718  0.3795217211654572
  0.2792087410391908  0.4705644094999674  0.8727493150016338
  0.7958381113547778  0.0180975853929792  0.3837471408952776
  0.7725892249682992  0.7565049000836528  0.1119299489696001
  0.2395246007778702  0.5056004156224565  0.6301916525211935
  0.6832631318758042  0.5443331026824377  0.8793120960695875
  0.2851729740752609  0.9920487045173498  0.3738729551581487
  0.7268457097717470  0.7581603226077277  0.6180652235886755
  0.2756615595619550  0.7313236634523572  0.1405658543210948
  0.1896913557133472  0.9758630504306468  0.6197411966948997
  0.4793963243821848  0.5181849806283952  0.1353838993814958
  0.2713684337149486  0.7042569032745549  0.8851343712640982
  0.6569461512760134  0.5182556683490241  0.3807723912723747
  0.2720169673373177  0.9902251295630264  0.2396063303779655
  0.7856861001607014  0.4932445270260828  0.7421145246518234
  0.2532407637925938  0.9834764329355076  0.7452502013930039
  0.7222159359312061  0.4952525167236123  0.2453148577416603
  0.2521445266428626  0.9782746797196463  0.0008551338214671
  0.7459372221877162  0.4661693002041734  0.4942528900311907
  0.2447897441477717  0.0285667978605854  0.5031347500799933
  0.7584240409491030  0.5291496011403847  0.9891883418836730
  0.7402441712437611  0.0175654942972787  0.7554374539935966
  0.2362410399002294  0.4721628081325898  0.2566848386673146
  0.2808142746561692  0.4967489527368096  0.7531420562101976
  0.7769074880573704  0.9806867197744129  0.2585508514420028
  0.2666722712039488  0.5095604087493476  0.5025741555632357
  0.7478499921503199  0.0242128278789108  0.9959220741373048
  0.7438555800056724  0.9671332585391876  0.4960636348451257
  0.2809453771319960  0.5104446737814250  0.0111071204481105
  0.9974883293474331  0.2243060481828402  0.3742121474791496
  0.5356832189943560  0.7474931396727185  0.8678461178479447
  0.5136050892211945  0.2659131336303092  0.6235468673596127
  0.0194000427761616  0.7166639878627785  0.1301776906584443
  0.0339216480198503  0.2563792416196284  0.8835740563985648
  0.4924671288407544  0.7541520136554627  0.3834538497317086
  0.9956763441283568  0.7499488127520740  0.6240007341467045
  0.4921501455489284  0.2637095822388316  0.1214495008120311
  0.1822754068237570  0.4046479992232919  0.0664775576018019
  0.6489613659080298  0.8643048981305947  0.5504086043537754
  0.6574628239694602  0.1490582328333649  0.9467788295320198
  0.1463416177367977  0.6167337654983032  0.4504056182729901
  0.3553720189232257  0.3776980414782302  0.9531553655213127
  0.8477702636191217  0.8655658153432638  0.4397592166002161
  0.8623090995254192  0.1062139413970951  0.0550034359889634
  0.3577134421747403  0.6243406600160737  0.5532255315086242
  0.8729417871770082  0.0894972708802854  0.2079650017210212
  0.3713408517417253  0.6061783027884448  0.6993502197192382
  0.8788499515844356  0.8639446733929067  0.2992915056087566
  0.3815785398976958  0.3840952095708340  0.7986494644725693
  0.1243605655908588  0.5636508864077252  0.3106705563185407
  0.6246244883712601  0.1034907940679315  0.8161551064059291
  0.1185544317695419  0.3652466784547949  0.2089918401391319
  0.6303714475224075  0.9142005998841409  0.6978302104899365
  0.8638858683012074  0.6323508526148488  0.9348218634811309
  0.3645802826867249  0.1169803746196444  0.4504487339575264
  0.8585377842731451  0.3803271560249015  0.5446071652641947
  0.3644555255469281  0.8827812747679183  0.0586763813048114
  0.1330983881193483  0.1304664095141405  0.5504783123364093
  0.6622053172156297  0.6347678434104089  0.0514830843596449
  0.1502096662928579  0.8768203704149532  0.9456405726317403
  0.6580672332937625  0.3775559224049205  0.4324126520742738
  0.6254056485714661  0.3831780993294250  0.2914224173084161
  0.1410252797873410  0.8860719556408890  0.7992994494307630
  0.1530826496310791  0.0940172940466898  0.7021556056752242
  0.6347478783434839  0.6075304649399712  0.1988525165809683
  0.8817327947100817  0.3630886740128055  0.6885369032745451
  0.3801483400671143  0.9050346966337628  0.1927243137675782
  0.3590982371378092  0.0898383167394653  0.3078074600227706
  0.8698548700435342  0.6059952882695661  0.7940557950107399
  0.1481710714617580  0.0856708080665714  0.0464118081066004
  0.6456671243130414  0.5905616847097217  0.5452175447826314
  0.6457348963600794  0.4172769503529213  0.9554664233997991
  0.1361969462605817  0.9005920049544679  0.4580074433370925
  0.3718203481046836  0.0892102012360983  0.9590597735331077
  0.8464781281747155  0.5732409843946359  0.4379548382994131
  0.8754193521176570  0.4318698498212246  0.0338013135529770
  0.3452442145739881  0.9203410557552962  0.5515249262775132
  0.1884235028871127  0.0968211838359905  0.1932639699928034
  0.6953848623784863  0.5958777950083848  0.6961168170229698
  0.1913146773758639  0.8877476175204161  0.3028851471137090
  0.6944260086603367  0.4075288788688955  0.8030452572365159
  0.8206245142025379  0.5965711713842961  0.2951659076695937
  0.3467481174147247  0.0867829550511601  0.8011707473248626
  0.8361293494086102  0.3966397633529098  0.1915829009002502
  0.3455255678776427  0.8958883800296503  0.6874302198150983
  0.8702916501372375  0.9250975829530302  0.9570812971263388
  0.3600574615069861  0.4090491853322930  0.4457757756982290
  0.8307129781596684  0.0639380109361803  0.5551215970953440
  0.3830944547800039  0.6190640662188168  0.0508215191820627
  0.1323394442239459  0.4317751264564841  0.5406403580480803
  0.6680521318838243  0.9094092673255008  0.0472470347524528
  0.1746733728681546  0.5828453167313652  0.9474827477927678
  0.6519042594846293  0.0989144901293912  0.4491424371355807
  0.3317300626334393  0.3584388960066110  0.3050231558310622
  0.8490212045224395  0.9099589404105651  0.8005743849593836
  0.8275699286084900  0.1246023865359042  0.7010014813277552
  0.3239792143025593  0.5854494427712607  0.2000730120151585
  0.1637728508082689  0.4012418985501572  0.7005106997151911
  0.6814590512792617  0.8832222998845491  0.1973267923373510
  0.6719816909414829  0.0752666147687962  0.3063067379955318
  0.1754767190205354  0.5900211151489440  0.8066128457166593
  0.0908227326865846  0.1190995414392889  0.3479072048497303
  0.6225049355902955  0.6668492851907376  0.8122919879398399
  0.5977454923579812  0.3639617279045473  0.6591751686289119
  0.0843854920587216  0.8412009384121432  0.1840780303969311
  0.4367741379653124  0.1922648100607438  0.6808210517799170
  0.9372520852461160  0.6228422916237768  0.1752487526618068
  0.9094249907024514  0.3005250983208101  0.3216435844301886
  0.4319998087618013  0.8399326949323201  0.8191905944892590
  0.1431659214770581  0.3158651269547714  0.9277147722580934
  0.5936750101464514  0.6700363421989106  0.4204438909543913
  0.0817920222738337  0.8261240613779026  0.5748988599766669
  0.5849082878365858  0.3781545706817620  0.0870929112994819
  0.8915472282829950  0.6775018370693068  0.5765832381771115
  0.4183827761997768  0.1742884351932412  0.0730165446364098
  0.9433045491552492  0.3746933570719971  0.8605072844162940
  0.4057463286263124  0.8381252776940480  0.4328563551743705
  0.9279416948631978  0.8513282243874000  0.6695641984472493
  0.4069820944212762  0.3356481311820108  0.1694543419197947
  0.9478108755614691  0.1450591227862081  0.9215375561559001
  0.3998823709631658  0.6763089040687342  0.3402679896001417
  0.0903947357411432  0.1838921509123878  0.8179094261586816
  0.5770534163549692  0.8276411156325768  0.3363012483046353
  0.1063034487482703  0.6539096728096530  0.6605457948029481
  0.5829942986035194  0.1723294120368539  0.1595158235391521
  0.4077464736823704  0.3337996828492127  0.5770610625832526
  0.9297937763394697  0.8129599933009923  0.0841095108245758
  0.8930536513797976  0.1482590793977966  0.4234112452376528
  0.4676540746027690  0.6550034084834279  0.9155141061162958
  0.0783734595517541  0.3224850460706604  0.4147034796036155
  0.6347679887632128  0.8315010148361541  0.9028511453308544
  0.6044879722259657  0.1704884574779591  0.5892794149614412
  0.1341916135905097  0.6620965122794839  0.0853252919384703
 
 -0.21119880E-02 -0.95929078E-02 -0.61843218E-02
  0.41539322E-02 -0.56065975E-02 -0.93295087E-02
  0.50666144E-02  0.46515548E-02  0.91175023E-03
  0.14619829E-01 -0.54176339E-02 -0.82749753E-02
 -0.12653436E-03  0.82213570E-03 -0.77001153E-02
  0.19976102E-02 -0.71202946E-03 -0.90867173E-02
 -0.60034375E-02 -0.13416679E-02 -0.15335436E-02
 -0.91054196E-02 -0.68094342E-02 -0.20534192E-02
 -0.39865737E-02  0.38956233E-05  0.11652791E-02
  0.51655007E-02  0.27469999E-02 -0.41938393E-03
  0.45371470E-03  0.22684669E-02  0.48223849E-02
 -0.39948098E-02  0.74507269E-02  0.40259059E-02
  0.28501447E-02 -0.92819898E-02  0.73815309E-02
  0.24617128E-02  0.11064594E-01  0.23832241E-02
 -0.21655798E-02  0.36353940E-02 -0.51603607E-02
  0.25079691E-02  0.33249197E-02  0.38656111E-02
  0.10351746E-02  0.27160565E-03 -0.22480170E-02
 -0.82410294E-02 -0.54361766E-02  0.84228498E-02
  0.21900975E-02  0.68017628E-02  0.10303758E-01
  0.98581712E-04  0.20514042E-02  0.51334410E-03
 -0.19812406E-02  0.96125525E-02  0.26220257E-03
  0.18331952E-02 -0.99082621E-02  0.64606569E-02
  0.15345060E-02  0.63784675E-02  0.84978638E-02
  0.18337046E-02 -0.31003316E-02 -0.18424538E-02
 -0.65596667E-02 -0.14975055E-02  0.49658097E-02
 -0.64441964E-03 -0.15384680E-02  0.24620567E-02
 -0.18938818E-02  0.36116580E-02  0.99893028E-03
  0.18412813E-03  0.27527924E-03  0.11964104E-02
 -0.37304511E-02 -0.23628848E-02  0.55220160E-02
  0.12354717E-01  0.87514838E-03  0.39345632E-02
  0.46795412E-03  0.53077502E-02  0.12839883E-02
  0.25078769E-02 -0.19988694E-02  0.44403888E-02
  0.13750621E-02 -0.50418985E-02 -0.54992000E-02
  0.58560855E-02  0.30286064E-02 -0.19015964E-02
 -0.12473730E-01 -0.66005190E-02  0.84338194E-02
  0.10680523E-01  0.12125405E-01 -0.53728106E-02
  0.54688038E-02 -0.47206520E-02 -0.49609421E-02
 -0.28262694E-02 -0.14600723E-02 -0.11939230E-02
  0.18065798E-02  0.66101305E-03  0.36335554E-02
  0.51350641E-02  0.61718475E-02 -0.34203980E-03
 -0.74762241E-03 -0.14595346E-02  0.33041494E-02
 -0.34796975E-04  0.55574818E-02 -0.73230622E-03
 -0.25556993E-02 -0.34186071E-02 -0.53421126E-02
 -0.69008489E-02  0.22358090E-02 -0.80462651E-02
 -0.48424850E-02 -0.93932616E-02 -0.28449352E-02
 -0.17153355E-04  0.57844610E-02  0.44722748E-02
 -0.85668927E-02  0.43676385E-02 -0.26347294E-03
  0.10174415E-01 -0.81634016E-02  0.69626287E-02
 -0.43444088E-02  0.61244810E-02  0.34901106E-03
  0.37405153E-02  0.50845788E-02  0.51526845E-02
 -0.61480603E-02 -0.96302947E-02 -0.32414361E-02
 -0.75341463E-02  0.35014645E-02 -0.31749575E-02
 -0.27148267E-02  0.70014239E-02  0.11934465E-01
  0.42664424E-02  0.56881461E-03 -0.14902516E-01
  0.87598133E-03 -0.48992109E-02 -0.37406088E-02
 -0.20959101E-02  0.12658799E-01 -0.22416285E-02
 -0.60480903E-02 -0.10666048E-01 -0.85795821E-02
  0.42690822E-02  0.10674065E-01 -0.67218681E-02
 -0.48993753E-02  0.20277071E-02 -0.14484614E-02
  0.43878121E-02 -0.26753285E-02  0.21927111E-02
 -0.88728835E-03 -0.63281095E-03 -0.46977163E-02
  0.64120814E-03  0.42585420E-02  0.85420350E-02
 -0.75107407E-03  0.52125950E-02  0.39285526E-02
  0.73019709E-02  0.30948810E-02  0.52349692E-02
  0.47143153E-02  0.25969425E-02 -0.13375487E-03
 -0.49027596E-02 -0.13535481E-02  0.20354521E-02
 -0.42119662E-02  0.14205894E-02  0.22315632E-03
  0.58381352E-02 -0.31214494E-02  0.70072450E-03
  0.51232183E-02 -0.49945557E-02  0.70301484E-02
  0.70596886E-02  0.11591891E-02  0.68289599E-02
 -0.34715534E-02  0.60633773E-03 -0.17006255E-02
 -0.30047742E-02 -0.48876822E-04 -0.23957748E-02
 -0.11326902E-01 -0.54646696E-02  0.33052029E-02
 -0.17536401E-02 -0.56142729E-02  0.42321073E-02
 -0.40967421E-03  0.61699485E-02  0.14095895E-01
 -0.44642973E-02  0.22317803E-02  0.84628580E-02
  0.41941770E-02 -0.32480326E-02  0.10081911E-01
 -0.70801172E-02  0.24348787E-02 -0.27725610E-02
 -0.14345711E-01 -0.60228739E-02 -0.85964498E-02
 -0.13980667E-02  0.71035258E-02  0.29040633E-02
 -0.13507084E-02  0.30808104E-02  0.29696532E-02
  0.35739981E-02  0.10821918E-01  0.58139167E-02
  0.81345158E-02  0.19126277E-02 -0.15191663E-01
  0.22689180E-02  0.15353945E-01  0.49278156E-02
 -0.41865851E-05 -0.36947939E-02 -0.56638170E-02
  0.23910006E-02 -0.22466541E-02  0.60261316E-02
 -0.15969898E-02  0.40220195E-02 -0.20935902E-02
  0.33339291E-02  0.88759440E-02 -0.40422346E-04
  0.20578903E-02 -0.39834045E-02 -0.20423754E-02
  0.19023744E-02  0.21154418E-02 -0.11363295E-02
 -0.26247957E-02 -0.14677156E-02 -0.22086041E-02
  0.25076934E-02  0.15689529E-03 -0.73817289E-03
  0.35607605E-02 -0.25238203E-02 -0.26977923E-03
 -0.84535599E-03  0.71949844E-03  0.12684880E-02
  0.51685638E-02  0.28274334E-02  0.48374887E-02
  0.30547662E-02  0.59541396E-02 -0.34305704E-02
  0.55196255E-03 -0.45318498E-02 -0.23431188E-02
  0.31047985E-03  0.31906866E-02 -0.14093994E-02
  0.87038466E-03 -0.24703984E-02 -0.55128443E-03
  0.16908869E-02  0.78761647E-03  0.14647890E-02
 -0.11533288E-03  0.14743915E-02 -0.58510940E-03
  0.10021772E-02 -0.59206195E-03  0.15271051E-02
 -0.16338387E-02 -0.89458219E-04 -0.38772265E-02
 -0.45831827E-02 -0.62197948E-03  0.19115718E-02
 -0.34572839E-02 -0.56572618E-03  0.40438475E-02
  0.18800448E-02 -0.13736533E-02 -0.53827119E-02
 -0.51031431E-03 -0.12841691E-01  0.76799673E-03
  0.51796524E-02  0.19608017E-02  0.50335662E-02
 -0.45710325E-03 -0.10436987E-01 -0.30212143E-02
 -0.35500076E-02  0.27141091E-02 -0.73135678E-02
  0.16596204E-02  0.37291683E-02  0.50714811E-02
  0.33242393E-02  0.19322044E-02  0.13349789E-02
 -0.36386175E-02  0.66064610E-02 -0.83872082E-02
  0.66427532E-03 -0.24783649E-02  0.49159861E-02
 -0.36406112E-02 -0.62504815E-02 -0.86332592E-02
 -0.59515529E-02  0.39562785E-03  0.68071685E-03
  0.81484254E-02 -0.54634304E-04  0.87780101E-04
  0.31162987E-02  0.21279519E-05 -0.72078286E-03
  0.77589925E-02 -0.19597896E-02 -0.44286940E-02
  0.19709218E-02  0.43683876E-02  0.69764668E-02
  0.66574187E-02 -0.12701055E-02 -0.14585360E-02
 -0.99107026E-03  0.39443066E-03 -0.22577709E-03
 -0.82622409E-02 -0.66981044E-02 -0.64710410E-03
  0.59231448E-03 -0.12027518E-02  0.58945634E-02
  0.17082907E-02 -0.71955296E-02 -0.20624002E-02
 -0.50946819E-02  0.42817140E-02  0.13799658E-02
 -0.65951031E-02 -0.67277970E-02  0.25794917E-02
 -0.70580510E-02 -0.22030124E-02  0.18487306E-02
  0.98454337E-03  0.73553480E-02 -0.31219862E-02
 -0.10837634E-01 -0.41722958E-02  0.85511945E-02
 -0.27237304E-02  0.43679705E-02  0.58056755E-02
 -0.30816110E-02 -0.10729073E-01 -0.63145719E-02
 -0.65421083E-02 -0.40071804E-02  0.75988138E-03
 -0.16250022E-02  0.11281790E-03  0.13963254E-02
 -0.75155749E-02 -0.57824544E-02  0.61690164E-02
 -0.54170312E-02  0.17091776E-02  0.66754185E-02
 -0.98026707E-02 -0.26384459E-02 -0.84544445E-02
 -0.61076916E-02 -0.18698896E-02  0.27156791E-02
  0.14891965E-02 -0.32302486E-02 -0.13977870E-02
 -0.22707601E-02 -0.17949018E-02 -0.55908136E-02
 -0.35763507E-02 -0.19164888E-02 -0.86391249E-03
  0.54119719E-02  0.51266182E-02 -0.69378515E-03
 -0.23805407E-03  0.79462066E-02 -0.58483065E-02
  0.74049449E-02  0.50822362E-02  0.31951425E-02
 -0.50183877E-02  0.82074737E-03  0.42983471E-02
  0.16041424E-02 -0.17667562E-02 -0.84683050E-03
  0.25243982E-02 -0.28356852E-02  0.73371439E-02
 -0.77546321E-02  0.33308777E-02 -0.24784009E-02
  0.47696638E-03  0.26922714E-02 -0.54893824E-02
 -0.12348987E-02  0.17887991E-02 -0.27563065E-02
  0.35411221E-02  0.85871907E-03  0.35147334E-02
 -0.10460145E-03  0.14374977E-02  0.51881639E-02
  0.39461621E-03 -0.60745294E-02 -0.15566414E-02
  0.20984509E-02 -0.59788417E-02 -0.59443964E-02
  0.42525705E-02  0.19132935E-02  0.38025216E-04
 -0.32547020E-03 -0.12711943E-02  0.12063940E-02
 -0.91864931E-03  0.31551290E-03 -0.68151100E-02
  0.31467829E-02  0.32656738E-02  0.24512620E-02
 -0.48827968E-03  0.73993861E-03  0.64657689E-02
  0.11957479E-02  0.25410999E-02 -0.17511333E-02
  0.70867356E-02 -0.57337465E-02 -0.32666401E-02
 -0.32202461E-02 -0.39616704E-02  0.27774256E-02
 -0.19912288E-02 -0.28972414E-02  0.86916261E-02
  0.40107978E-02  0.60375278E-02  0.36995424E-02
 -0.71565838E-02 -0.82235953E-02 -0.43448905E-02
 -0.77483649E-03  0.24119738E-02  0.74169495E-02
  0.13967746E-02  0.53675301E-03 -0.54064980E-02
  0.55535430E-02 -0.52871653E-02  0.42604503E-04
 -0.28088631E-02  0.67149827E-02  0.19740164E-02
  0.23282325E-03  0.72901111E-02  0.75092606E-03
  0.25951743E-02 -0.11611502E-01  0.25214189E-02
  0.17897809E-02 -0.26994467E-02  0.22631017E-02
  0.23039606E-02  0.98105032E-03 -0.52177234E-02
  0.47035446E-02  0.23968629E-03  0.55233387E-02
 -0.80635560E-02 -0.40318525E-02 -0.93820276E-04
 -0.69034682E-03 -0.42799457E-02 -0.54600568E-02
 -0.54129664E-02 -0.55238369E-02  0.10702364E-02
 -0.83823745E-02  0.11911367E-01 -0.63484971E-02
  0.27262983E-02  0.28823144E-02  0.20344160E-02
  0.24268587E-02 -0.30778508E-03  0.28720649E-02
  0.48956305E-02 -0.37776704E-02 -0.37393697E-02
  0.47345758E-02  0.95723179E-02  0.22211475E-02
  0.12751421E-02 -0.32069246E-02 -0.55355227E-02
 -0.15186982E-02 -0.53313215E-02 -0.27314735E-02
  0.79164945E-02  0.16373815E-02  0.23820896E-02
  0.51776114E-02  0.35049290E-02 -0.60407613E-02
  0.70896408E-02 -0.86590825E-02 -0.22214695E-02
 -0.26469274E-02 -0.61536856E-02  0.42905698E-04
  0.54803857E-02 -0.14899688E-02  0.44013652E-02
 -0.50103217E-03  0.17998014E-02 -0.10186571E-02
  0.19673024E-02  0.36224945E-02 -0.26958454E-02
 -0.17524933E-02  0.89742389E-02 -0.31032913E-02
  0.10332609E-02 -0.27195124E-02 -0.20739979E-02
 -0.36604515E-02 -0.61030887E-02  0.15049414E-02
  0.68924297E-02  0.45564973E-02  0.19226731E-02
 -0.10746369E-04 -0.88186548E-02  0.26485515E-02
 -0.10286291E-01  0.38781530E-02  0.27680657E-02
  0.97688883E-03 -0.58925354E-02  0.73730639E-02
 -0.10480362E-02  0.49925864E-02 -0.14574269E-02
 -0.12914833E-02 -0.47773728E-02  0.46235134E-02
 -0.31552571E-02  0.49862906E-02  0.43292901E-03
  0.51008722E-02  0.36921181E-02 -0.11696679E-01
 -0.37116059E-02  0.50373930E-02  0.16176088E-02
 -0.43337016E-03  0.32000289E-02 -0.57611047E-02
 -0.10256951E-01 -0.11108753E-01 -0.76924894E-02
  0.42284527E-02 -0.14829488E-02 -0.97973567E-03
 -0.27200395E-02  0.22566500E-02 -0.40106481E-02
 -0.40538623E-02  0.67713259E-02  0.54330987E-02
 
           1
   2.00000000000000     
  0.79542435E+00  0.58123945E-03  0.00000000E+00  0.00000000E+00
  0.98300853E+00  0.85317177E-02  0.13733784E+00
  0.51023976E+00  0.53996335E+00  0.62321815E+00
  0.53492245E+00  0.52439784E+00  0.75418436E+00
  0.24675805E-01  0.94050313E+00  0.37730050E+00
  0.22848659E+00  0.98476904E+00  0.87505205E+00
  0.98133096E+00  0.51038769E+00  0.37760796E+00
  0.11000268E-01  0.46883053E+00  0.12442350E+00
  0.25436389E+00  0.21789941E+00  0.25883816E+00
  0.76815968E+00  0.24221583E-03  0.63626441E+00
  0.76456482E+00  0.25330619E+00  0.87017066E+00
  0.76066740E+00  0.73691619E+00  0.36718803E+00
  0.25249694E+00  0.20888727E+00  0.87156965E+00
  0.72675332E+00  0.27050078E-01  0.12680612E+00
  0.27658249E+00  0.75184361E+00  0.61912022E+00
  0.99399336E+00  0.98462922E+00  0.87309125E+00
  0.27415180E+00  0.49475253E+00  0.37070333E+00
  0.99661318E+00  0.99794471E+00  0.73550245E+00
  0.12256793E-01  0.47962682E+00  0.63872587E+00
  0.29355706E+00  0.99458515E+00  0.11955654E+00
  0.99356793E+00  0.55217083E+00  0.86997396E+00
  0.53772247E+00  0.43011366E-01  0.37332555E+00
  0.24875720E+00  0.25356858E+00  0.38007955E+00
  0.79264762E+00  0.77109390E+00  0.86661727E+00
  0.77586670E+00  0.52231522E+00  0.60906966E+00
  0.24773940E+00  0.74504936E+00  0.75095685E-02
  0.25361445E+00  0.20834596E+00  0.62180522E+00
  0.73306512E+00  0.48614770E+00  0.13137669E+00
  0.70733025E+00  0.26884384E+00  0.35595463E+00
  0.23668677E+00  0.77491145E+00  0.50646499E+00
  0.52667140E+00  0.27191976E+00  0.98427354E+00
  0.39343749E-02  0.52454245E+00  0.50039229E+00
  0.48969651E+00  0.40045820E-01  0.74797532E+00
  0.24651722E-01  0.73876735E+00  0.26602540E+00
  0.58520199E+00  0.29212214E+00  0.76130752E+00
  0.99777545E+00  0.99652820E+00  0.26282720E-02
  0.52242433E+00  0.29534017E+00  0.49429073E+00
  0.51848659E+00  0.75648840E+00  0.19320108E-01
  0.49254873E+00  0.26154813E+00  0.25320701E+00
  0.19719990E-02  0.73461742E+00  0.75363087E+00
  0.54107609E+00  0.78014329E+00  0.22748897E+00
  0.28919184E-01  0.97145150E+00  0.25764993E+00
  0.51684932E+00  0.73645711E+00  0.73363604E+00
  0.49159715E+00  0.16453918E-01  0.87496358E+00
  0.98244912E+00  0.44808571E+00  0.26699545E+00
  0.25550342E+00  0.25111722E+00  0.16934572E-01
  0.73199445E+00  0.73041616E+00  0.48595298E+00
  0.22685431E-01  0.75077964E+00  0.49661800E+00
  0.75400438E+00  0.28363666E+00  0.12732010E-01
  0.97714912E+00  0.22666785E+00  0.73930243E+00
  0.44402699E+00  0.52925410E+00  0.25595698E+00
  0.13550654E-01  0.44473503E+00  0.76285428E+00
  0.54286745E+00  0.40569479E-01  0.21850764E+00
  0.25911481E+00  0.27582238E+00  0.50335448E+00
  0.76514983E+00  0.75882953E+00  0.98980143E+00
  0.77264754E+00  0.23002459E+00  0.49018594E+00
  0.99030216E+00  0.71282555E+00  0.99269108E+00
  0.16563241E-01  0.25488083E+00  0.16768061E-01
  0.50707876E+00  0.71984958E+00  0.50037617E+00
  0.50394378E+00  0.53296835E+00  0.98394565E+00
  0.98376017E+00  0.99896881E+00  0.51564580E+00
  0.51271296E+00  0.11344589E-01  0.56245295E-01
  0.97891491E+00  0.26692133E+00  0.51063218E+00
  0.14911091E-01  0.46741281E+00  0.96200193E+00
  0.51209075E+00  0.99176463E+00  0.50453732E+00
  0.99197850E+00  0.21432168E+00  0.23873678E+00
  0.74769226E+00  0.79604162E+00  0.74346622E+00
  0.28432093E+00  0.73774696E+00  0.25569213E+00
  0.77593254E+00  0.24758772E+00  0.63680945E+00
  0.80438601E+00  0.73302824E+00  0.22597037E+00
  0.29714444E+00  0.25447629E+00  0.74026551E+00
  0.73152035E+00  0.25770099E+00  0.22404993E+00
  0.28231383E+00  0.73981885E+00  0.76831117E+00
  0.23306339E+00  0.28575970E+00  0.14416188E+00
  0.48491553E+00  0.32896264E-02  0.63316026E+00
  0.72903604E+00  0.84913404E-02  0.88585718E+00
  0.23731086E+00  0.75508479E+00  0.38014947E+00
  0.27983096E+00  0.47008255E+00  0.87349716E+00
  0.79478775E+00  0.18458808E-01  0.38354148E+00
  0.77046099E+00  0.75561139E+00  0.11129229E+00
  0.23931719E+00  0.50665425E+00  0.63040707E+00
  0.68306275E+00  0.54479015E+00  0.87953237E+00
  0.28570319E+00  0.99365417E+00  0.37430421E+00
  0.72805249E+00  0.75844407E+00  0.61693836E+00
  0.27599816E+00  0.73360147E+00  0.14093138E+00
  0.18969073E+00  0.97531492E+00  0.61932107E+00
  0.47975104E+00  0.51785168E+00  0.13583090E+00
  0.27113152E+00  0.70485358E+00  0.88497908E+00
  0.65744075E+00  0.51957244E+00  0.38076939E+00
  0.27232226E+00  0.98963418E+00  0.23945483E+00
  0.78596832E+00  0.49355836E+00  0.74203024E+00
  0.25285137E+00  0.98325869E+00  0.74508637E+00
  0.72258796E+00  0.49527579E+00  0.24526010E+00
  0.25267278E+00  0.97790026E+00  0.83512250E-03
  0.74581181E+00  0.46627604E+00  0.49434698E+00
  0.24555652E+00  0.28986257E-01  0.50349358E+00
  0.75887723E+00  0.53003292E+00  0.98893387E+00
  0.74032606E+00  0.16893180E-01  0.75526365E+00
  0.23628710E+00  0.47263616E+00  0.25658029E+00
  0.28094340E+00  0.49638246E+00  0.75310116E+00
  0.77715834E+00  0.98080357E+00  0.25865950E+00
  0.26665516E+00  0.50977914E+00  0.50253075E+00
  0.74799867E+00  0.24124994E-01  0.99603535E+00
  0.74361319E+00  0.96711999E+00  0.49577604E+00
  0.28026545E+00  0.51035240E+00  0.11248914E-01
  0.99697543E+00  0.22422212E+00  0.37451211E+00
  0.53596213E+00  0.74728935E+00  0.86744685E+00
  0.51352938E+00  0.26400803E+00  0.62360383E+00
  0.20168461E-01  0.71695488E+00  0.13055106E+00
  0.33853835E-01  0.25483088E+00  0.88334995E+00
  0.49194047E+00  0.75455466E+00  0.38291135E+00
  0.99592255E+00  0.75050205E+00  0.62437692E+00
  0.49264331E+00  0.26399623E+00  0.12154853E+00
  0.18173561E+00  0.40562809E+00  0.65855423E-01
  0.64905991E+00  0.86393722E+00  0.55077326E+00
  0.65692273E+00  0.14813095E+00  0.94613844E+00
  0.14545869E+00  0.61679246E+00  0.45045611E+00
  0.35658086E+00  0.37768994E+00  0.95316188E+00
  0.84823258E+00  0.86556613E+00  0.43970575E+00
  0.86346017E+00  0.10592320E+00  0.54674930E-01
  0.35800583E+00  0.62498872E+00  0.55374302E+00
  0.87392944E+00  0.89308847E-01  0.20785681E+00
  0.37119382E+00  0.60623682E+00  0.69933347E+00
  0.87762422E+00  0.86295099E+00  0.29924351E+00
  0.38166641E+00  0.38391678E+00  0.79908670E+00
  0.12461400E+00  0.56258341E+00  0.31051757E+00
  0.62386868E+00  0.10412600E+00  0.81625747E+00
  0.11757603E+00  0.36424859E+00  0.20918318E+00
  0.62932436E+00  0.91387378E+00  0.69796734E+00
  0.86403193E+00  0.63344204E+00  0.93459029E+00
  0.36297248E+00  0.11636140E+00  0.45108303E+00
  0.85813371E+00  0.38097516E+00  0.54503781E+00
  0.36399836E+00  0.88118958E+00  0.58207988E-01
  0.13212784E+00  0.12987193E+00  0.55053468E+00
  0.66196424E+00  0.63478458E+00  0.51586659E-01
  0.14909471E+00  0.87596252E+00  0.94609817E+00
  0.65726360E+00  0.37780948E+00  0.43290781E+00