Na88 Ge16 P8 S96                        
   1.00000000000000     
    13.3422163233000006    0.0000000000000000    0.0000000000000000
     0.0000000000000000   13.3422163233000006    0.0000000000000000
     0.0000000000000000    0.0000000000000000   26.6844326466999995
   Na   Ge   P    S 
    88    16     8    96
Direct
  0.9808921287082237  0.0410606758366970  0.1210624155105344
  0.5118836776121825  0.4643126031631939  0.7176654930864604
  0.2771978673977151  0.4768486937611033  0.8724824702544032
  0.9767899049874142  0.9655959771850481  0.3780001002948942
  0.7131215632323705  0.0125623053962745  0.8703349330275874
  0.0093095501614754  0.4930169572716858  0.3785897054952911
  0.0073509831046932  0.5223302676960359  0.1276607445568422
  0.2257720822744482  0.2747171667341944  0.1435451137686022
  0.6922348550950709  0.9696908698822940  0.6138536899317241
  0.7596658705219645  0.2476574635014946  0.7432829705811408
  0.7554859913793619  0.7242622439347235  0.3729337039240702
  0.2698977276764773  0.2311511744714306  0.8799124740233818
  0.7712914399666788  0.2776602604952546  0.1247031210804386
  0.2708218233359098  0.7380282567856304  0.6394273704620973
  0.9641279331390092  0.0001385079139153  0.8685612275550570
  0.5170523422668052  0.4463296062911057  0.3795212645237555
  0.9863373411860434  0.0062371822379130  0.6141037688573106
  0.9806980159883086  0.4494184257798211  0.6284968668961477
  0.4558260036834700  0.0074377586266200  0.1138568913208694
  0.0134297693769352  0.4914846235988209  0.8628652148451357
  0.5101015085469675  0.9893147660190436  0.3720350597054246
  0.2578127391546810  0.0198154581836044  0.3746324030109812
  0.7710312850725669  0.5186717275387922  0.8678579634553327
  0.7177132583994845  0.4612325062134560  0.6312925165500713
  0.2684562876692468  0.7541688544133833  0.1335125842649091
  0.2426714432325607  0.2614038284224656  0.5031333925479938
  0.7268547598376359  0.7605024438425632  0.1301317922789038
  0.7522556378351984  0.1829813469799367  0.4820363042255187
  0.4819285666567080  0.7247883348005592  0.4922291167878928
  0.4820486063834585  0.2447790883532386  0.0045876681956083
  0.9764766214140221  0.2494993874715749  0.4986914951001047
  0.7683103577334395  0.7500947475405905  0.7337452775820592
  0.0055467253652950  0.7468405678013935  0.2660179427415589
  0.4906410945683906  0.2054482181178200  0.7552090673245591
  0.9943059447001732  0.9866406849056880  0.9980949560979636
  0.5067543867641520  0.2199379435634588  0.4871122345492309
  0.4914600783458767  0.7553041971373741  0.0143852541136858
  0.7661420967274225  0.2452512477371042  0.2676171359177615
  0.2154348941676871  0.7338714602008891  0.7385859421002096
  0.4934682160831888  0.7763597916865074  0.2430272155980514
  0.9728431480490418  0.9966342175667620  0.2393661448345532
  0.5164760309933004  0.4641686656444809  0.8562635295148192
  0.4779681258108858  0.9812303804968703  0.7706429290388085
  0.9765456124757249  0.4774516059644653  0.2558789109101244
  0.2655497357495909  0.2422725889976663  0.0100086416964526
  0.7380704445756321  0.7135557584928575  0.4926292007473274
  0.2142127787206893  0.7485376427256021  0.5145086044311266
  0.7743886687895015  0.2937815014137840  0.9898805277767102
  0.9884975288839666  0.9106733581973488  0.7416340700929547
  0.4737394280285407  0.5185166454930313  0.2620909345028749
  0.0256206344567688  0.5107144996714129  0.7411190278621312
  0.5163703126638718  0.0201174930957565  0.2316323532270683
  0.2676853787883094  0.2656268196968399  0.3708832608404669
  0.7687333303716765  0.7753722278857648  0.0072194547049310
  0.7461705720067138  0.2010951664218537  0.6104099715153031
  0.2208084609627970  0.7187884042552436  0.0079055075422244
  0.9949259947252502  0.2697098352564324  0.0070571930348131
  0.4954229029356391  0.4598667469266761  0.5244129520504082
  0.4826154913552376  0.5160322514018164  0.1326952794274025
  0.0112276859430231  0.5800623401551936  0.5013893080149093
  0.4970759934454341  0.9807152523207263  0.9383649112318060
  0.9698516015139702  0.9113608677446533  0.5147961854249679
  0.9954049780477280  0.5290994319187473  0.9956931973905366
  0.4874252489726126  0.9709510403508703  0.5034543856681449
  0.4966660747562282  0.2491805588630458  0.2593906407386916
  0.7385563388756349  0.7664472584940564  0.8534181007194014
  0.2364203209183569  0.7420561810280678  0.2464263504694186
  0.0235933700217706  0.2500753015736983  0.7537575659891452
  0.7491025789378132  0.7309192708981104  0.2465806709384709
  0.2538866492068556  0.2271355638635499  0.7211739510904897
  0.1301875901524389  0.2581821243384219  0.2667341682849576
  0.5020497754937400  0.7416433656333592  0.7308179990000562
  0.2388979729698328  0.5044198168433962  0.1176512563595796
  0.4605298157586444  0.9215465029986543  0.6227916307743064
  0.7174892257309197  0.2955687073395347  0.8757739208426205
  0.2774194205738310  0.5145065864685332  0.3635323888732985
  0.2438787706613557  0.7282945181168384  0.8852889934087956
  0.7509243563340653  0.0063332046084201  0.3702103556276287
  0.7420439959000077  0.0184444880142915  0.1157257617278728
  0.2714370272631168  0.4702226072773615  0.6217778520952089
  0.5055198589143906  0.4940459583875489  0.0024462260951560
  0.2274788560999462  0.7784854196232481  0.3837864442158604
  0.7237217572691064  0.7122843945104808  0.6101277986718223
  0.2341670997313362  0.9787880886425319  0.1351635573654004
  0.2414256562629291  0.0335555599790765  0.6265552515269409
  0.7439297060948258  0.5019981371008880  0.1251842692804606
  0.2595165493459213  0.9650059492791524  0.8797059659819383
  0.8018881761877276  0.3883658734974809  0.3782282193133806
  0.2543705786584850  0.0058045202141618  0.2514786539729559
  0.7666524541985542  0.4977879702878340  0.7496951923202336
  0.2261706169599577  0.9944842812260017  0.7554540020796350
  0.7222092876410500  0.4908941320213966  0.2523133421024153
  0.2456163242132734  0.9625807347279194  0.0038091222784387
  0.7421030163027813  0.4601138041935670  0.4980129920529300
  0.2369177542082891  0.0065330750866851  0.4985102739025000
  0.7617223094436005  0.5333192204585965  0.9937534796170571
  0.7310188003224394  0.9909530104076577  0.7428854863379850
  0.2185787311500772  0.4901515509488555  0.2434017156907146
  0.2603168464943530  0.4848735433365381  0.7511664161167347
  0.7513649462655404  0.9911026183072066  0.2423903143469645
  0.2466345187065325  0.5001954289339867  0.4888346741198913
  0.7336448917567137  0.0374932998127935  0.9932626095673029
  0.7366554719775702  0.9437858272220233  0.4985545719463572
  0.2636382047458836  0.4843475894008372  0.9938862581213540
  0.0109114391950888  0.2236368313140454  0.3782908624478047
  0.4964312639081679  0.7360647832089936  0.8711896466398280
  0.4912961679155442  0.2217753691274470  0.6164448942016169
  0.0014073982858813  0.7593266357137460  0.1275466708183201
  0.9994405920139654  0.2455630757021091  0.8754961266484743
  0.5053981522865317  0.7392996733272179  0.3637834192985023
  0.0004791952053869  0.7295334407076534  0.6259602581808354
  0.4856185410267162  0.2668562373109217  0.1269564098399485
  0.1528683363729390  0.3888636493295487  0.0408033569934130
  0.6225806292883562  0.8524440365861213  0.5441606802905066
  0.6371551880916240  0.1450273689784056  0.9535625905284909
  0.1645771450697622  0.6036991174877386  0.4345632736178675
  0.3669222866183184  0.3766267709950299  0.9501987239305756
  0.8335032660856930  0.8576534778881501  0.4518880221171821
  0.8309787215786268  0.1348086164359685  0.0457495515385102
  0.3469784697677339  0.5934483349878613  0.5362684643568183
  0.8332706957102229  0.0936419536218591  0.1945616195000782
  0.3592223735836689  0.5868323290699884  0.7058894638748608
  0.8438962375447706  0.8929280001419390  0.2920850623629929
  0.3678221134959181  0.3770401710315826  0.7925939316834363
  0.1210487298577826  0.5907853850716851  0.2979652156044643
  0.6450292672470803  0.0982616126559975  0.7936142805674946
  0.1148706802163881  0.4067178196155931  0.1904609582121597
  0.6166676481954542  0.8940313005773090  0.6963555296576526
  0.8477541856155050  0.6302342337016054  0.9511778620846506
  0.3480103220671608  0.0931708779912813  0.4547896318612988
  0.8413246701790740  0.3523419730590094  0.5498429633919526
  0.3388810893530663  0.8624748248255223  0.0561855542004319
  0.1245334583919910  0.1079732291308553  0.5390992759320459
  0.6566766143788215  0.6223017703306002  0.0493401714954309
  0.1546020463177870  0.8625687793424217  0.9515234137724461
  0.6392765854256650  0.3618965094386544  0.4532276289894946
  0.6324509189624622  0.3987427772029474  0.3026142917435328
  0.1396880861703169  0.8810556032825666  0.8041461655969735
  0.1211370011588943  0.0803920589045376  0.7123125066621171
  0.6269782914578692  0.5946686995870466  0.2021959782197360
  0.8642765491285817  0.3922692254221455  0.7061647293116975
  0.3600388149830848  0.9159095337509359  0.1961145596259467
  0.3574660826154824  0.0997390182152583  0.2989156674774316
  0.8757057232507285  0.5955747528093044  0.7927793465984836
  0.1524734717611913  0.0597192478030531  0.0478628157734900
  0.6524259661247843  0.5723762124918621  0.5465001715156728
  0.6674712238580827  0.4299252736624576  0.9459744557254590
  0.1404588473944389  0.8958343091973304  0.4503486445617506
  0.3401690477826426  0.0773627062792801  0.9631504248678874
  0.8315550790543007  0.5504173757777374  0.4460074513151944
  0.8556725935327565  0.4525310942662522  0.0512316032118535
  0.3299709089189399  0.9042837695512141  0.5521458437476503
  0.1486859477174397  0.1040785453887351  0.2080329138993588
  0.6609065674278970  0.5860394732708870  0.7002162999243644
  0.1519759886560312  0.9018083079429384  0.2970693728095293
  0.6635417247566398  0.3967541165840436  0.7914813512859181
  0.8068916063737527  0.5806361869522151  0.3074529643884519
  0.3319295874446643  0.0927483586912449  0.8025042483173540
  0.8107796391444902  0.3922619637772241  0.2030176350590698
  0.3240944084403812  0.8983506636238761  0.7031852298245144
  0.8500307590206766  0.9472389208359080  0.9425017650886371
  0.3535461243774571  0.3919288155393151  0.4516638164931397
  0.8276431771297109  0.0386812095692340  0.5487970561789896
  0.3616226557007238  0.5819971761260286  0.0452742116843356
  0.1277337799248254  0.4328628367008205  0.5382349731017090
  0.6326566022752828  0.9387529793598555  0.0398133671138515
  0.1701980626686768  0.5752725628648141  0.9497866440325448
  0.6321757246392361  0.0542902079599863  0.4489310970392463
  0.3136508942961405  0.3939654223535825  0.2881998819573464
  0.8110913289613668  0.9043636541647533  0.8044255216542773
  0.8358515535707292  0.0737592380189713  0.6933648699054116
  0.3304476626756828  0.5871309417921400  0.2016591910036602
  0.1739237732139055  0.3859007070206065  0.6998230242570951
  0.6606737854188555  0.8904437007907993  0.1907033725466257
  0.6573130873739189  0.0850029169488552  0.2923968217680685
  0.1636980347422859  0.5704040486257784  0.8021365071518129
  0.0802612359710034  0.1179299981157506  0.3368967188436896
  0.5753422334990399  0.6686936926795769  0.8101682764424850
  0.5847671546441134  0.2880845245776064  0.6694732112120185
  0.0801060980232409  0.8375594730355697  0.1761907593999471
  0.4106039259078034  0.1084207112546063  0.6535779767672192
  0.9020614209201576  0.6698865226803608  0.1714428441000059
  0.9516390745454155  0.3200105544086576  0.3230841787107596
  0.3915668594153670  0.8286747208502248  0.8376745027805711
  0.0646524845184036  0.1398955225047767  0.9226972766337833
  0.5715686660685999  0.6379560166117092  0.4155969018216565
  0.0878501594865167  0.8332885706306747  0.5846380061852111
  0.5516950971405109  0.3729587527563862  0.0797182973825962
  0.9263526718721651  0.6421995710044485  0.5760467832099333
  0.3725448154002399  0.1823929200184372  0.0926983269531256
  0.9261105195917652  0.3480845413223708  0.9192859103822628
  0.4038713144798761  0.8315833336823882  0.4070808316424241
  0.8953769940068075  0.8097294535931364  0.6693140895310580
  0.4142251407342958  0.3348412713742632  0.1853315826947262
  0.8991779135184589  0.1769655785393092  0.8272648256751439
  0.4140171257670627  0.6677016702281495  0.3133635233807723
  0.1085966577295868  0.3107740403611912  0.8320251978667956
  0.6161014054540010  0.8244778629901782  0.3254860282585272
  0.0866369399883842  0.6342288723660512  0.6669387473452422
  0.5965001746267871  0.1702472284098665  0.1507847150676679
  0.4001026437276916  0.3164713272838188  0.5780377815221113
  0.9102825842670799  0.8499706945013045  0.0887013660463877
  0.8990028877149064  0.1429423765302408  0.4194934979449530
  0.4322166470676319  0.6286380140831150  0.9211628297985078
  0.0979792122696120  0.3108807548618325  0.4201766924681914
  0.5969122688777619  0.8038429466437249  0.9171351088809550
  0.5742055787834520  0.1300129507703281  0.5700941108182204
  0.1041468181347864  0.6667210487221396  0.0878849410960288
 
 -0.68253904E-02  0.73680954E-02 -0.44505562E-03
 -0.19823655E-02 -0.51160504E-03  0.56621093E-02
 -0.55775196E-02  0.48476933E-02  0.59634668E-02
 -0.36894809E-02 -0.89354221E-03 -0.32578018E-02
 -0.43281450E-02  0.70654775E-03 -0.11211381E-02
 -0.99563738E-02 -0.50134589E-02  0.43594016E-03
  0.22484751E-02 -0.12028965E-01  0.38573486E-02
 -0.24829791E-03 -0.13603886E-02 -0.36410322E-03
 -0.77353090E-02 -0.12898890E-03  0.89068812E-03
 -0.41991972E-03  0.20668229E-02 -0.30794223E-02
  0.18873490E-02 -0.13517025E-02 -0.72199201E-02
  0.44852019E-02 -0.83169649E-02  0.87904272E-03
 -0.33677078E-02  0.37096154E-02  0.65775093E-03
 -0.75279639E-03 -0.39254495E-02 -0.30891180E-02
 -0.57324611E-03 -0.47090222E-02  0.32465490E-03
 -0.34005907E-02  0.67422039E-03  0.69310285E-03
 -0.39417020E-02  0.40227411E-02 -0.53164299E-02
  0.26493268E-02 -0.16170625E-02  0.22442541E-02
  0.53958248E-02 -0.82510020E-02  0.53402683E-02
 -0.13745751E-02  0.65979218E-03  0.74536133E-02
  0.24936302E-02 -0.21178175E-02 -0.30014601E-02
  0.18552449E-02 -0.46992631E-02  0.50857297E-02
 -0.16841967E-03 -0.79710721E-03  0.20175611E-02
 -0.10904280E-02 -0.11493993E-02  0.21448318E-02
  0.95211647E-02  0.85554918E-02 -0.44465720E-02
 -0.25682834E-02 -0.81874455E-03 -0.71669863E-03
 -0.24093342E-02  0.46025734E-02 -0.35284743E-02
 -0.22595427E-02  0.91376560E-02 -0.24522166E-02
  0.27279088E-02 -0.37144122E-02  0.19689322E-03
 -0.12828649E-02  0.46894362E-02  0.15142020E-02
 -0.21417705E-02  0.85298546E-02 -0.62763784E-02
  0.89349561E-02  0.22270686E-02  0.32739670E-02
  0.46533870E-02  0.11645064E-02  0.20615624E-02
 -0.37978509E-03 -0.25820766E-02 -0.49095152E-02
 -0.75392681E-02  0.46401984E-02  0.26994927E-02
  0.10464814E-01 -0.45763615E-03  0.54580854E-02
 -0.28949412E-05 -0.28221257E-03 -0.46609601E-03
  0.66727404E-02 -0.21092273E-02  0.21914009E-02
  0.18367571E-03 -0.18582468E-03  0.21547646E-02
 -0.18905898E-03  0.40214767E-03  0.33119888E-02
 -0.35966961E-02  0.73826662E-02  0.43124133E-03
  0.10698707E-02  0.16409509E-02  0.11007761E-02
 -0.23125414E-02 -0.53957318E-02  0.17414945E-02
  0.63358492E-02 -0.25778576E-02 -0.90761630E-02
  0.10267781E-01  0.52044345E-03 -0.42452487E-02
  0.56719492E-02 -0.67795127E-02  0.65976179E-03
 -0.81889807E-02  0.41418888E-02  0.11122154E-02
 -0.68838182E-02 -0.38194739E-02 -0.91745274E-03
 -0.59119832E-02  0.51111155E-02 -0.69721874E-02
  0.49414837E-04 -0.11707686E-02 -0.11976347E-01
  0.42514247E-03 -0.78856593E-02 -0.45254935E-02
 -0.44658639E-02  0.65320046E-03  0.64266474E-03
 -0.38642730E-02  0.39828983E-02  0.37705114E-02
 -0.13661321E-02 -0.44962234E-02 -0.16387353E-02
 -0.20027713E-02  0.45735039E-02 -0.43407240E-02
 -0.76729617E-03  0.44706487E-03 -0.37322998E-02
  0.26424093E-02  0.73032401E-02  0.23309844E-02
  0.57777286E-02 -0.21264265E-04  0.16282578E-02
 -0.41554844E-02 -0.43397577E-02  0.84871822E-02
 -0.59281745E-02 -0.37365605E-02  0.17044897E-03
 -0.69851504E-02 -0.34313404E-02 -0.67900459E-03
 -0.32782920E-02  0.18620852E-02 -0.55071021E-02
  0.33080117E-02 -0.22275301E-02 -0.96027823E-02
 -0.16424116E-02 -0.16552356E-02  0.35851090E-02
  0.60591698E-02 -0.46465980E-02  0.57771707E-02
  0.12302826E-01 -0.13836406E-02 -0.33927718E-02
 -0.18473005E-02 -0.15025979E-02  0.38252880E-02
  0.28137745E-02 -0.19838700E-03  0.27999073E-02
 -0.20518161E-02 -0.18810096E-02 -0.18273145E-02
  0.34921790E-02 -0.17036217E-02 -0.29669176E-02
 -0.12649251E-02 -0.39870286E-02 -0.19427641E-02
  0.59080251E-02  0.16051711E-02  0.33873057E-02
  0.20466954E-02 -0.79599828E-02  0.35616001E-02
 -0.10239949E-01  0.95626960E-02  0.12254501E-02
 -0.18201802E-02 -0.87135266E-03  0.16312214E-02
 -0.11487769E-02  0.31525323E-02  0.24032097E-02
 -0.35702208E-02 -0.34517705E-02 -0.53190578E-02
 -0.35601180E-02  0.24227036E-02  0.31907175E-02
 -0.98293461E-03  0.77574713E-03  0.47305952E-02
 -0.33133267E-03  0.59490353E-02 -0.54345819E-03
  0.25407566E-03 -0.61543802E-03  0.51826204E-02
  0.81434726E-02  0.31440909E-02 -0.19402578E-02
  0.66557987E-02  0.39345450E-02 -0.25810815E-02
 -0.18155794E-02 -0.28197967E-02  0.70180275E-02
  0.19328040E-03  0.26515150E-02  0.18585300E-02
  0.77711946E-02  0.73412088E-03  0.42653889E-02
 -0.44355043E-02  0.38645344E-02 -0.70189249E-02
 -0.15927277E-02  0.28760216E-02  0.69427489E-02
 -0.13942290E-03 -0.93136169E-03 -0.80393076E-03
 -0.34718432E-02  0.19000641E-02  0.16589572E-03
 -0.30164534E-02  0.24417953E-02 -0.18031158E-02
 -0.15029005E-02  0.21494068E-02  0.24393768E-02
 -0.18062972E-02 -0.24734906E-02  0.65488930E-03
 -0.78402633E-03 -0.39463896E-02  0.14474886E-02
 -0.21065308E-02  0.31440024E-02 -0.20320152E-02
  0.15336411E-03 -0.93672333E-03  0.80915187E-03
 -0.12240685E-03 -0.33615292E-03 -0.45646772E-02
 -0.58370304E-03  0.74471145E-02 -0.30655597E-02
 -0.28564270E-02 -0.36842417E-02  0.52301061E-02
  0.19957938E-02  0.68496905E-03 -0.23293265E-03
 -0.10006074E-02 -0.30944985E-02 -0.13678700E-02
  0.23412763E-02  0.23780074E-02 -0.13713556E-03
  0.51044210E-02  0.12845640E-04  0.23075713E-02
  0.26170769E-02 -0.15662337E-02  0.14541572E-02
  0.44898097E-02  0.21448778E-02  0.68462945E-03
 -0.97805413E-03 -0.62660781E-02  0.37958936E-02
 -0.20217674E-02  0.14706273E-02 -0.47659785E-02
 -0.22366834E-02 -0.16181821E-02 -0.23884593E-03
 -0.23509592E-02 -0.32406942E-02  0.28192920E-02
  0.72962412E-02  0.99936942E-03 -0.55490342E-03
 -0.87633091E-02  0.68407228E-02 -0.94548732E-03
 -0.24381916E-02 -0.27346006E-02 -0.17362819E-02
  0.29617675E-02  0.29529303E-03  0.25092639E-02
  0.37077238E-02  0.92250129E-03  0.95670753E-03
  0.55407471E-02  0.43054370E-02 -0.39790146E-03
  0.11648678E-02 -0.51466702E-02  0.22036122E-02
  0.58663167E-02 -0.32297536E-02  0.50544692E-02
 -0.56090087E-02  0.16522670E-02  0.45650273E-02
 -0.13735633E-02  0.48025090E-02 -0.32429188E-02
 -0.14557862E-02 -0.23361603E-02  0.51284784E-02
  0.35977247E-02 -0.96012933E-03  0.23832218E-02
  0.17324026E-02 -0.24604953E-02 -0.14833324E-02
  0.87789498E-02 -0.36179998E-02 -0.83756059E-03
  0.26802664E-02 -0.15598756E-02 -0.33806853E-02
  0.42182853E-02  0.43200629E-02 -0.22908435E-02
 -0.33482943E-02 -0.45709993E-02  0.68144926E-02
 -0.59060157E-02  0.21892473E-02 -0.20853603E-02
 -0.57707224E-03  0.92218334E-04 -0.60863809E-02
 -0.53034126E-03  0.48992867E-02  0.10210397E-02
  0.31966915E-02 -0.12289266E-02 -0.15449096E-02
 -0.25930835E-03 -0.33743313E-02 -0.10419788E-02
  0.51280079E-02  0.35076056E-02  0.26312804E-02
 -0.93714221E-03  0.21949267E-02  0.83196312E-03
  0.32073691E-02  0.24426416E-02 -0.28634535E-02
  0.21437265E-02 -0.43234597E-02  0.38814675E-02
 -0.11625343E-02 -0.34303682E-02 -0.19837698E-02
  0.22488774E-02 -0.31524099E-02  0.15915270E-02
  0.66511546E-03 -0.82914853E-02  0.75450159E-02
  0.26000167E-02  0.18724419E-02 -0.14925173E-04
 -0.66473843E-02  0.66862594E-03  0.45869251E-02
 -0.99205845E-03  0.19423050E-02  0.22438401E-02
 -0.50199262E-02  0.38053983E-03  0.24070500E-03
 -0.29632684E-02  0.64938283E-03 -0.28376572E-02
 -0.27905070E-02  0.37923439E-02 -0.62464692E-03
 -0.41437498E-02  0.14724498E-02 -0.90572822E-03
 -0.63319513E-03 -0.22579714E-02 -0.56707616E-02
 -0.65288952E-03  0.11387977E-02  0.57641051E-02
 -0.61189856E-02  0.38456215E-02 -0.67141545E-02
  0.54168064E-03 -0.14312746E-02 -0.24340602E-02
  0.77329358E-02  0.56975749E-02 -0.26255963E-02
  0.34110779E-02  0.30470569E-02  0.41849444E-02
 -0.10000641E-02 -0.68064097E-04 -0.17684607E-02
  0.49948804E-02 -0.23962905E-02 -0.10623876E-02
  0.69076821E-03 -0.14688577E-02  0.24395891E-02
  0.57568498E-02 -0.24341556E-02  0.59353856E-02
  0.33289977E-02  0.32724450E-02  0.38241565E-02
 -0.33656294E-02 -0.22151274E-02  0.59421570E-04
 -0.74314711E-02  0.16506867E-02  0.24041556E-02
 -0.34251456E-04 -0.43463464E-02  0.11436511E-02
  0.18695753E-02  0.14294507E-02  0.71513522E-03
 -0.46142726E-02  0.81835039E-03 -0.13909966E-02
 -0.28203964E-02  0.19548024E-02  0.39721804E-02
  0.93871903E-03  0.43447118E-02 -0.45505837E-02
  0.44164207E-02 -0.51554406E-02 -0.50795504E-02
 -0.34316764E-02  0.12604558E-02 -0.44693527E-02
  0.10375276E-02 -0.90758974E-03 -0.49731588E-02
 -0.47166933E-02  0.58639544E-04  0.37605239E-03
 -0.13496457E-03 -0.42557076E-02  0.20318308E-02
  0.14543986E-02 -0.23682194E-02 -0.64089952E-03
  0.76146680E-02 -0.43407367E-02 -0.18173573E-02
 -0.34263644E-02  0.10417149E-01  0.14915931E-02
  0.12977784E-02 -0.16499773E-02 -0.17927112E-02
 -0.37113230E-02  0.36106465E-02  0.29834535E-02
 -0.34333380E-02 -0.61561641E-03  0.40844826E-02
 -0.28795356E-02 -0.20600994E-02  0.13037528E-02
  0.25740971E-02 -0.47462617E-02  0.22441940E-02
  0.11933376E-02  0.10579638E-03 -0.37784949E-02
  0.24211546E-02  0.48394579E-03  0.88194261E-04
 -0.32272482E-02 -0.11457260E-02  0.67151271E-04
 -0.17406073E-02 -0.22829078E-02 -0.36678401E-02
 -0.57348957E-03  0.21929305E-02  0.34652496E-03
  0.16887800E-02  0.84529393E-04 -0.16101491E-02
  0.99584232E-03 -0.61226531E-02 -0.46745977E-02
  0.29859047E-02 -0.14131473E-02  0.21429518E-02
 -0.52174919E-02  0.96032116E-03 -0.31198359E-02
  0.51752013E-02 -0.22600411E-02  0.97160817E-03
  0.72338369E-02  0.46868238E-02 -0.29960179E-02
  0.62780384E-02  0.29917932E-02  0.63395510E-02
  0.39153953E-02  0.52939613E-02  0.26816460E-03
  0.61555303E-03 -0.81941105E-02 -0.19462159E-02
  0.23871774E-02  0.52969386E-03  0.12216605E-02
  0.62937264E-02  0.87833603E-03 -0.15241448E-02
 -0.41672340E-02 -0.37780303E-02 -0.31774905E-03
  0.15406586E-02  0.49682168E-03 -0.46295685E-02
 -0.68461847E-03  0.27827610E-02 -0.51480262E-02
 -0.26782128E-03  0.36549917E-02  0.21993486E-02
 -0.52185196E-02 -0.35460118E-02 -0.38368458E-02
  0.44867570E-02  0.28023243E-02 -0.58851706E-02
 -0.18571566E-02 -0.52804102E-02 -0.28534143E-02
 -0.32440365E-02  0.12751445E-02 -0.70986378E-02
 -0.60595117E-02  0.37863742E-02 -0.62187541E-02
 -0.28091573E-02  0.20506616E-02  0.10224784E-03
  0.62613692E-02  0.17338564E-02 -0.20991895E-02
 -0.32655913E-02  0.35357601E-02  0.53293864E-02
 -0.42408687E-03  0.85582911E-03  0.45194934E-02
  0.53463043E-03  0.10795499E-02  0.40892578E-02
 -0.18421191E-02 -0.91698144E-03  0.12542457E-02
  0.75378828E-03 -0.72826698E-02  0.28666830E-02
 
           1
   2.00000000000000     
  0.11398980E+01 -0.22061336E-03  0.00000000E+00  0.00000000E+00
  0.97986900E+00  0.42165154E-01  0.12102906E+00
  0.51158652E+00  0.46423591E+00  0.71808987E+00
  0.27636180E+00  0.47757536E+00  0.87292943E+00
  0.97623685E+00  0.96546204E+00  0.37775593E+00
  0.71247277E+00  0.12668217E-01  0.87025090E+00
  0.78170884E-02  0.49226544E+00  0.37862238E+00
  0.76880298E-02  0.52052712E+00  0.12794985E+00
  0.22573486E+00  0.27451324E+00  0.14351782E+00
  0.69107533E+00  0.96967153E+00  0.61392045E+00
  0.75960292E+00  0.24796728E+00  0.74305217E+00
  0.75576891E+00  0.72405962E+00  0.37239257E+00
  0.27057006E+00  0.22990446E+00  0.87997836E+00
  0.77078662E+00  0.27821633E+00  0.12475242E+00
  0.27070898E+00  0.73743983E+00  0.63919584E+00
  0.96404200E+00  0.99943262E+00  0.86858556E+00
  0.51654259E+00  0.44643067E+00  0.37957321E+00
  0.98574648E+00  0.68401917E-02  0.61370530E+00
  0.98109515E+00  0.44917603E+00  0.62866507E+00
  0.45663484E+00  0.62009323E-02  0.11425714E+00
  0.13223720E-01  0.49158353E+00  0.86342386E+00
  0.51047530E+00  0.98899730E+00  0.37181010E+00
  0.25809084E+00  0.19111038E-01  0.37501358E+00
  0.77100604E+00  0.51855224E+00  0.86800918E+00
  0.71754980E+00  0.46106021E+00  0.63145327E+00
  0.26988351E+00  0.75545132E+00  0.13317931E+00
  0.24228646E+00  0.26128110E+00  0.50307968E+00
  0.72649360E+00  0.76119237E+00  0.12986733E+00
  0.75191693E+00  0.18435108E+00  0.48185251E+00
  0.48233748E+00  0.72423154E+00  0.49224387E+00
  0.48185630E+00  0.24548204E+00  0.47011577E-02
  0.97615557E+00  0.25077801E+00  0.49822108E+00
  0.76964971E+00  0.75042859E+00  0.73399066E+00
  0.62442687E-02  0.74701513E+00  0.26617246E+00
  0.49058416E+00  0.20506116E+00  0.75484110E+00
  0.99317581E+00  0.98733625E+00  0.99829728E+00
  0.50832306E+00  0.21986934E+00  0.48752132E+00
  0.49145964E+00  0.75526189E+00  0.14350320E-01
  0.76714234E+00  0.24493507E+00  0.26778138E+00
  0.21546243E+00  0.73384361E+00  0.73874744E+00
  0.49343988E+00  0.77642007E+00  0.24327545E+00
  0.97230400E+00  0.99774088E+00  0.23939847E+00
  0.51663640E+00  0.46441464E+00  0.85634603E+00
  0.47762148E+00  0.98042156E+00  0.77077345E+00
  0.97749536E+00  0.47706518E+00  0.25519865E+00
  0.26708888E+00  0.24235060E+00  0.96904600E-02
  0.73892067E+00  0.71253951E+00  0.49267865E+00
  0.21298525E+00  0.74915851E+00  0.51459197E+00
  0.77335678E+00  0.29320896E+00  0.98981176E+00
  0.98761132E+00  0.91143952E+00  0.74111150E+00
  0.47374684E+00  0.51834115E+00  0.26119331E+00
  0.25684363E-01  0.50953244E+00  0.74077984E+00
  0.51570088E+00  0.20215408E-01  0.23168052E+00
  0.26710612E+00  0.26622386E+00  0.37116586E+00
  0.76852855E+00  0.77469824E+00  0.70966314E-02
  0.74587036E+00  0.20178074E+00  0.61008463E+00
  0.22069344E+00  0.71885542E+00  0.76257714E-02
  0.99532209E+00  0.27080459E+00  0.72319005E-02
  0.49628899E+00  0.45986356E+00  0.52453499E+00
  0.48199258E+00  0.51538172E+00  0.13333139E+00
  0.10339052E-01  0.57950223E+00  0.50140208E+00
  0.49602892E+00  0.98020089E+00  0.93831402E+00
  0.96936019E+00  0.91163999E+00  0.51438343E+00
  0.99590085E+00  0.52876552E+00  0.99497347E+00
  0.48717905E+00  0.97070292E+00  0.50372309E+00
  0.49757435E+00  0.24848403E+00  0.25982364E+00
  0.74040053E+00  0.76623985E+00  0.85316381E+00
  0.23614341E+00  0.74183094E+00  0.24671306E+00
  0.24015155E-01  0.25004556E+00  0.75396742E+00
  0.74879501E+00  0.73063731E+00  0.24644371E+00
  0.25441013E+00  0.22688019E+00  0.72095158E+00
  0.12999798E+00  0.25758447E+00  0.26658856E+00
  0.50293539E+00  0.74188398E+00  0.73107188E+00
  0.23920477E+00  0.50322661E+00  0.11791820E+00
  0.45899485E+00  0.92297995E+00  0.62288348E+00
  0.71721638E+00  0.29543809E+00  0.87589618E+00
  0.27724722E+00  0.51497915E+00  0.36371251E+00
  0.24334359E+00  0.72777710E+00  0.88489033E+00
  0.75039069E+00  0.66963682E-02  0.37044950E+00
  0.74189665E+00  0.18560773E-01  0.11608032E+00
  0.27138736E+00  0.47111437E+00  0.62173712E+00
  0.50555794E+00  0.49395370E+00  0.28346638E-02
  0.22869956E+00  0.77895672E+00  0.38364102E+00
  0.72471946E+00  0.71287418E+00  0.60993435E+00
  0.23389494E+00  0.97836540E+00  0.13568956E+00
  0.24145463E+00  0.33953022E-01  0.62669455E+00
  0.74509461E+00  0.50210818E+00  0.12550396E+00
  0.25885167E+00  0.96558524E+00  0.87917990E+00
  0.80164943E+00  0.38879699E+00  0.37874858E+00
  0.25434968E+00  0.56649090E-02  0.25141840E+00
  0.76613202E+00  0.49807279E+00  0.74970763E+00
  0.22571845E+00  0.99485031E+00  0.75531886E+00
  0.72198400E+00  0.49121633E+00  0.25249617E+00
  0.24534556E+00  0.96220996E+00  0.38582063E-02
  0.74198549E+00  0.45952224E+00  0.49812148E+00
  0.23660198E+00  0.70043615E-02  0.49835797E+00
  0.76174530E+00  0.53317881E+00  0.99381413E+00
  0.73100045E+00  0.99090262E+00  0.74254336E+00
  0.21849123E+00  0.49126787E+00  0.24317195E+00
  0.25988867E+00  0.48432128E+00  0.75155841E+00
  0.75166412E+00  0.99120530E+00  0.24237286E+00
  0.24648453E+00  0.49973156E+00  0.48873215E+00
  0.73399585E+00  0.37849763E-01  0.99325233E+00
  0.73742063E+00  0.94378775E+00  0.49872752E+00
  0.26403050E+00  0.48411281E+00  0.99399525E+00
  0.11584462E-01  0.22395835E+00  0.37834218E+00
  0.49628465E+00  0.73512550E+00  0.87147415E+00
  0.49099310E+00  0.22199582E+00  0.61608768E+00
  0.10721191E-02  0.75908407E+00  0.12752877E+00
  0.99908818E+00  0.24507730E+00  0.87570743E+00
  0.50649186E+00  0.73944948E+00  0.36374183E+00
  0.99916557E+00  0.73055887E+00  0.62588939E+00
  0.48525306E+00  0.26644632E+00  0.12682628E+00
  0.15331231E+00  0.38890791E+00  0.40991426E-01
  0.62313642E+00  0.85258232E+00  0.54423239E+00
  0.63798575E+00  0.14567275E+00  0.95353277E+00
  0.16475176E+00  0.60292763E+00  0.43472843E+00
  0.36780165E+00  0.37614263E+00  0.95057756E+00
  0.83266247E+00  0.85790115E+00  0.45223017E+00
  0.83077282E+00  0.13552851E+00  0.45506495E-01
  0.34676025E+00  0.59309814E+00  0.53665284E+00
  0.83381000E+00  0.93498030E-01  0.19474024E+00
  0.35948206E+00  0.58646350E+00  0.70577829E+00
  0.84521220E+00  0.89238566E+00  0.29202229E+00
  0.36822389E+00  0.37680635E+00  0.79234055E+00
  0.12168105E+00  0.59143296E+00  0.29779352E+00
  0.64452736E+00  0.97576419E-01  0.79412503E+00
  0.11398537E+00  0.40704599E+00  0.19030466E+00
  0.61658114E+00  0.89404512E+00  0.69589936E+00
  0.84767469E+00  0.63096864E+00  0.95125439E+00
  0.34848951E+00  0.92986662E-01  0.45467384E+00
  0.84128580E+00  0.35183616E+00  0.54976487E+00
  0.33964978E+00  0.86300062E+00  0.56382769E-01
  0.12439298E+00  0.10830225E+00  0.53916163E+00
  0.65715740E+00  0.62266792E+00  0.49125555E-01
  0.15492339E+00  0.86192069E+00  0.95181433E+00
  0.63910232E+00  0.36138230E+00  0.45307895E+00