Na88 Sn16 P8 Se96                       
   1.00000000000000     
    14.0793397336999995    0.0000000000000000    0.0000000000000000
     0.0000000000000000   14.0793397336999995    0.0000000000000000
     0.0000000000000000    0.0000000000000000   28.1586794673000007
   Na   Sn   P    Se
    88    16     8    96
Direct
  0.9807265617475925  0.0029903177177906  0.1351992273719262
  0.5175607934547283  0.5041313136857690  0.6136725858699039
  0.5087641282211721  0.4694046270394129  0.8725469445469345
  0.0025780452718014  0.9444766511632054  0.3908819856760784
  0.4785325983066807  0.0085072947826490  0.8540938762296412
  0.9905525922875108  0.5039622428233042  0.3749026961413959
  0.1997611847890876  0.4993751310116251  0.1286530219906313
  0.2253238526666363  0.2596711621025320  0.1115973427761339
  0.7573549414969752  0.7109054427534530  0.6248781434158223
  0.7401122952150501  0.2286531867190534  0.8751118083719870
  0.7678367216834477  0.7254454914540273  0.3798490868134672
  0.2441253344482450  0.2477119767105366  0.8395576117858440
  0.7665454031388932  0.2740308396780418  0.1231683814235992
  0.3028248822139551  0.7603950078154098  0.6376739737333575
  0.9733266247824992  0.9899828020763072  0.8900758320971984
  0.4676109053749284  0.4963883740256119  0.3706761209362063
  0.7205760844602299  0.0450668070364239  0.6178627044460022
  0.9930275764217708  0.4886520611234114  0.5098814043325245
  0.4868206685207903  0.9963381156132937  0.0022120792637854
  0.9833840499655068  0.5012597538374872  0.9022884185464090
  0.5045966486658423  0.0279664646812221  0.3691551947707226
  0.2619168926935770  0.2389228234430739  0.2477301832172697
  0.7831371232467961  0.7294602684996981  0.8681744731748291
  0.7341977300721152  0.3535615855534153  0.6348852167065421
  0.2568973772677103  0.7407881836368302  0.2737675432246271
  0.2016998992222013  0.2294848373422304  0.6389882278331677
  0.7531671354762320  0.7796842593982003  0.1354810196043952
  0.7404007314268862  0.2572796015232135  0.3803973481731618
  0.4708410361893967  0.7638929127028452  0.5052824665422129
  0.4763346118351708  0.2365103662335399  0.0032164348769050
  0.0094475177735347  0.9277910175603266  0.5140194838656664
  0.4999405485663155  0.7673571144378994  0.7430227598671258
  0.0222392717955316  0.7545821265641838  0.2592152934868310
  0.7729899124933336  0.2437358857324688  0.7586733647802066
  0.9914906393840517  0.2416277702882714  0.0031443287417020
  0.4915362988922349  0.2339604614449352  0.4857869577757369
  0.5311394920964970  0.5306646708560364  0.0014420672621041
  0.4899868087737702  0.2756125546125745  0.2453621830270686
  0.1358934347407340  0.7626310265932762  0.7385226446558908
  0.4955972185786053  0.7686626396777135  0.2528811685948399
  0.0065528010406540  0.0409011764869629  0.2704277993795443
  0.5355785487695817  0.5112018102343476  0.7540072608908993
  0.4968462262005805  0.0175639300765445  0.7381891651658683
  0.9713049639801109  0.5182946285494753  0.2345174155316607
  0.2307867757844435  0.2248205362987257  0.9730740079482425
  0.7587594471475010  0.7392911696561992  0.4905205546664715
  0.1544317247386946  0.7146229434954903  0.5310547427934101
  0.7514526968853831  0.2576178294682220  0.0105812073883624
  0.9767743268040415  0.9835809388444388  0.7605079176574722
  0.4915484002386553  0.5032525904334294  0.2399436070253710
  0.0207349735001197  0.5100193008365845  0.7464514935324978
  0.4997292800070877  0.0430731726617478  0.2196192734329060
  0.2454839543589811  0.2497615062366926  0.5016750380222574
  0.7829604040980115  0.7692994197878027  0.0104944670105440
  0.7466609004158636  0.2107391946125818  0.5100991337431322
  0.2102651885776209  0.7353521697207069  0.0125122288012966
  0.0202578693239013  0.5279894886638076  0.0100858927240678
  0.4972165901146234  0.5170911740749745  0.4919150984001294
  0.4982035417026680  0.5080959063910072  0.1149161569219780
  0.9819408951256405  0.9954982156412193  0.6350928170217278
  0.4923950864998206  0.7428291901158185  0.0116097194989084
  0.9896804783577758  0.2354320447989661  0.5102258144071314
  0.9963965251124942  0.9834392445784477  0.9999781356018567
  0.5050640288460270  0.9998469201900120  0.4976381809002214
  0.9860252091860658  0.2656903833766732  0.2434552931947955
  0.7724270363025354  0.7375112169187438  0.7434065593156819
  0.2496161356871443  0.7046544761568077  0.3847050487618920
  0.0637655415087718  0.2550581499154404  0.7506073885680197
  0.7497040441341585  0.7738890898487293  0.2540784435823044
  0.4709664372518064  0.2361478093828240  0.7612345806935371
  0.7570397616612388  0.2599134643004539  0.2651888701125131
  0.2234805384122151  0.7417930484192753  0.8725479222548663
  0.2373279840995701  0.7487538561302010  0.1443983210309343
  0.4946833204033132  0.9869994970438352  0.6193047239948991
  0.7042660471138622  0.9883075977380770  0.8725734050724075
  0.2264182839659898  0.4085257612315259  0.3819137544472263
  0.2798301808554206  0.5009054156062676  0.8649104628760722
  0.7578755648436132  0.9979515581728464  0.3752378742344241
  0.6899170691022088  0.0511974381030563  0.1159974242242743
  0.2519858929160798  0.4706921932544054  0.6222014046940916
  0.7506308201558509  0.4823140975683256  0.8794054987451805
  0.2405644035215951  0.0718068434931801  0.3838899133000531
  0.9820299718500172  0.4462637112039303  0.6321758156235645
  0.2759571870842924  0.0227813621525485  0.1182816593029303
  0.2345853851524583  0.0150946227284651  0.6368106424899435
  0.7602938201567557  0.5284890550541724  0.1191588674249980
  0.2137737897095809  0.9983765534315178  0.8795847559470557
  0.7368920686665789  0.4809484491616873  0.3686382522585012
  0.2478149261270416  0.9791469652819490  0.2539269508071537
  0.7719078635578028  0.4740247887990406  0.7567828143912757
  0.2359774074578936  0.9966715836736442  0.7493976026654040
  0.7113908193681751  0.5187094442315467  0.2423295942940928
  0.2289102090158355  0.9650341384931497  0.9862490778980270
  0.7408540504356358  0.5056656815975341  0.5004538837731997
  0.2390485298505776  0.9989958954229593  0.5129230931219635
  0.7640658615731620  0.5017697802007026  0.9974907078487103
  0.7316473610505221  0.9853228208077731  0.7484296295236657
  0.2136546391236298  0.4898769267134664  0.2563083805902163
  0.2808902342034277  0.5173284175056850  0.7343397699467441
  0.7626096447053573  0.0183851633276168  0.2434942305907470
  0.2558183990655845  0.4858654138258290  0.4908805051301582
  0.7358688269340483  0.0135180157811000  0.0099750149042524
  0.7445416691854371  0.9752716074010400  0.4986785153994307
  0.2612206363356520  0.4817914335574404  0.9890313561707224
  0.9988676365752364  0.2606972315303031  0.3753522431723486
  0.5018201612919621  0.7450231986658802  0.8736480964737585
  0.4793689321880252  0.2472003923829470  0.6179462006841727
  0.9933833323411311  0.7580246990602670  0.1236066929270152
  0.9995950608524946  0.2568105331761304  0.8726685830347763
  0.5018619708421056  0.7405117858004222  0.3777907216835745
  0.0114543246541768  0.7449297034706939  0.6286451261873031
  0.5085705719692066  0.2642458352050042  0.1349151545443897
  0.1524987841256400  0.3806893191076938  0.0417099315056399
  0.6598554645052433  0.8757447880102168  0.5535303231496435
  0.6246385569937917  0.1196073070293534  0.9614971585865314
  0.1482099769720521  0.5736126429990749  0.4421182908461139
  0.3629012764765339  0.3835596698313399  0.9455610003557755
  0.8541562358217812  0.8764315118323805  0.4454428073649177
  0.8554441118173753  0.1197580026190192  0.0622403159668138
  0.3491975237804719  0.5850269883884091  0.5523566093167847
  0.8626581810068067  0.1295085402893468  0.1943833559073230
  0.4095086988699919  0.5939445191187761  0.6906773712086370
  0.8646419736945777  0.8982187698979682  0.2925487484589385
  0.3605040356447353  0.3866142347427445  0.7897360342196681
  0.1315956791872120  0.6051013732520570  0.3062964614249007
  0.6398682390580726  0.1122695895260481  0.7975153879929603
  0.1243337761292292  0.3794311624218500  0.2045551490483151
  0.6323536987507867  0.8920014956649887  0.6899955846437127
  0.8643855064200584  0.6238422136328446  0.9483657555766183
  0.3571379872776548  0.1044527410391797  0.4664626200915139
  0.8445824817616185  0.3851264089188563  0.5488822047188214
  0.3262517664452858  0.8718694676328352  0.0431826834131939
  0.1284143437385832  0.0950880034563343  0.5569389927212796
  0.6722058545946246  0.6284029485025683  0.0450149828576355
  0.1224623220344767  0.8631734369560226  0.9354681043045867
  0.6452779928067300  0.3840794014453625  0.4565036151857261
  0.6193598353032910  0.4003873559681836  0.2918567084508394
  0.1410736346580607  0.8984905984542232  0.8072176134377406
  0.1162192734226806  0.0975997470549046  0.7040988426379798
  0.6009457997255062  0.6208334335180392  0.1976372146923237
  0.8881413361830369  0.3632876822762512  0.7123521619309282
  0.3591543694050809  0.8794501344224923  0.2085873652407423
  0.3714866910390898  0.1123121715739373  0.2970132844827206
  0.8693451853643781  0.5856378562665699  0.8142666006996638
  0.1560394399149738  0.0912630591779017  0.0428905237125379
  0.6407589539899406  0.5984478160158949  0.5596415470586054
  0.6536060632294615  0.4015202481166377  0.9498358441479999
  0.1477137433048306  0.9063164158292072  0.4504389218374059
  0.3534146498167735  0.0764413696861772  0.9327121372121152
  0.8600966452239088  0.5941917148649489  0.4431549656547163
  0.8746374713283451  0.4144760884718298  0.0541565564498557
  0.3356302179976841  0.8868176602331639  0.5619670085484313
  0.1762412045923803  0.1006996083670975  0.1983536336567711
  0.6916250650349552  0.5758810359345287  0.6863729524005370
  0.1521028843552130  0.9165759081360878  0.3208082579819552
  0.6470972667195423  0.3870369052923011  0.8036389964729824
  0.8153183888612029  0.6136358128906152  0.2967389347702984
  0.3350853452357780  0.1101339571856530  0.7965064049272584
  0.8220809066614077  0.3996315751677383  0.1934380276599980
  0.3465155980181654  0.9016040689938476  0.7007687219241696
  0.8251667601020513  0.9287236844639444  0.9469158441791469
  0.3719918715244233  0.3913075884534401  0.4423235224328758
  0.8712356566794326  0.0714189729812134  0.5381862008268034
  0.3343771825547350  0.5949777888113955  0.0471648249126181
  0.1429297524292504  0.3860266804412685  0.5492369970648875
  0.6436222289969847  0.8979683434211172  0.0550720053392934
  0.1452508214871407  0.6062238203762169  0.9468399109618060
  0.6552860348050052  0.0859827655879288  0.4458551501391351
  0.3339723111206896  0.4019804739093109  0.3039351631598046
  0.8370909708040337  0.8877850026519696  0.8026082005226143
  0.8485524788872697  0.0764343577446418  0.6960748972443919
  0.3101062330174776  0.5805794536703516  0.1948524594794029
  0.1590522763043812  0.3927241694427977  0.7000433933294306
  0.6563210693105452  0.9246542087825471  0.1919494463139442
  0.6560484959518134  0.1017633565466735  0.3016016794953734
  0.1928784014970525  0.6175814061556167  0.7920698977807101
  0.1190793275110123  0.2212514903099453  0.3308522049866648
  0.5929897276350570  0.6703005632709523  0.8188807161557768
  0.5591287240078456  0.3122412089538837  0.6745428360915475
  0.0695971755429119  0.8490759865290995  0.1749687418719133
  0.3854040662449054  0.1499951799709114  0.6564239786942128
  0.9026969674516876  0.6508181514654476  0.1660964246567145
  0.9024541305716698  0.3497846269607327  0.3355121804873837
  0.3903288176840208  0.8185246090084108  0.8349034273387590
  0.1006268165943843  0.1707000860352446  0.9102460190706805
  0.5868423182829984  0.6442236972449427  0.4244558557045049
  0.1123325768415476  0.8526474625693798  0.6026412328495920
  0.5879293030790728  0.3364643570215861  0.0782421077423996
  0.9475064370378345  0.6924623738207576  0.5588505275080735
  0.4320837689960143  0.1467604186873132  0.0964541261227906
  0.9045099597419423  0.3259084282438839  0.9225069554466868
  0.4036985226738384  0.8256739237481331  0.4183476107117973
  0.9109689202517479  0.8065979719701014  0.6837702616771878
  0.3973771615303789  0.3614352870476684  0.1624954817373896
  0.9341596716651990  0.1725213987951242  0.8170617202310597
  0.4226364276711910  0.6618473813083816  0.3201637732102667
  0.0884773003275350  0.3687206679784311  0.8347682846271035
  0.6053244271391033  0.8318101441882244  0.3303835817283157
  0.0941481460749965  0.6296271457549684  0.6626046196270331
  0.6090889175063147  0.1884194896713057  0.1829080968326651
  0.3952943275578434  0.3571891005916644  0.5761669288542635
  0.9048444424846751  0.8567336589941568  0.0731271114003758
  0.9056013805567588  0.1415142322058682  0.3953507950497804
  0.4403819472550278  0.6347417723179001  0.9194584304068871
  0.0481952523795925  0.3407044964845966  0.4362657734271662
  0.6082422767803188  0.8255054054989098  0.9155402487849549
  0.5667680779415329  0.1548061946345061  0.5703889243577039
  0.1054730670419058  0.6773992513603019  0.0893750238441529
 
 -0.36007770E-02 -0.64494786E-02 -0.20032973E-02
 -0.45160470E-02  0.41837543E-02  0.28229392E-02
  0.90890430E-02 -0.50134503E-02 -0.17578586E-03
  0.91003121E-02 -0.49386873E-02 -0.56061562E-03
  0.21180339E-02 -0.13113773E-02 -0.26508444E-02
 -0.22714280E-02 -0.23963674E-02  0.11279788E-01
  0.56355897E-02  0.23901591E-02 -0.45480623E-02
  0.44617745E-02  0.50089259E-02 -0.11090934E-01
 -0.72651278E-05  0.19962527E-02  0.46990177E-02
  0.52867872E-02 -0.55200531E-02 -0.50153369E-02
 -0.11897118E-01  0.39735985E-02  0.38103156E-02
  0.21608027E-03  0.88846977E-02 -0.18820004E-02
  0.87556656E-02 -0.21018599E-02  0.12385450E-03
  0.42922903E-02 -0.69991445E-02 -0.41445659E-02
 -0.34914451E-02  0.61971426E-03  0.34869183E-02
 -0.12196292E-02  0.11820300E-02  0.46194851E-02
 -0.53628188E-02 -0.25469367E-02 -0.16691231E-02
  0.56489442E-02  0.32808440E-02  0.71505032E-02
  0.54257567E-02 -0.12962008E-01 -0.12783187E-02
 -0.11290457E-02  0.15389355E-02  0.31866114E-02
 -0.70861695E-02  0.39707280E-02 -0.93093619E-03
  0.14190133E-01 -0.56083993E-03 -0.11796851E-02
 -0.55381228E-02 -0.30479939E-02  0.23758442E-02
  0.64362779E-03  0.42137895E-02 -0.76631013E-03
  0.63174453E-04 -0.38226845E-02  0.34270137E-03
  0.40811086E-02  0.14874230E-03 -0.64838682E-02
 -0.26221543E-02  0.42030313E-02  0.52308486E-03
 -0.14273085E-02  0.23159627E-02  0.57989838E-02
  0.16140597E-02  0.33898975E-02 -0.19962324E-02
 -0.32406726E-02  0.57805597E-02  0.20650540E-02
 -0.86820438E-02 -0.33829162E-02 -0.53600650E-04
  0.36734118E-02 -0.75858821E-03 -0.46628317E-02
  0.18486697E-02 -0.91202523E-03 -0.25368014E-02
  0.31136512E-04 -0.15705290E-02  0.86260417E-02
  0.68489085E-02 -0.25303542E-02  0.60431748E-03
  0.18463993E-02  0.64595130E-02 -0.73509089E-02
  0.42203288E-02  0.54465401E-02  0.14385978E-02
  0.73938680E-02  0.12108353E-02 -0.39012941E-02
 -0.18698056E-02  0.33165276E-04  0.35843605E-02
  0.54284894E-04  0.74010434E-03  0.16640726E-02
 -0.70208667E-02  0.12481913E-02 -0.36795224E-02
  0.45250352E-02  0.88727636E-02  0.89493087E-03
 -0.23829160E-02 -0.43800724E-02 -0.77040597E-02
  0.69938500E-02  0.48922514E-02 -0.18589664E-04
 -0.20064555E-02  0.67079483E-03  0.47464776E-02
 -0.42947906E-02 -0.48614899E-02  0.33574073E-02
 -0.38327614E-02  0.50590682E-02 -0.31516254E-02
  0.23830096E-02  0.25600885E-03  0.66627894E-02
 -0.31726343E-02 -0.21502154E-02  0.27280289E-02
  0.20459320E-02  0.20180322E-02 -0.39385721E-02
  0.66975879E-02  0.80295036E-02 -0.16267370E-02
 -0.24022091E-02  0.45957132E-03 -0.12018460E-02
  0.83793312E-02 -0.54933180E-02 -0.40502919E-02
 -0.25590389E-03 -0.88722005E-03 -0.75875192E-03
  0.29847606E-02  0.20340589E-02 -0.32134834E-02
  0.51389200E-03  0.59121131E-02  0.50788246E-02
  0.14981735E-02 -0.19446864E-02 -0.66350423E-02
  0.43073799E-02 -0.10799428E-01 -0.49214722E-03
 -0.11723652E-01 -0.15711690E-02  0.74409027E-02
  0.29618005E-03  0.70528249E-02  0.35141986E-02
  0.25994539E-02  0.19600521E-02 -0.24633742E-03
 -0.26653342E-02 -0.75562428E-02  0.16335257E-02
 -0.15330681E-02 -0.13326745E-02 -0.45256393E-02
  0.13493312E-02 -0.17901847E-02  0.44226059E-02
 -0.49376724E-02 -0.21809644E-02  0.44587141E-02
 -0.52055660E-03 -0.77231921E-03  0.30663952E-02
  0.16606550E-02 -0.15129360E-02  0.85603183E-03
 -0.63053862E-02 -0.31467989E-02 -0.88092272E-02
 -0.37310202E-02  0.21518318E-02 -0.64025754E-02
  0.77914234E-03 -0.35995448E-02 -0.28462125E-02
  0.90669371E-03  0.67169007E-02  0.16522200E-03
 -0.37914327E-02  0.72887721E-03 -0.37694831E-02
  0.55584913E-02  0.36489120E-02 -0.36814822E-03
 -0.91848256E-02 -0.72278195E-02 -0.32224623E-02
 -0.12414460E-02  0.15120007E-02 -0.47598928E-03
  0.54687914E-02  0.11805895E-01  0.33032899E-02
  0.31534631E-02 -0.33966389E-03  0.96304690E-02
  0.25775026E-02  0.47728785E-03 -0.63391819E-02
  0.30778338E-02 -0.33531415E-02  0.32344581E-02
  0.43289221E-02 -0.20094703E-02  0.45350638E-02
 -0.10160545E-02  0.36502372E-02  0.87090884E-02
 -0.35895119E-03  0.43244818E-02  0.98152179E-03
  0.35368830E-02  0.66130697E-02 -0.81183986E-03
 -0.57988842E-03 -0.33732882E-02  0.34074616E-02
 -0.43196163E-02  0.21630120E-02  0.66083723E-02
  0.18671056E-02 -0.19965687E-02 -0.26312180E-02
  0.33109170E-02  0.69672941E-02 -0.10469921E-01
  0.33957869E-02 -0.10036396E-02  0.17923628E-02
 -0.83208243E-03  0.22104299E-03 -0.20414396E-02
  0.24650973E-02  0.43235004E-02 -0.67158703E-03
  0.13219245E-02 -0.15147463E-03 -0.98778205E-03
  0.32951490E-03 -0.26612962E-02  0.17941422E-02
 -0.13968757E-02  0.22476882E-02 -0.15100936E-02
  0.39832512E-03 -0.94600627E-03  0.83927360E-03
  0.62270050E-03  0.80866893E-04  0.20103590E-02
  0.19916190E-02 -0.17401423E-02 -0.30016828E-02
 -0.15242668E-02  0.19904250E-02 -0.26539192E-02
 -0.53221541E-04  0.12849386E-02 -0.14063901E-02
  0.15178059E-02 -0.94679103E-03 -0.24737597E-03
  0.88579584E-03  0.32742245E-02  0.25944805E-02
  0.14646059E-03  0.20200864E-02  0.33006726E-02
  0.37772682E-02 -0.21887022E-02  0.96329944E-03
  0.63276390E-03 -0.18866283E-02  0.20791087E-02
 -0.26702063E-02 -0.49477374E-02  0.33607901E-03
 -0.28045642E-02 -0.40576337E-02 -0.19254542E-02
 -0.21496156E-02  0.20143746E-02 -0.26150366E-02
 -0.27377577E-02 -0.13473235E-02 -0.29087610E-02
 -0.35876628E-02 -0.54500951E-03  0.49478180E-02
 -0.66839600E-03  0.11934415E-02  0.41785079E-02
  0.11490587E-02  0.56373115E-02 -0.48194034E-02
 -0.39714947E-02  0.15042642E-02  0.44519034E-03
 -0.42419731E-02  0.65175935E-02 -0.84429787E-03
 -0.63102691E-02 -0.13923646E-02  0.46194458E-02
 -0.18089877E-02 -0.33462005E-02 -0.21961177E-02
 -0.41514901E-02 -0.22227840E-02  0.13009555E-02
 -0.48647442E-02  0.11513149E-02 -0.96073310E-03
  0.93575208E-03  0.59136728E-03  0.56475511E-03
 -0.23303344E-02 -0.21605125E-02 -0.22431621E-02
  0.87839321E-03  0.11693194E-02 -0.11995473E-03
  0.58799968E-02 -0.27957990E-02  0.66738511E-03
  0.94225138E-03 -0.16139201E-02  0.35465525E-02
 -0.22562826E-02 -0.32058701E-02  0.15832427E-02
  0.13329387E-02  0.38822938E-02 -0.94501103E-03
 -0.95102393E-03  0.12697802E-03 -0.13943429E-02
  0.27492573E-03  0.21229356E-03 -0.16432134E-02
  0.36792888E-02 -0.42508451E-03 -0.33059727E-02
  0.65447975E-02  0.29539711E-02  0.90806513E-03
 -0.48030704E-02 -0.64146325E-03  0.22118186E-02
  0.46742950E-02  0.11595083E-02  0.24581287E-02
 -0.54919701E-02 -0.16763863E-02 -0.51404627E-02
  0.63484615E-03  0.10810586E-02 -0.23633664E-02
 -0.56888595E-03  0.22309546E-03 -0.16845066E-02
 -0.18433691E-02 -0.27145611E-02 -0.34815311E-02
 -0.32668998E-02 -0.95309884E-03 -0.78519698E-03
  0.59395684E-04  0.15280854E-03  0.25749700E-02
 -0.93399313E-03 -0.32607979E-02 -0.35859122E-02
 -0.15981083E-02 -0.68690104E-03  0.99070330E-03
  0.32175470E-02  0.47605088E-02 -0.34650349E-02
  0.14655310E-02  0.11486684E-03 -0.18783142E-02
  0.51242568E-03 -0.31702360E-02 -0.14179383E-02
  0.51390805E-03 -0.20850773E-02 -0.10980649E-02
 -0.18831456E-03  0.17865649E-02  0.13099548E-02
 -0.10151455E-02 -0.25405887E-03 -0.17220069E-02
  0.43013867E-03 -0.75325135E-03 -0.13713254E-03
  0.29760934E-02  0.22597624E-03  0.45755854E-03
 -0.64209227E-03  0.93923343E-03 -0.69383200E-03
 -0.19354435E-02  0.84037494E-03  0.41804202E-02
  0.38005825E-03  0.20177606E-03 -0.25654750E-02
  0.76222011E-03  0.31215860E-02  0.49686577E-03
  0.16620467E-02 -0.17524851E-03  0.29651219E-02
 -0.32328030E-02  0.22811431E-02 -0.95116409E-03
 -0.64336430E-03 -0.53658483E-04 -0.35520037E-02
 -0.17017525E-02  0.48972529E-02  0.14314358E-02
  0.10689368E-02 -0.50998198E-03  0.23063497E-02
  0.13093413E-02 -0.10886078E-02 -0.32176303E-03
 -0.12447532E-02  0.10072343E-02  0.90341946E-03
  0.75693828E-03  0.87705023E-03  0.41824770E-03
  0.13412958E-02  0.22651106E-02  0.25438973E-02
  0.19976553E-02 -0.28073952E-02  0.41419067E-02
 -0.29269721E-02 -0.60907869E-02 -0.18472052E-02
  0.41876437E-03  0.17307726E-02 -0.58459459E-03
  0.17124066E-02  0.32243438E-02  0.15333999E-02
  0.34969737E-03  0.18288568E-02  0.47878779E-02
 -0.13003145E-02  0.30473504E-02  0.22421185E-02
 -0.41428538E-04 -0.22690013E-02  0.30030782E-02
  0.26881018E-02  0.18856537E-02 -0.12687899E-03
  0.26101089E-02 -0.10045961E-02 -0.29051575E-02
 -0.44824146E-02 -0.21484328E-02 -0.12927370E-02
  0.25266771E-03  0.44245795E-04  0.36582452E-02
 -0.31328677E-02  0.29358626E-02  0.14999273E-02
  0.52752937E-02 -0.49620131E-03  0.18183028E-02
 -0.10256059E-02 -0.90349600E-04 -0.37811323E-02
 -0.28639890E-02 -0.21615313E-02  0.20624194E-02
  0.80201131E-03 -0.51680765E-03 -0.81008874E-03
 -0.13576475E-02  0.29050717E-02  0.12949028E-02
  0.11510213E-02 -0.53559572E-03  0.13659051E-02
 -0.56655853E-03 -0.47652421E-02 -0.23664284E-02
 -0.60341667E-02 -0.12114509E-02  0.33841598E-02
 -0.10772156E-02 -0.45311139E-02  0.12505034E-02
  0.11640197E-02  0.24235985E-02  0.16742131E-02
  0.29116730E-02  0.70157677E-03 -0.44771075E-03
 -0.17771506E-02 -0.15014412E-02 -0.34366351E-02
 -0.17952549E-03 -0.64525637E-03 -0.36468725E-02
 -0.32590817E-03 -0.25886635E-02 -0.47069698E-02
 -0.37591946E-02  0.14271893E-02 -0.32341967E-03
 -0.61418984E-03  0.97871874E-03 -0.14926443E-02
 -0.23518113E-02 -0.77432892E-02 -0.55144964E-03
  0.20329907E-02  0.26692066E-02  0.11546603E-02
  0.16501096E-02  0.19976387E-03  0.53161058E-03
 -0.10910484E-02 -0.34841910E-02  0.17086156E-02
 -0.28237831E-02  0.31150199E-02  0.15458418E-03
  0.21852271E-02 -0.17315360E-02  0.23373091E-02
 -0.13592232E-02 -0.25063151E-02  0.91261999E-03
 -0.41507971E-02  0.43862584E-02 -0.14035575E-03
  0.28271043E-02  0.52908464E-02 -0.55323491E-02
  0.38627028E-02  0.91803921E-03 -0.94315677E-03
  0.24343001E-02 -0.32427053E-03 -0.88299628E-03
  0.75040395E-03  0.40506170E-02  0.63568633E-03
 -0.18923739E-02 -0.36394469E-03  0.19116648E-02
  0.42531939E-02  0.20103583E-02  0.88279167E-03
  0.93123047E-04 -0.20725198E-02 -0.83612702E-03
 -0.32310600E-02 -0.24955294E-02 -0.93139796E-03
  0.12166418E-02 -0.26276778E-02  0.16038062E-02
 -0.15252664E-02 -0.23232662E-02 -0.65047777E-03
  0.12191064E-02  0.25516633E-02 -0.54241355E-02
  0.25442052E-02 -0.26602049E-02  0.27072912E-02
 -0.32948291E-02 -0.29368328E-03 -0.44840214E-03
 -0.20656530E-02 -0.17553273E-03  0.22685483E-02
 
           1
   2.00000000000000     
  0.76047963E+00 -0.10142251E-02  0.00000000E+00  0.00000000E+00
  0.98021506E+00  0.20741556E-02  0.13505694E+00
  0.51691928E+00  0.50472562E+00  0.61387309E+00
  0.51005525E+00  0.46869246E+00  0.87253446E+00
  0.38707639E-02  0.94377510E+00  0.39084217E+00
  0.47883347E+00  0.83210109E-02  0.85390560E+00
  0.99022993E+00  0.50362183E+00  0.37570385E+00
  0.20056173E+00  0.49971466E+00  0.12832999E+00
  0.22595766E+00  0.26038269E+00  0.11080960E+00
  0.75735391E+00  0.71118901E+00  0.62521190E+00
  0.74086329E+00  0.22786905E+00  0.87475559E+00
  0.76614671E+00  0.72600995E+00  0.38011972E+00
  0.24415603E+00  0.24897407E+00  0.83942394E+00
  0.76778916E+00  0.27373227E+00  0.12317718E+00
  0.30343461E+00  0.75940076E+00  0.63737960E+00
  0.97283066E+00  0.99007083E+00  0.89032349E+00
  0.46743765E+00  0.49655628E+00  0.37100422E+00
  0.71981428E+00  0.44705009E-01  0.61774415E+00
  0.99383002E+00  0.48911811E+00  0.51038928E+00
  0.48759141E+00  0.99449684E+00  0.21212853E-02
  0.98322367E+00  0.50147836E+00  0.90251475E+00
  0.50359004E+00  0.28530515E-01  0.36908907E+00
  0.26393263E+00  0.23884315E+00  0.24764639E+00
  0.78235042E+00  0.72902729E+00  0.86834322E+00
  0.73428916E+00  0.35416016E+00  0.63483079E+00
  0.25690635E+00  0.74024516E+00  0.27379188E+00
  0.20227963E+00  0.22950597E+00  0.63852770E+00
  0.75279465E+00  0.78028131E+00  0.13551817E+00
  0.74019798E+00  0.25760859E+00  0.38080923E+00
  0.47107032E+00  0.76437445E+00  0.50514068E+00
  0.47587427E+00  0.23733151E+00  0.33631075E-02
  0.82142151E-02  0.92731047E+00  0.51401568E+00
  0.50046236E+00  0.76724936E+00  0.74269158E+00
  0.22501879E-01  0.75445257E+00  0.25903511E+00
  0.77299434E+00  0.24351279E+00  0.75928604E+00
  0.99246354E+00  0.24126833E+00  0.31872510E-02
  0.49179858E+00  0.23487805E+00  0.48526485E+00
  0.53173900E+00  0.53143836E+00  0.15442452E-02
  0.49103712E+00  0.27578456E+00  0.24508509E+00
  0.13562782E+00  0.76263574E+00  0.73877723E+00
  0.49560493E+00  0.76876777E+00  0.25299936E+00
  0.55554721E-02  0.41078485E-01  0.27016646E+00
  0.53622134E+00  0.51246221E+00  0.75407082E+00
  0.49650773E+00  0.16941732E-01  0.73764198E+00
  0.97229846E+00  0.51898958E+00  0.23451610E+00
  0.23050175E+00  0.22491582E+00  0.97341113E+00
  0.75814936E+00  0.73860058E+00  0.49075902E+00
  0.15388727E+00  0.71534159E+00  0.53083090E+00
  0.75179121E+00  0.25765420E+00  0.11054439E-01
  0.97632365E+00  0.98327550E+00  0.76070168E+00
  0.49183903E+00  0.50353926E+00  0.23966387E+00
  0.21686380E-01  0.51115991E+00  0.74633595E+00
  0.49938804E+00  0.43138456E-01  0.21953391E+00
  0.24667426E+00  0.24898117E+00  0.50138736E+00
  0.78292405E+00  0.76917339E+00  0.10440576E-01
  0.74708489E+00  0.21102814E+00  0.50987089E+00
  0.21033819E+00  0.73619200E+00  0.12872958E-01
  0.20470688E-01  0.52771324E+00  0.96146318E-02
  0.49782846E+00  0.51555709E+00  0.49188014E+00
  0.49653817E+00  0.50787272E+00  0.11544465E+00
  0.98198297E+00  0.99650008E+00  0.63534242E+00
  0.49276434E+00  0.74310762E+00  0.11592223E-01
  0.98930186E+00  0.23435866E+00  0.51034184E+00
  0.99617875E+00  0.98324994E+00  0.99965670E+00
  0.50525570E+00  0.99959262E+00  0.49795230E+00
  0.98532380E+00  0.26538057E+00  0.24377198E+00
  0.77235309E+00  0.73740151E+00  0.74362435E+00
  0.24985204E+00  0.70443956E+00  0.38476585E+00
  0.62869848E-01  0.25461114E+00  0.74998170E+00
  0.74917404E+00  0.77419476E+00  0.25362369E+00
  0.47107712E+00  0.23563649E+00  0.76103243E+00
  0.75716856E+00  0.26086761E+00  0.26520061E+00
  0.22294196E+00  0.74189659E+00  0.87228019E+00
  0.23811758E+00  0.74927219E+00  0.14437217E+00
  0.49337860E+00  0.98597277E+00  0.61907585E+00
  0.70408970E+00  0.98852238E+00  0.87253960E+00
  0.22719514E+00  0.41020281E+00  0.38214837E+00
  0.28027814E+00  0.50085717E+00  0.86559448E+00
  0.75824170E+00  0.99801936E+00  0.37478763E+00
  0.69035428E+00  0.50721117E-01  0.11622716E+00
  0.25260083E+00  0.47040674E+00  0.62252351E+00
  0.75048649E+00  0.48283262E+00  0.88002407E+00
  0.24051341E+00  0.72421145E-01  0.38395963E+00
  0.98253239E+00  0.44720311E+00  0.63211815E+00
  0.27587481E+00  0.22302179E-01  0.11852368E+00
  0.23397177E+00  0.15401883E-01  0.63728001E+00
  0.76055905E+00  0.52820544E+00  0.11897198E+00
  0.21424411E+00  0.99936627E+00  0.87884112E+00
  0.73737445E+00  0.48080588E+00  0.36876556E+00
  0.24769673E+00  0.97917836E+00  0.25378196E+00
  0.77225804E+00  0.47463895E+00  0.75673511E+00
  0.23616519E+00  0.99665007E+00  0.74932744E+00
  0.71143763E+00  0.51833140E+00  0.24245703E+00
  0.22871178E+00  0.96535343E+00  0.98614182E+00
  0.74091063E+00  0.50553130E+00  0.50051349E+00
  0.23913699E+00  0.99900738E+00  0.51306588E+00
  0.76434878E+00  0.50152259E+00  0.99727751E+00
  0.73143084E+00  0.98560556E+00  0.74824113E+00
  0.21364708E+00  0.49005945E+00  0.25620849E+00
  0.28110584E+00  0.51719392E+00  0.73432220E+00
  0.76273547E+00  0.18850274E-01  0.24367851E+00
  0.25583920E+00  0.48615237E+00  0.49111494E+00
  0.73640540E+00  0.13207106E-01  0.10043434E-01
  0.74463155E+00  0.97500361E+00  0.49882619E+00
  0.26084133E+00  0.48108860E+00  0.98905523E+00
  0.99846924E+00  0.26012084E+00  0.37521549E+00
  0.50151480E+00  0.74530934E+00  0.87346236E+00
  0.47898003E+00  0.24700900E+00  0.61773960E+00
  0.99287370E+00  0.75794728E+00  0.12395812E+00
  0.99950011E+00  0.25698006E+00  0.87296537E+00
  0.50202520E+00  0.74131258E+00  0.37744842E+00
  0.10890165E-01  0.74514339E+00  0.62867675E+00
  0.50796799E+00  0.26517167E+00  0.13485519E+00
  0.15160240E+00  0.38049153E+00  0.42038033E-01
  0.65959849E+00  0.87526945E+00  0.55337434E+00
  0.62404883E+00  0.11929156E+00  0.96158956E+00
  0.14751893E+00  0.57377619E+00  0.44205005E+00
  0.36303420E+00  0.38364367E+00  0.94560111E+00
  0.85382521E+00  0.87612461E+00  0.44528348E+00
  0.85556889E+00  0.11992411E+00  0.62231796E-01
  0.35003279E+00  0.58462984E+00  0.55240401E+00
  0.86279203E+00  0.12927928E+00  0.19463525E+00
  0.40918819E+00  0.59348912E+00  0.69078982E+00
  0.86483132E+00  0.89877026E+00  0.29248163E+00
  0.36036894E+00  0.38663227E+00  0.78963700E+00
  0.13163473E+00  0.60513153E+00  0.30617975E+00
  0.64039089E+00  0.11220921E+00  0.79728058E+00
  0.12526348E+00  0.37985078E+00  0.20461965E+00
  0.63167141E+00  0.89191037E+00  0.69015268E+00
  0.86504950E+00  0.62400692E+00  0.94854035E+00
  0.35635784E+00  0.10421461E+00  0.46609751E+00
  0.84467266E+00  0.38527998E+00  0.54871434E+00
  0.32617095E+00  0.87190116E+00  0.43063040E-01
  0.12815249E+00  0.94702394E-01  0.55669171E+00
  0.67174178E+00  0.62826756E+00  0.44959213E-01
  0.12247076E+00  0.86319514E+00  0.93565099E+00
  0.64514532E+00  0.38361620E+00  0.45624892E+00