Na88 Ge16 P8 Se96                       
   1.00000000000000     
    13.9614333504000001    0.0000000000000000    0.0000000000000000
     0.0000000000000000   13.9614333504000001    0.0000000000000000
     0.0000000000000000    0.0000000000000000   27.9228667008000002
   Na   Ge   P    Se
    88    16     8    96
Direct
  0.9853582531083593  0.9483753340538015  0.0621753708344370
  0.5050341178802239  0.5018134275904921  0.4971124078877264
  0.5374563019522706  0.4852434987909630  0.8624123585077950
  0.7607732590035965  0.9842692060109597  0.3700142231904018
  0.2294790741209510  0.9585046533731226  0.8657573481262506
  0.7337624154670382  0.4983499702112283  0.3761739007653361
  0.0092380853932338  0.4926049358376427  0.1350473881627836
  0.2467943473592084  0.2418250902466312  0.1185251967732527
  0.7290837078925954  0.7528309490239291  0.6402882310725896
  0.7724784241851724  0.2647248587812011  0.8779595203246260
  0.7425889821227821  0.7364502253826026  0.5093746950313087
  0.2632140938801558  0.2418667759528825  0.8590843007352974
  0.7626181821959342  0.2546601656513509  0.1324933583986848
  0.2240440642986811  0.9991645759203023  0.6092136377640543
  0.9798574941000100  0.9816060314647398  0.8759984444704122
  0.2132237137426478  0.5358028851572230  0.3792339082084960
  0.9910678609811643  0.0172728354429667  0.6265641684850517
  0.8038787152668040  0.5261575889327796  0.6245430937556711
  0.4865383872113547  0.9930928219999452  0.1198595558162945
  0.9777011227403367  0.4966199958283816  0.8775746024289790
  0.2996063339366771  0.9716272899278922  0.3724616500084262
  0.3019975488934991  0.2341472108453977  0.2382913356237733
  0.7526118171772016  0.9609537462851948  0.8759051435751822
  0.7502752351898602  0.2416302024543829  0.7526557931950398
  0.2734758354140934  0.7409284148161667  0.1297566013587926
  0.2451937024536648  0.2835678817510687  0.6037130328464366
  0.7672320680868356  0.5665158388992083  0.1342327159191604
  0.7682184993438060  0.7574354916939189  0.3625049691536403
  0.5119618745519218  0.0250182851449473  0.4989706608028333
  0.5114976620287245  0.2565113320666500  0.9932775937798640
  0.0220150804077408  0.5458975625527001  0.5074620886154347
  0.5004040144612597  0.7478218404286263  0.7407900498655672
  0.0589760466871158  0.7807868848822714  0.2581639649173644
  0.5349799869288439  0.4795413162194612  0.7372858272656837
  0.0016851708500475  0.7431898827611750  0.9961208269402405
  0.4997805603441571  0.7551153897090173  0.5064784614359691
  0.4734256837561354  0.7394871120103964  0.9957589158888469
  0.6822839855798229  0.2449336206764060  0.2501334873171249
  0.9758414217712958  0.7466925691812399  0.7563767131010266
  0.4994943922656941  0.7282619421018701  0.2510081366325226
  0.0402137420732746  0.0129065343645965  0.3652262868288488
  0.5359377603752373  0.5102678124767019  0.6261153937285032
  0.4699644623395182  0.0314601710348080  0.7621259128218222
  0.9679154994164595  0.5052753992537513  0.2690138166691206
  0.2402483217387736  0.2122741066900909  0.9954073023755526
  0.0139524721771481  0.7479516849820970  0.4897312183493275
  0.2394236512972714  0.7307300090657884  0.5716436659837969
  0.7804972508045558  0.2729884926380479  0.0092845151201794
  0.9606046478864536  0.0078705403909903  0.7493958913031128
  0.4891536505788154  0.4575041894770589  0.2474860698488890
  0.0462440582280064  0.5097920921368427  0.7179326433252201
  0.5008226462087390  0.0108452843523759  0.2493443476836978
  0.2345946624028739  0.2668166521960825  0.4891617542996303
  0.7645064124395596  0.7460829107686723  0.0051085124198955
  0.7808124491656100  0.2370351853207384  0.3549631810758381
  0.2391131859802026  0.7341806168307070  0.0133532514971230
  0.9932391838286505  0.1175388222351307  0.9924907279729377
  0.7722168419163270  0.2215635820194880  0.4821262453683348
  0.5051115594994806  0.4945235019144172  0.9913876502189811
  0.9943452929934153  0.9673899757870758  0.4873492570674153
  0.5222830582221564  0.9837432115551098  0.0011819607376467
  0.9869133815482337  0.2841767408499639  0.4907741982978598
  0.0183427985125850  0.4493395274658225  0.0111311929154572
  0.4950313701016361  0.2779278908123548  0.4962260407262191
  0.9961183585063124  0.9982893074248324  0.2138575364471976
  0.7486068754505362  0.7285671407784564  0.7633846388383212
  0.2708524975372886  0.7350728882139799  0.2640439111769451
  0.0830742323861456  0.2551293247691942  0.7436798759243306
  0.7653954907824406  0.7463660242128809  0.2282279488827054
  0.3488984323457280  0.2395535377509202  0.7291786030089246
  0.9500088588464384  0.2785864906911107  0.2528860749641753
  0.2330177760712047  0.7316800552208333  0.7250415208137673
  0.2558836256555771  0.4679053324796146  0.1295851029117951
  0.7169638017553969  0.0166640094348677  0.6274397448125916
  0.5090246069896363  0.0112081026055288  0.8804073163904924
  0.2898380636163314  0.7445214095420396  0.4268101783716837
  0.2435376122639198  0.4907538411619015  0.8696844091925811
  0.5216772029401409  0.0346911596362694  0.3686240750714763
  0.7682757038811884  0.0348827080414215  0.1329233778762685
  0.2386049177252889  0.5038946776292964  0.6292423790140550
  0.7721343332309382  0.6116187522564660  0.8960061386394557
  0.2624407645423690  0.2320730766997441  0.3811097804254992
  0.7807226682977743  0.2727231725038372  0.6332598567250886
  0.2258635600809582  0.0021806653776268  0.1158973385824986
  0.4671537995460279  0.9824715822172619  0.6183235347280153
  0.5069208109632685  0.5164834901364950  0.1180742998579265
  0.2429807155178876  0.7447196162614094  0.8544238440210133
  0.4886854897141853  0.5032062751130727  0.3852636277362632
  0.2740013137217135  0.0038900275795983  0.2478643276989782
  0.7714561364117315  0.4988959485335661  0.7522369209571944
  0.2169497048463008  0.9886661401913357  0.7441271120179982
  0.7232056340016942  0.5021780245383572  0.2548363955903732
  0.2458102588471006  0.9563209968345826  0.9884172510290997
  0.7486381711469929  0.4921935342063417  0.5017831582088146
  0.2498943917927850  0.0168699655295252  0.4941500952889555
  0.7580042989371257  0.5024738339143847  0.0166884273482316
  0.7225916678706773  0.0021422676497067  0.7475893292168193
  0.2122502651295172  0.4955201152776798  0.2476192718361301
  0.2870691728058984  0.4918202308735920  0.7540958354568066
  0.7620438612651502  0.9973308918142747  0.2597185757117564
  0.2586959630789983  0.5048044008818187  0.5015120228869120
  0.7492834860731594  0.0182224546289245  0.0059402487973889
  0.7385016755621541  0.9815274433550317  0.4950721487788389
  0.2607822147785804  0.4694629228452764  0.0037084220099867
  0.0095010726680784  0.2641973808887942  0.3709191684776640
  0.5017328649596217  0.7482659726186427  0.8692624885633036
  0.4970822628778652  0.2243351712296407  0.6297721752455646
  0.0087727500773569  0.7497731239669487  0.1306629049350077
  0.0111717080716866  0.2363756159250948  0.8764777301471727
  0.5140960577819308  0.7559388879636995  0.3777968340573282
  0.0058472323738249  0.7555191776138572  0.6174193881023159
  0.4964490399727758  0.2509933029696050  0.1228100785695158
  0.1589868808846293  0.3745532356041654  0.0587608203377655
  0.6573325384155800  0.8869678397861693  0.5500064767679239
  0.6612321931173756  0.1400294085957892  0.9545736861970261
  0.1594616020030041  0.6197594153364751  0.4634113348181721
  0.3496528883604742  0.3550075556231561  0.9568632953724802
  0.8375429490647012  0.8865312132391694  0.4431288287937876
  0.8625173726336341  0.1172520871909288  0.0603662699858988
  0.3709254444962744  0.5927842866807147  0.5508381741747254
  0.8429877960164931  0.1062644995114259  0.2106168352498433
  0.3722990238962521  0.5927765133380524  0.7057285731478961
  0.8769311753525316  0.9098121630471752  0.2988875692330422
  0.3806858959405889  0.3805976361923546  0.8072753088979837
  0.1222138792158631  0.6174761711658328  0.2997064771636335
  0.6353272930032505  0.0926877903809381  0.8021213595856700
  0.1306608804640213  0.3796807455114354  0.2079589578417957
  0.6112330465862064  0.9105884456273007  0.7016017637666957
  0.8864725420497257  0.5958843441026641  0.9768560391107619
  0.3502456874816310  0.1270168254546169  0.4473694145645264
  0.8503068572206076  0.3909177281612615  0.5451730368822355
  0.3472943895769148  0.8775223703604518  0.0536925558637407
  0.1453993855798279  0.1120993295414550  0.5379779690751236
  0.6528259535914996  0.6209416416254331  0.0576587037806468
  0.1597291296769560  0.8452070743256597  0.9428050037507424
  0.6442200324053341  0.3993583195234171  0.4531405875679623
  0.6314201306129394  0.3934375222053618  0.3075437173680008
  0.1075139103076411  0.8886051174869863  0.7912904505206715
  0.1315099022930807  0.0822715799612141  0.6910551599739819
  0.6226855896956873  0.6027886443891809  0.2048308765201712
  0.8642945997133610  0.3973657032030240  0.7054394051733237
  0.3678859998695039  0.8877396616605335  0.2059045299734197
  0.3716220940606655  0.1043374294189921  0.2958406676062612
  0.8901287574083285  0.5842409836498327  0.7985040606489190
  0.1435815099455250  0.0626730842077133  0.0350161797166624
  0.6529588603292488  0.5883361588673988  0.5549712454291824
  0.6689528059510584  0.4341071596167349  0.9519082466262565
  0.1637499535096145  0.9317924980818749  0.4394771093164256
  0.3642181098766856  0.0369342387830627  0.9443157537819951
  0.8385769553524003  0.5927519809718576  0.4521621401854281
  0.8592826626344308  0.4137197143303257  0.0686054746939121
  0.3371536241292453  0.9046785685057761  0.5403542111246966
  0.1739053176464706  0.0938119429788279  0.1984751562348432
  0.6660012430708825  0.5902760951842801  0.6989820871632869
  0.1696371922275267  0.9039482896183039  0.2953720673219879
  0.6801434496137283  0.4063427660994339  0.8061258338749194
  0.8122409515833067  0.6031307910551114  0.2978252659816157
  0.2897224678242592  0.1025267036084872  0.7966860584990673
  0.8100873776936299  0.4013298615739851  0.2019368563165067
  0.3287145737253345  0.8925967565081623  0.7022691496319740
  0.8767693552517850  0.9354056864081692  0.9610230920179258
  0.3478408006431996  0.4288099109596284  0.4449952866316434
  0.8486513232279725  0.0696778185350193  0.5407990552140987
  0.3570940864228566  0.5569733289215607  0.0569164474494577
  0.1525811778044709  0.4175861072942259  0.5485377117429833
  0.6597314835780308  0.9043620956076667  0.0486938203833672
  0.1709597440069002  0.5777137723748480  0.9559844870638843
  0.6506199837365282  0.0864136288332488  0.4467190514078553
  0.3160039764323167  0.4133478511849817  0.3013036986695948
  0.8323153384131097  0.8980435853349350  0.7928524394297810
  0.8302541004347991  0.0992002396934635  0.6972064163005739
  0.3128075588969354  0.5905642262978940  0.2011189634829234
  0.1988134842262485  0.3748895346388804  0.6997093230138226
  0.6574674223589098  0.9234204688462112  0.2028827592272254
  0.6705303433475658  0.0911325443689859  0.3116963485162718
  0.1660119548819800  0.5913008214803011  0.7935479036829717
  0.0991620921967711  0.1967166260625016  0.3162354053703502
  0.6041523000417539  0.6463030409139336  0.8325321299561337
  0.5814945151094859  0.2898230847083715  0.6843031018761309
  0.0904898727004639  0.8636726532496021  0.1585082816446581
  0.3821385849578648  0.1355816111628365  0.6564511071003999
  0.9396620995087136  0.6693390539950802  0.1916767338868537
  0.9064097578519017  0.3831069894390606  0.3390395004473952
  0.4118235701842811  0.8320789274249268  0.8175886774945240
  0.1085043750106121  0.1223447621214301  0.9082163342419304
  0.6197275559673977  0.6656011426590593  0.4155433860931527
  0.0953271472724432  0.8565117630427498  0.5696763649666103
  0.6012965848385854  0.3268776772989687  0.0792167357488453
  0.9080869721208094  0.6617949564365900  0.5712268759941355
  0.4049706292637320  0.1568210648907596  0.0766520720075723
  0.9376555913139655  0.3079766873669315  0.9345550657199728
  0.4397746458615419  0.8589213854513172  0.4302606373448764
  0.9233321599107884  0.8345704111161093  0.6719565357857469
  0.3940091286315567  0.3545983688153290  0.1599984861304616
  0.9014051901900073  0.1742437220949459  0.8287629962103602
  0.3982681961287776  0.6684390641374061  0.3403097389692474
  0.0825111615288647  0.3538729106766955  0.8373922678357962
  0.5981691112661043  0.8399313628598096  0.3250454281750597
  0.1075214899989737  0.6542710488721152  0.6500179761510355
  0.5751462552085296  0.1445910894087413  0.1715057846644263
  0.4286602731101239  0.3477028017591282  0.5885175545173751
  0.8776231403914276  0.8055673366706134  0.0916832199057609
  0.9160616240621826  0.1608896565550171  0.4124276537965712
  0.4010561768255748  0.6653082600377791  0.9132406575160052
  0.0909523243113444  0.3558014134082841  0.4244232150528449
  0.5946449793481153  0.8274528158035758  0.9159935677925252
  0.6018210873384343  0.1478092442827214  0.5815850113004629
  0.0979367120956549  0.6479507703419262  0.0884948753645799
 
 -0.36204746E-02  0.10007328E-02 -0.65667236E-02
  0.18045307E-02  0.49549729E-02  0.26899499E-02
 -0.54067633E-02 -0.56471246E-02 -0.43831082E-02
  0.79041136E-04  0.10710040E-02  0.10654248E-02
  0.55138267E-03  0.27385501E-02  0.85130374E-03
  0.48760704E-02 -0.82610822E-02  0.58816996E-02
  0.68813978E-02 -0.44480154E-02 -0.32936082E-02
  0.17404596E-02  0.94000482E-03 -0.14567126E-02
 -0.35728209E-02  0.11787381E-02  0.19969879E-02
 -0.12793427E-02 -0.52941118E-03  0.66917541E-02
  0.42474796E-02  0.11684321E-02  0.24816927E-02
 -0.29499392E-02 -0.44100315E-02  0.37489445E-02
 -0.29809975E-04 -0.55817343E-04 -0.31265086E-02
 -0.31518460E-02  0.10926297E-01 -0.27720515E-02
  0.24590594E-04 -0.51007204E-02 -0.32012649E-02
  0.23037938E-02 -0.46651301E-02  0.43461959E-02
 -0.21897994E-02 -0.51144062E-02 -0.51823481E-03
  0.14269771E-02 -0.58220227E-02  0.18194020E-02
  0.28341382E-02  0.19765609E-02  0.42157930E-02
 -0.39707889E-02 -0.73160372E-02 -0.36489507E-02
  0.13532117E-03  0.51317757E-03  0.89603093E-03
  0.98269024E-03 -0.62719005E-02 -0.68565799E-03
  0.54541492E-03 -0.50878628E-02 -0.36167871E-02
 -0.25143767E-02  0.44186572E-03 -0.41924488E-02
  0.50366018E-03  0.29517224E-02  0.37582949E-02
 -0.64588705E-02 -0.95277608E-03 -0.14139822E-02
  0.81216185E-02 -0.28193138E-02  0.15095131E-02
 -0.61432633E-02 -0.21183285E-02 -0.13569385E-01
 -0.12396724E-01 -0.56283614E-02 -0.12221986E-02
 -0.47961702E-02  0.27270461E-02  0.27954188E-02
  0.44321678E-02 -0.91400994E-03  0.68037928E-02
 -0.72911610E-02  0.17527161E-02 -0.94420398E-03
 -0.54364294E-02  0.92439200E-02 -0.17599838E-02
  0.26755604E-03 -0.22453913E-02  0.21831183E-02
 -0.26100634E-02  0.36644995E-02  0.28862393E-02
  0.98932763E-03 -0.13927449E-02  0.15553345E-02
 -0.21070912E-02 -0.13963527E-03 -0.50977440E-03
  0.98616230E-03 -0.53651539E-03 -0.42159384E-02
  0.14701545E-02  0.24752006E-02  0.57708457E-02
 -0.16615785E-02  0.25775297E-02 -0.22831047E-02
 -0.21831895E-02  0.70255853E-02 -0.26919580E-02
 -0.11090406E-02 -0.58655816E-03 -0.82859808E-02
 -0.68310880E-02  0.12600916E-02  0.37522868E-02
 -0.76698650E-02  0.15854644E-03  0.13888000E-03
  0.10187365E-04 -0.35634278E-02 -0.34618997E-02
  0.11381293E-03 -0.56391701E-02 -0.31212844E-02
 -0.16878342E-02  0.13527964E-02 -0.13777551E-02
 -0.32466942E-02  0.38570956E-02 -0.22957704E-02
  0.30952819E-02  0.27788628E-02  0.11851927E-01
  0.37245804E-02 -0.15287400E-03  0.33069712E-02
  0.18492145E-02 -0.71903490E-02  0.45896217E-02
 -0.11673892E-01  0.25337340E-02 -0.13715530E-02
 -0.33322656E-02  0.66588163E-02  0.35989862E-02
 -0.44296321E-02  0.11161898E-02 -0.72580790E-02
 -0.11029701E-02 -0.59323616E-03  0.94388901E-03
 -0.78536157E-03 -0.15270814E-02  0.10943412E-01
 -0.39047979E-02  0.60314730E-02 -0.13036173E-02
  0.30556984E-02 -0.33665420E-03  0.19846310E-03
  0.11971080E-02 -0.31755269E-02 -0.30509268E-03
 -0.71488193E-02  0.17009292E-02 -0.19911422E-02
 -0.16426640E-03 -0.77191707E-02 -0.41837851E-03
  0.86323790E-02  0.16794104E-03  0.16549157E-02
 -0.53705832E-03  0.23497129E-02 -0.84454847E-03
  0.45858557E-02  0.66869164E-02  0.32850789E-02
 -0.18219758E-02 -0.49496855E-03 -0.65371139E-02
  0.79774359E-02  0.12608361E-01  0.11081866E-03
  0.82415879E-02  0.85512458E-03  0.18471481E-02
 -0.82066605E-02  0.35416664E-02  0.47216366E-02
  0.12613274E-01  0.35520945E-02 -0.32388919E-02
  0.43779671E-02 -0.46739411E-02  0.94287075E-03
  0.15290439E-02  0.10083086E-02  0.53930562E-02
 -0.45120761E-02  0.14698404E-01  0.32576494E-02
 -0.32019095E-02 -0.73499926E-03  0.18104733E-02
 -0.78592542E-02  0.94638530E-02  0.51130123E-03
 -0.39381337E-02  0.44633465E-02 -0.28223864E-03
 -0.18902254E-02 -0.88152514E-03 -0.24356840E-02
  0.78383026E-02  0.55731397E-03 -0.26205134E-02
 -0.99371094E-02  0.12373442E-01  0.12788864E-02
 -0.86464999E-03  0.55772806E-02  0.13108824E-02
  0.67849309E-03  0.76589658E-02 -0.40968553E-02
 -0.46705358E-02  0.30202292E-02 -0.52660729E-02
  0.53839606E-03  0.31999460E-02  0.23267440E-02
 -0.82185628E-02 -0.12992130E-02 -0.31758123E-02
 -0.80056287E-03  0.80899750E-02  0.28903316E-02
 -0.24939588E-02 -0.36757288E-02  0.18970387E-02
  0.95727935E-03  0.83080945E-02  0.51965936E-02
 -0.25846517E-02 -0.93586423E-03 -0.51976135E-02
  0.10812414E-02  0.41730108E-02  0.75762555E-02
 -0.77953250E-04  0.10506184E-02  0.24292293E-03
 -0.30535452E-02  0.11297293E-02 -0.72685507E-03
 -0.25623945E-02  0.27424801E-02  0.27074398E-03
 -0.91773941E-03  0.21780030E-02 -0.34299995E-03
  0.50123469E-02  0.73152038E-03 -0.26812291E-02
 -0.71801291E-02  0.81418123E-03 -0.54183373E-02
  0.99301202E-03  0.34792700E-02 -0.38506767E-03
 -0.47415456E-02 -0.24119769E-02 -0.25132746E-02
  0.17457970E-02 -0.27623919E-02  0.96068451E-03
  0.25342501E-02  0.14453587E-02  0.11438008E-02
 -0.20081147E-02 -0.38019969E-02 -0.10778026E-02
  0.32726592E-02  0.27454823E-02  0.10497952E-02
 -0.22996116E-02  0.27732017E-02  0.30410249E-02
  0.36116983E-02 -0.20106333E-02 -0.31738412E-02
 -0.37295682E-03  0.46247605E-02  0.24828702E-04
  0.13397683E-02 -0.29634915E-02 -0.20137085E-02
  0.21927042E-02  0.36882819E-02  0.21502870E-02
  0.38495124E-02  0.35260145E-02  0.16183894E-02
  0.37091660E-02  0.24612058E-02 -0.43648774E-02
 -0.44361999E-02 -0.34408753E-02  0.98162843E-03
 -0.19571438E-02 -0.11358852E-02 -0.72359428E-04
 -0.32502178E-02 -0.78035041E-04  0.41701355E-02
  0.19893555E-02 -0.86229495E-03 -0.11426851E-03
 -0.42577778E-02 -0.16341412E-02 -0.14880316E-02
 -0.35201551E-02  0.55802906E-03 -0.40039120E-02
 -0.51928228E-02  0.14353736E-02  0.23243712E-02
 -0.34972309E-03 -0.48040415E-02 -0.25017255E-02
 -0.27702381E-02  0.20311468E-02  0.97524392E-03
 -0.16929262E-02  0.90169157E-03 -0.51004493E-03
 -0.19246024E-02 -0.84575850E-03  0.30767715E-02
  0.38895965E-03  0.85734903E-03 -0.20377706E-02
  0.50191029E-03 -0.29642878E-02  0.31621522E-02
 -0.36672856E-02 -0.93013066E-03  0.37334184E-03
 -0.33094946E-03  0.28903714E-03 -0.29080326E-02
 -0.59309113E-03 -0.46953018E-02 -0.40634425E-02
  0.89435473E-03  0.88491684E-03  0.17404061E-02
 -0.97622052E-03  0.10126944E-02  0.30000861E-02
  0.97718790E-03  0.37802798E-02  0.91181368E-03
  0.60779824E-03 -0.26961996E-02 -0.14604322E-02
  0.30262141E-02 -0.52322372E-02  0.62906830E-03
 -0.24151804E-02  0.24675456E-03 -0.14544305E-02
  0.14940186E-03  0.12738806E-02 -0.24704563E-02
  0.15886943E-02  0.10041522E-02  0.56849522E-03
  0.45130654E-02 -0.25921614E-02 -0.29471210E-02
  0.86306863E-03 -0.99119718E-03 -0.41503708E-02
  0.36740554E-02  0.97967202E-03  0.66191981E-03
  0.18164585E-02 -0.36426895E-02  0.71962865E-03
  0.27107613E-02  0.42918171E-02 -0.73810381E-03
 -0.20966353E-02 -0.31601129E-02  0.15204042E-02
 -0.43924216E-02  0.11563906E-03  0.44971804E-02
 -0.58437336E-02  0.17493512E-02  0.13044933E-02
  0.27295158E-02  0.26717759E-04  0.34029947E-02
 -0.59067300E-03 -0.19476988E-02  0.20977920E-02
  0.37983435E-03 -0.15685890E-02  0.11939278E-02
  0.26694577E-03 -0.92681670E-03  0.97120533E-03
 -0.26813993E-03 -0.46442492E-02 -0.26136659E-02
  0.11477849E-02 -0.29007515E-02  0.19720182E-02
 -0.14813486E-02  0.16141232E-02 -0.53877134E-03
  0.26286786E-02 -0.21358985E-02 -0.83764667E-03
 -0.15976137E-02 -0.65018738E-03 -0.71755587E-03
  0.93484541E-03 -0.31085690E-02  0.15530862E-02
  0.26582448E-02  0.15990114E-02  0.27332435E-02
  0.33944176E-03  0.17879623E-02  0.13146756E-02
 -0.18771003E-02  0.53433207E-02  0.34366704E-02
 -0.87726670E-04 -0.49941025E-02  0.64749269E-04
  0.86090158E-03  0.31160736E-02 -0.24404057E-02
 -0.71522453E-03 -0.13548720E-02  0.11886420E-02
 -0.38237202E-03 -0.42883496E-03 -0.75551279E-03
  0.39475708E-02 -0.62641503E-03  0.14345537E-02
 -0.46828519E-03 -0.26793520E-02 -0.18364579E-02
 -0.15932231E-02  0.44801285E-02  0.27945889E-03
  0.23455738E-02 -0.11498056E-02 -0.24138060E-02
 -0.30332985E-02 -0.76260616E-03 -0.15637390E-02
  0.62187200E-02 -0.25993023E-02 -0.23417606E-02
  0.45255544E-03 -0.16818361E-02 -0.13672866E-02
  0.57202996E-03  0.37439567E-02  0.77797222E-03
  0.20152219E-02 -0.16632015E-02  0.24321836E-02
 -0.15153066E-03  0.49543639E-03 -0.19060891E-02
  0.13262045E-02  0.32897581E-03 -0.13771013E-02
  0.98208476E-03 -0.54623693E-02  0.23563665E-02
  0.16038605E-02  0.20930279E-03  0.63143060E-03
  0.35382376E-03  0.18007907E-02 -0.11180491E-02
 -0.13886566E-02  0.12243232E-02 -0.29964892E-02
  0.22541662E-02  0.43054735E-03 -0.11450575E-02
  0.85149006E-03 -0.30216417E-02 -0.17354359E-02
 -0.10045517E-03  0.66557715E-03 -0.98023687E-03
  0.27759498E-02 -0.20625886E-02 -0.37807327E-03
 -0.13980116E-03  0.16924836E-02 -0.20744569E-02
  0.96146219E-03  0.32892148E-03 -0.13906100E-02
 -0.10833995E-02  0.63759750E-03  0.12631408E-03
  0.34452983E-03  0.15106478E-02 -0.22055594E-02
  0.24401129E-02 -0.79841978E-03 -0.14410884E-02
  0.18979483E-02 -0.36378914E-02  0.15162449E-02
  0.24404537E-02 -0.35169406E-02  0.31501386E-02
  0.82237427E-03  0.65351816E-03  0.90462426E-04
  0.88240202E-03  0.80912016E-04  0.28029358E-02
  0.11486622E-03  0.16812425E-02  0.20982623E-02
  0.44270420E-02 -0.11943367E-02  0.21541884E-02
  0.38035933E-02 -0.35563810E-03 -0.10002459E-02
  0.72246821E-03 -0.43995930E-02  0.34734937E-02
  0.51993044E-03 -0.52054338E-02 -0.19442428E-02
  0.12265649E-02 -0.22390322E-02 -0.12892836E-02
  0.19364117E-02  0.25044813E-02 -0.16608131E-02
 -0.52107165E-03  0.42631328E-02 -0.19733311E-02
  0.25182905E-02 -0.17109435E-02  0.27833921E-02
 -0.23700692E-03 -0.21984651E-02  0.14255890E-02
  0.19482055E-02 -0.26351507E-02 -0.20944316E-02
 -0.24319098E-02  0.36607760E-02  0.15809352E-02
 -0.41941531E-05  0.30722508E-02  0.13274808E-02
 -0.70648702E-02 -0.10585423E-02 -0.81300578E-04
 -0.38534281E-02 -0.42538805E-03 -0.25849756E-03
  0.26179810E-02  0.32042409E-02  0.12502614E-02
  0.10975260E-02 -0.11460566E-02 -0.36557994E-03
  0.11251293E-02  0.36812877E-02  0.20536987E-02
  0.12271267E-02  0.66044529E-03  0.34447310E-02
  0.10219052E-02 -0.32750968E-04 -0.15391555E-02
 -0.19491595E-02 -0.27977077E-02 -0.60125459E-03
 -0.13890247E-02  0.17715122E-02  0.24074776E-02
  0.34176729E-02 -0.16813836E-02 -0.25187274E-03
 -0.10757133E-02  0.40406893E-02 -0.23104758E-02
 
           1
   2.00000000000000     
  0.62883105E+00 -0.13401435E-02  0.00000000E+00  0.00000000E+00
  0.98483961E+00  0.94851869E+00  0.61705023E-01
  0.50529262E+00  0.50252324E+00  0.49730508E+00
  0.53668177E+00  0.48443454E+00  0.86209841E+00
  0.76078458E+00  0.98442263E+00  0.37009054E+00
  0.22955806E+00  0.95889696E+00  0.86581832E+00
  0.73446092E+00  0.49716656E+00  0.37659518E+00
  0.10223858E-01  0.49196775E+00  0.13481148E+00
  0.24704367E+00  0.24195975E+00  0.11842086E+00
  0.72857189E+00  0.75299981E+00  0.64043127E+00
  0.77229516E+00  0.26464902E+00  0.87843882E+00
  0.74319744E+00  0.73661761E+00  0.50955245E+00
  0.26279151E+00  0.24123503E+00  0.85935282E+00
  0.76261391E+00  0.25465217E+00  0.13226942E+00
  0.22359256E+00  0.72978729E-03  0.60901509E+00
  0.97986102E+00  0.98087534E+00  0.87576915E+00
  0.21355374E+00  0.53513460E+00  0.37954521E+00
  0.99075417E+00  0.16540188E-01  0.62652705E+00
  0.80408313E+00  0.52532357E+00  0.62467341E+00
  0.48694438E+00  0.99337597E+00  0.12016152E+00
  0.97713230E+00  0.49557196E+00  0.87731324E+00
  0.29962572E+00  0.97170080E+00  0.37252583E+00
  0.30213832E+00  0.23324875E+00  0.23824222E+00
  0.75268995E+00  0.96022490E+00  0.87564609E+00
  0.74991505E+00  0.24169350E+00  0.75235551E+00
  0.27354799E+00  0.74135125E+00  0.13002579E+00
  0.24426846E+00  0.28343139E+00  0.60361176E+00
  0.76839550E+00  0.56611197E+00  0.13434084E+00
  0.76733847E+00  0.75713204E+00  0.36153305E+00
  0.51018602E+00  0.24212012E-01  0.49888312E+00
  0.51081060E+00  0.25690199E+00  0.99347782E+00
  0.22649996E-01  0.54576663E+00  0.50794942E+00
  0.49935954E+00  0.74807292E+00  0.74072242E+00
  0.58197269E-01  0.78211109E+00  0.25803790E+00
  0.53501831E+00  0.47921966E+00  0.73744220E+00
  0.13112747E-02  0.74371483E+00  0.99632756E+00
  0.49992228E+00  0.75491588E+00  0.50658986E+00
  0.47312384E+00  0.73946711E+00  0.99572240E+00
  0.68242526E+00  0.24485676E+00  0.24983152E+00
  0.97605202E+00  0.74704715E+00  0.75679006E+00
  0.49925637E+00  0.72863118E+00  0.25084461E+00
  0.39900996E-01  0.13912962E-01  0.36503347E+00
  0.53577889E+00  0.51018379E+00  0.62552190E+00
  0.46898590E+00  0.31640681E-01  0.76239467E+00
  0.96681678E+00  0.50529811E+00  0.26902376E+00
  0.24024978E+00  0.21176364E+00  0.99515934E+00
  0.13968776E-01  0.74714386E+00  0.48950765E+00
  0.23918187E+00  0.73092380E+00  0.57154498E+00
  0.78003216E+00  0.27354103E+00  0.91200785E-02
  0.96104805E+00  0.82686174E-02  0.75024480E+00
  0.48968720E+00  0.45748229E+00  0.24772293E+00
  0.46508961E-01  0.50876206E+00  0.71826138E+00
  0.49915034E+00  0.11208246E-01  0.24924611E+00
  0.23411731E+00  0.26777054E+00  0.48941953E+00
  0.76387186E+00  0.74624281E+00  0.45886461E-02
  0.78065445E+00  0.23695020E+00  0.35503079E+00
  0.23900068E+00  0.73396186E+00  0.14137083E-01
  0.99267981E+00  0.11840284E+00  0.99239736E+00
  0.77265458E+00  0.22151536E+00  0.48214046E+00
  0.50528305E+00  0.49406860E+00  0.99136580E+00
  0.99332121E+00  0.96763364E+00  0.48720664E+00
  0.52225953E+00  0.98263743E+00  0.11519940E-02
  0.98814999E+00  0.28420080E+00  0.49089273E+00
  0.18265864E-01  0.44967613E+00  0.11070701E-01
  0.49568830E+00  0.27888580E+00  0.49646134E+00
  0.99585736E+00  0.99821840E+00  0.21338931E+00
  0.74974966E+00  0.73037331E+00  0.76339258E+00
  0.27203312E+00  0.73519539E+00  0.26417621E+00
  0.81898614E-01  0.25563667E+00  0.74401807E+00
  0.76720236E+00  0.74687487E+00  0.22799596E+00
  0.34952558E+00  0.23888399E+00  0.72924614E+00
  0.95022790E+00  0.27873093E+00  0.25327236E+00
  0.23237141E+00  0.73378563E+00  0.72527485E+00
  0.25542495E+00  0.46780004E+00  0.12971478E+00
  0.71583795E+00  0.18019723E-01  0.62747637E+00
  0.50846046E+00  0.11847485E-01  0.88038710E+00
  0.28956729E+00  0.74439513E+00  0.42663572E+00
  0.24466046E+00  0.49083368E+00  0.86949671E+00
  0.52025369E+00  0.36463677E-01  0.36871568E+00
  0.76815184E+00  0.35681663E-01  0.13301727E+00
  0.23870211E+00  0.50499184E+00  0.62894894E+00
  0.77146527E+00  0.61205141E+00  0.89562895E+00
  0.26251789E+00  0.23253147E+00  0.38127644E+00
  0.77954534E+00  0.27253706E+00  0.63303239E+00
  0.22574888E+00  0.33395686E-02  0.11610436E+00
  0.46679654E+00  0.98194503E+00  0.61845941E+00
  0.50705794E+00  0.51767364E+00  0.11844651E+00
  0.24261046E+00  0.74458555E+00  0.85405156E+00
  0.48884038E+00  0.50380407E+00  0.38580628E+00
  0.27399015E+00  0.40405305E-02  0.24788173E+00
  0.77101871E+00  0.49905778E+00  0.75218486E+00
  0.21658264E+00  0.98905901E+00  0.74414650E+00
  0.72307417E+00  0.50249003E+00  0.25481183E+00
  0.24652829E+00  0.95642579E+00  0.98822521E+00
  0.74760960E+00  0.49231017E+00  0.50139507E+00
  0.25003664E+00  0.17368377E-01  0.49412251E+00
  0.75732506E+00  0.50212831E+00  0.16508412E-01
  0.72284176E+00  0.17465501E-02  0.74765814E+00
  0.21261330E+00  0.49572717E+00  0.24770120E+00
  0.28678151E+00  0.49127559E+00  0.75401864E+00
  0.76251268E+00  0.99772419E+00  0.25979377E+00
  0.25836654E+00  0.50520167E+00  0.50172984E+00
  0.74980087E+00  0.17934428E-01  0.57129196E-02
  0.73844825E+00  0.98218995E+00  0.49507393E+00
  0.26097414E+00  0.46903840E+00  0.35641884E-02
  0.98151814E-02  0.26472573E+00  0.37107318E+00
  0.50228431E+00  0.74877108E+00  0.86937841E+00
  0.49761361E+00  0.22468774E+00  0.62945954E+00
  0.81372566E-02  0.74928021E+00  0.13073321E+00
  0.10891344E-01  0.23621290E+00  0.87647255E+00
  0.51363046E+00  0.75592771E+00  0.37809552E+00
  0.61322111E-02  0.75539565E+00  0.61741120E+00
  0.49583911E+00  0.25075921E+00  0.12270350E+00
  0.15848261E+00  0.37463317E+00  0.58474037E-01
  0.65658866E+00  0.88717346E+00  0.55017296E+00
  0.66118209E+00  0.13934122E+00  0.95439450E+00
  0.15906476E+00  0.62005038E+00  0.46348119E+00
  0.34941037E+00  0.35513672E+00  0.95682676E+00
  0.83726725E+00  0.88641006E+00  0.44334921E+00
  0.86257309E+00  0.11737490E+00  0.60220313E-01
  0.37099734E+00  0.59235965E+00  0.55106467E+00
  0.84246245E+00  0.10613126E+00  0.21064358E+00
  0.37225161E+00  0.59281792E+00  0.70552028E+00
  0.87684621E+00  0.90913955E+00  0.29859652E+00
  0.38081401E+00  0.38072440E+00  0.80739997E+00
  0.12207403E+00  0.61762124E+00  0.29992136E+00
  0.63546728E+00  0.93229322E-01  0.80218667E+00
  0.13074795E+00  0.37929451E+00  0.20785435E+00
  0.61166656E+00  0.90983892E+00  0.70164682E+00
  0.88612656E+00  0.59591969E+00  0.97675186E+00
  0.35026709E+00  0.12719931E+00  0.44719247E+00
  0.85053444E+00  0.39106157E+00  0.54521376E+00
  0.34794089E+00  0.87715104E+00  0.53481466E-01
  0.14552302E+00  0.11195734E+00  0.53768070E+00
  0.65335227E+00  0.62108198E+00  0.57706114E-01
  0.15998934E+00  0.84468525E+00  0.94285655E+00
  0.64460835E+00  0.39997313E+00  0.45308772E+00