Na88 Ge16 P8 Se96                       
   1.00000000000000     
    13.9614333504000001    0.0000000000000000    0.0000000000000000
     0.0000000000000000   13.9614333504000001    0.0000000000000000
     0.0000000000000000    0.0000000000000000   27.9228667008000002
   Na   Ge   P    Se
    88    16     8    96
Direct
  0.5206021876883599  0.6501391169795141  0.9935358331404338
  0.4680402380803558  0.4878864266158978  0.5378567066105711
  0.2452491131666784  0.4772040179482205  0.8687125838971185
  0.7754961140804331  0.0021610744147959  0.3712483312127272
  0.5105439326927861  0.9743241718508145  0.8688139600950837
  0.0072946164259314  0.4879604939738584  0.3581671440209803
  0.2864114459356624  0.1718594585325903  0.1269633916576894
  0.7263735946281786  0.2295085302952468  0.2520611422795769
  0.5243824680677209  0.0185634213476467  0.5126787529010410
  0.7020475116989846  0.2529894047858532  0.8927836069129098
  0.8212855882861767  0.7895599347661082  0.5402501099774901
  0.5301196678403705  0.9605522943475134  0.0083386838182601
  0.2371389027740143  0.2629996881386820  0.2374703639571946
  0.3866965194901438  0.8289323334759351  0.4656791744665925
  0.2566174999093435  0.9394823002906284  0.8744320782351775
  0.2323354783878956  0.4876455824931720  0.3557439114666973
  0.9857842525322057  0.7379255436514051  0.9809580302711705
  0.7389582841096666  0.2490109086927675  0.5092416572385358
  0.0103424818617858  0.4392887023125470  0.1297521184276801
  0.6320735731483849  0.7583124436980399  0.6175039450487717
  0.7426920935932881  0.7689544474400578  0.3620188368741760
  0.5018414737430169  0.4301830659894166  0.2297431538380011
  0.5107707977503828  0.5087357254703589  0.7644705412386947
  0.4510131075758463  0.8231724560926061  0.7381178910239437
  0.2290354595595798  0.5276402961741078  0.1024703777817470
  0.4921009696309654  0.0668586367685857  0.7194890524956439
  0.2699560007814444  0.7078222767563621  0.0035008772772650
  0.9537655118023411  0.2518305821330883  0.2359262389520584
  0.5902159829940469  0.6932210404556872  0.4926066263033604
  0.7603927709528785  0.5131198377731281  0.1355236867601309
  0.6328071248333853  0.4499854814470878  0.6535392611452305
  0.9571873051647225  0.7472463558873135  0.7677935210040761
  0.2187028746265673  0.8864189246672933  0.1003380350941106
  0.7660964584731002  0.4784656487581688  0.8845680830281136
  0.9870206877451206  0.9811938595515163  0.2298899578910770
  0.5252689880623317  0.0123546611275008  0.3680963514137930
  0.6758652616798739  0.7575944397053019  0.7886257291505842
  0.5069961974181268  0.2426194521976990  0.2880855515911895
  0.0295436112985124  0.4808523339577648  0.7700122127627461
  0.4983629210652000  0.6919783073873332  0.2303961697493362
  0.0153187957732396  0.9821642574114741  0.3440407942970118
  0.2476064892170498  0.7291155480143424  0.6235763258873565
  0.6902416551630201  0.0292736068973426  0.6236405726554243
  0.2468254026943620  0.8082525407391282  0.2156188508505339
  0.2538306433736454  0.2117768508678048  0.9925999297593002
  0.9716343010276081  0.9940168404150436  0.6393246014645450
  0.9728003021856588  0.2034786554915612  0.5449097721740860
  0.9845198280728459  0.2161007296227000  0.0004465166602088
  0.0187590402031183  0.9740297812845778  0.4878667161259024
  0.2029327278530370  0.7582249085533317  0.7396876770617202
  0.9623311115991608  0.0360516567824715  0.7763502444950028
  0.4671614808450905  0.9310744902333590  0.2432928525338222
  0.1628007272711261  0.2688915537952635  0.4715158928546692
  0.2327017117385521  0.2695299407458219  0.8854093963137686
  0.6814007866844081  0.2674833187844007  0.7282781904592153
  0.0304310413779318  0.4828333560653574  0.0105424068201303
  0.0152126360084122  0.9717362548105586  0.9979531838465521
  0.4591080981980148  0.2714064898014594  0.4810804497438825
  0.4746637242745979  0.3833001009019786  0.0194442647903895
  0.9630313654730007  0.5330499141359876  0.4918048470946312
  0.4899243664823714  0.9978069242619970  0.1285999655819746
  0.5054143479438520  0.4681028081788289  0.8861173981191002
  0.0231220906752372  0.4769831707055640  0.8802019245297015
  0.2519715118206505  0.0428354993008812  0.6312898390210746
  0.4925883016665841  0.4683326765062924  0.3901249179507053
  0.7370903460782934  0.7815601635675897  0.0059953356580740
  0.2915151136622912  0.9867406641533829  0.3631655934909328
  0.2836770276617354  0.2787052005464154  0.7399126392993396
  0.2324679360258231  0.7445144102730075  0.3845771013520214
  0.9884185496342772  0.2424792882937539  0.7438928819261484
  0.7687007790423472  0.8022167144013078  0.1177677221768382
  0.1092139623097701  0.7432584830069061  0.5171302529938901
  0.5052136146553153  0.5465308847235096  0.1143374214748405
  0.8388369214074070  0.5713378541085158  0.6430106168631838
  0.7790525080564391  0.7456598858259381  0.8868951572730763
  0.2721968365915415  0.2676817097449630  0.3606511338493727
  0.6762874779813663  0.2649555523509809  0.0320201033848215
  0.7379414527110888  0.2308870929232948  0.3808861268617093
  0.6699945008817041  0.0922801086704421  0.1142919048631341
  0.1356800784611795  0.5519918020757831  0.6023822825634543
  0.7507503083143217  0.0124077797482734  0.8650926419093861
  0.7709852418901544  0.7202279718604402  0.2400654374310483
  0.3623170736511823  0.4469107336410489  0.6508516079640420
  0.9975104150956775  0.0380879322123005  0.1165789091382077
  0.2022118839711144  0.2656632308453765  0.6013549524066644
  0.9901022474068247  0.5592127199694599  0.2450745251727902
  0.2657896377097813  0.7370930452894370  0.8837854807273827
  0.7752685255880095  0.5092306707024939  0.4003188848432722
  0.2312656410414968  0.0393771194216948  0.2382995627881868
  0.7645518849721127  0.5134922413741124  0.7652766858455650
  0.2189022064752330  0.0241266789593305  0.7520319562855990
  0.7322594843452472  0.4614614864895867  0.2680710446733022
  0.2807658258037606  0.9736403402156486  0.9939965967849264
  0.7311437417166265  0.4984221577431328  0.5218635180118171
  0.2667380165037795  0.0125901355152328  0.4958585375365933
  0.7367990449880847  0.5204657614986643  0.0059802499024797
  0.7237546829126946  0.9965856208730137  0.7411083417695513
  0.2583132686349641  0.5447037833842279  0.2511088019460913
  0.2731399839210183  0.5214832715286919  0.7567766224794571
  0.7422676779023843  0.9855464221738195  0.2381019177849936
  0.2321819500340234  0.5079121462451246  0.4862586827059853
  0.7462939088635974  0.9961890759752055  0.0047451792680495
  0.7523246595493680  0.9575125445791973  0.4858484737423308
  0.2687230373054959  0.4845143974103948  0.9917503900037901
  0.9891902728785835  0.2406173109969203  0.3703859436463625
  0.5016390644160038  0.7350501210150443  0.8874517264512636
  0.5118262400302276  0.2419229369761474  0.6139853249700689
  0.0020079124536267  0.7618146877146792  0.1238624242799867
  0.9767630041857381  0.2367663260210232  0.8858668119783003
  0.4995183382828556  0.7342611576844303  0.3624832932837387
  0.9953819048641900  0.7700123402110760  0.6277432051292463
  0.5081871117641398  0.2513695624098007  0.1368419485461114
  0.1855295341522812  0.3758349878729342  0.0489519077982495
  0.6512351883268136  0.8845284869262530  0.5421520557744689
  0.6508029644379938  0.0961897610881895  0.9596643926841943
  0.1259788046706576  0.5892598492771952  0.4315916993603364
  0.3449411565338225  0.3634307143339056  0.9492609049462724
  0.8534241608764667  0.8585925780957108  0.4404364582947276
  0.8561840403035759  0.1170948766846764  0.0418998370673458
  0.3231316151851549  0.6263727788824941  0.5301764996816706
  0.8386861457950989  0.0990482387329155  0.1923150021665782
  0.3804893450190375  0.6441833750379135  0.7103622860411200
  0.8347630749777906  0.8792808548474043  0.2875599061476192
  0.3653561950680596  0.4005358422403240  0.7943771531772611
  0.1541730040090914  0.6347931730400307  0.2970495366080373
  0.6092531629975925  0.0871660473274090  0.7845823992658831
  0.1709060711667909  0.4250281707288432  0.1997308294877092
  0.6240919070298669  0.8917779983595581  0.6932872514757300
  0.8508084250332548  0.6250166648762335  0.9618545102625027
  0.3565179395450518  0.0976910999896330  0.4467016174754659
  0.8380129830345510  0.3903729970288815  0.5480263717939202
  0.3819816264010682  0.8535699316318184  0.0394573607260710
  0.1527427605656521  0.1065690719165103  0.5488554247418264
  0.6582653079705817  0.6296263000589201  0.0607633787533884
  0.1572275998283828  0.8481934357803370  0.9557216952629165
  0.6345183014335108  0.4089863120923320  0.4717896512182155
  0.6466943646769349  0.3732986590882732  0.3307209660489679
  0.0986680510727400  0.9113293131573822  0.7877857640731551
  0.1453294666269834  0.1725714625064391  0.7052469384658449
  0.6351220338512736  0.5556228756127982  0.2119785701803082
  0.8633680502821305  0.4097349011453597  0.7184076787791952
  0.3343460281539733  0.9573504347076880  0.1755662970887158
  0.3417669824268884  0.1160170697908030  0.2927691774506993
  0.8717266111772631  0.5991085320298190  0.8201101048582595
  0.1979564965367290  0.0582413357084621  0.0524751443364321
  0.6248411853234677  0.5793286635668997  0.5737834045800640
  0.6300896270301889  0.4253042583504211  0.9584497708523864
  0.1813360850926810  0.8949502928482690  0.4436602133216690
  0.3837580755478792  0.0849583703850756  0.9448812626737951
  0.7775217093233533  0.6347535919339786  0.4769777460548862
  0.8270676552161091  0.4124395680249182  0.0606210597525156
  0.3555735175197736  0.9188850507958027  0.5545445904447249
  0.1046379825668033  0.1330645729465484  0.1953095453710481
  0.6730497216402584  0.5955539009281319  0.7160331967189479
  0.1678668244589903  0.9109841018145672  0.2878947596606881
  0.6659013773912981  0.4040473494359917  0.8044075881904770
  0.8422410020259288  0.5809610814569085  0.3096227084589300
  0.3123601188138773  0.1040650200089425  0.8049060291838160
  0.8334250719146423  0.4040926963373959  0.2038352591706221
  0.3261229337463243  0.9381297012276282  0.7000788876806303
  0.8326506178850334  0.8964356591349933  0.9481803096608065
  0.3265171364436236  0.3800617479782489  0.4364039495018807
  0.8572107818855460  0.0309918029976238  0.5429915685970539
  0.3646743927143471  0.5647551342747421  0.0420176552070558
  0.1406186944847748  0.4241618770358850  0.5406262058084901
  0.6701380166031279  0.9232300892594134  0.0702644324645589
  0.1661333032356209  0.5817930037062455  0.9341828766947342
  0.6672375705257594  0.0766271353969544  0.4482513237599456
  0.3457284405501284  0.4225608851818319  0.2931914224516067
  0.8243110805237716  0.9036336189369991  0.7994532130452643
  0.8017912214150177  0.1021782763823374  0.6866303061565605
  0.3320761997344268  0.6087051704018736  0.1855323685914256
  0.1863491964726354  0.4481523076142908  0.6926013141765403
  0.6319635152684688  0.8889035174463387  0.1906456027270682
  0.6377983074711562  0.0580595165017920  0.2981954676275085
  0.1793109524323025  0.6102466188114346  0.8058787483830664
  0.0612208451457492  0.3323579071145047  0.3070901831390163
  0.5990454133123434  0.8243568350162302  0.9310457291794954
  0.4642939356476382  0.2899870415554033  0.6894463579284706
  0.0931155904519502  0.6963114035308213  0.0680865778191775
  0.4652856961808952  0.0892707763912377  0.6094827056465583
  0.0580171958444567  0.8199218064093609  0.1885479085267654
  0.9263318611127970  0.3240948518746518  0.4340855682940155
  0.4222418320640184  0.8185420931527113  0.8357616199127089
  0.0816102976810262  0.1447791228715961  0.9182774726123213
  0.5603821217156539  0.6266511655637491  0.3186421483121348
  0.8514010227468802  0.8106243817691406  0.6530459261092403
  0.5665006375550542  0.1736473101210264  0.1990787029181012
  0.9612943157707527  0.6542415835199981  0.5690160509879673
  0.3763644617081862  0.3318038342585738  0.1583121652367146
  0.8971887011811150  0.3606585580612140  0.9265238958922674
  0.5828598135706323  0.8378509294159049  0.4082092220504687
  0.0727803567639086  0.6693652375161215  0.6772377331177337
  0.4475909886088980  0.1698492742415880  0.0748742685981304
  0.8517771138445545  0.1891495999873375  0.8420043630116444
  0.3974823637614429  0.6681007091049586  0.4198793889901814
  0.0776824584474963  0.3031847698831576  0.8290660454900497
  0.3928975442917363  0.8335024549403325  0.3206259230174055
  0.1019403835171009  0.8797590124181378  0.6040534950760048
  0.6082779457735541  0.3527129703670600  0.1068197253420948
  0.4041010488292739  0.3147555807118761  0.5618699722479042
  0.9347185799676552  0.8726277601694423  0.0821251775493231
  0.8941838454192605  0.1490872105949273  0.3303460245572674
  0.5878486032894182  0.6358117698151320  0.8439274122301428
  0.0939534687779676  0.1465713042864768  0.4024968364855995
  0.3972163881614626  0.6349513242054917  0.9163411097676026
  0.6554969124889443  0.2900778134934732  0.6003706074737177
  0.8949506393575534  0.6616997961677791  0.1523741133543887
 
  0.17263289E-01 -0.46793655E-02  0.60989852E-02
  0.36329629E-02  0.37534410E-03 -0.10720219E-03
  0.20620249E-02 -0.37439061E-03 -0.28772848E-02
  0.60968461E-03  0.33427832E-02 -0.51859954E-02
  0.16782029E-02 -0.89129128E-03  0.38818428E-02
 -0.59040065E-02  0.16037459E-02  0.40894835E-02
 -0.68379121E-02 -0.98307734E-02  0.77935862E-03
  0.47118995E-02  0.14644668E-01 -0.55276173E-02
 -0.36142236E-02 -0.74160508E-02 -0.53114362E-03
  0.67945158E-02 -0.77036438E-02  0.98870563E-02
 -0.52766678E-02 -0.15609111E-02 -0.68155375E-02
  0.47438533E-02 -0.22992154E-02 -0.19354488E-03
 -0.32736799E-02  0.28982145E-02 -0.65005375E-02
 -0.92382523E-03  0.10997301E-01 -0.44638030E-02
  0.31772573E-02 -0.80114515E-02 -0.98454205E-02
  0.62936059E-03 -0.93923825E-02 -0.29415571E-02
 -0.54350922E-02  0.94334431E-03 -0.65980542E-02
  0.66656515E-02  0.88715588E-04  0.13643366E-03
  0.35617686E-02  0.80832110E-02  0.71550637E-02
  0.56556875E-02 -0.14367562E-01  0.56976835E-02
 -0.10222921E-01 -0.11812194E-01  0.41991100E-02
 -0.66965660E-03 -0.16973961E-02  0.12462605E-01
 -0.11041334E-01 -0.47186813E-02 -0.42846595E-03
  0.19829424E-02 -0.62513665E-02 -0.22020757E-03
 -0.10713880E-02  0.91454018E-03  0.80042740E-03
 -0.88952165E-02  0.84594650E-02  0.14567851E-03
 -0.43458203E-02  0.39880421E-02  0.77158909E-03
 -0.69769196E-03 -0.82462311E-02 -0.55884073E-03
 -0.37542348E-02 -0.65844128E-02  0.15096652E-02
 -0.56688961E-03 -0.60964471E-02  0.20286747E-02
  0.68657893E-02 -0.60856625E-02  0.25142443E-02
  0.92822805E-02  0.23254924E-02 -0.35591361E-02
  0.44416496E-02 -0.17810635E-02  0.96433601E-02
 -0.56433594E-02  0.68568309E-03  0.44009247E-02
  0.23206140E-02  0.19420283E-02 -0.47263220E-02
 -0.37519251E-02  0.33289951E-02  0.16013214E-02
  0.26073039E-02 -0.68898629E-02  0.27920491E-03
  0.64152760E-02 -0.12747933E-01  0.65156065E-02
 -0.11809871E-01  0.31726421E-02  0.18935972E-02
 -0.31142347E-02  0.18349858E-02 -0.47362266E-02
  0.41018118E-02  0.89796307E-03 -0.50263441E-02
  0.50342135E-02  0.90240961E-02  0.35992318E-02
  0.85101094E-02  0.80225398E-02 -0.40241198E-03
  0.47415418E-02  0.78002875E-03  0.31507854E-02
 -0.14140239E-01  0.89931456E-02 -0.91715264E-02
 -0.65636523E-02  0.90433746E-03 -0.18014199E-02
 -0.70263643E-03 -0.28538224E-02 -0.51290975E-02
 -0.37277969E-02 -0.64753020E-02  0.30627424E-02
 -0.47470389E-02 -0.14407644E-02  0.98331417E-03
  0.86347048E-03 -0.25655049E-03  0.39609100E-02
 -0.42964655E-02 -0.65976369E-02  0.58007344E-02
 -0.12466530E-02 -0.55298116E-02  0.23185840E-02
 -0.39949263E-02  0.54743109E-03 -0.61664424E-02
 -0.12234719E-01  0.16505993E-03 -0.73263492E-02
 -0.34512540E-02  0.14748043E-02 -0.64834869E-02
  0.21597609E-02 -0.65409110E-02 -0.46162649E-02
 -0.41916962E-02 -0.18982032E-02 -0.46161488E-02
  0.44334156E-02  0.22842689E-02 -0.50450824E-02
  0.91372246E-03 -0.74841710E-02  0.50187676E-02
 -0.65906731E-03  0.45944242E-03  0.33498555E-02
 -0.39604433E-02  0.29476072E-02  0.13380525E-02
  0.23696771E-02 -0.56268455E-02  0.41034465E-02
 -0.70243061E-03  0.17169287E-02  0.10271502E-01
  0.68299855E-02  0.27126439E-02  0.50218566E-02
 -0.30788099E-02  0.58247664E-02 -0.75657678E-02
 -0.71156521E-02 -0.33582938E-02 -0.46875801E-02
  0.43784442E-02 -0.31839105E-02  0.25668995E-02
 -0.77462936E-02  0.33163860E-02 -0.34180938E-02
 -0.20058295E-02 -0.10648726E-01  0.12112056E-03
  0.22839954E-02  0.44740228E-02 -0.53981936E-02
  0.55956163E-02  0.37084316E-02 -0.44518221E-02
  0.26245899E-02  0.22664858E-03 -0.76028519E-02
  0.14201410E-02 -0.18144162E-04  0.27960770E-02
 -0.11398053E-01  0.26737285E-02  0.50057380E-02
  0.30637053E-02 -0.53641329E-02  0.17581771E-02
  0.59334848E-02 -0.44734383E-03 -0.31210418E-02
 -0.20683659E-02  0.63446376E-02  0.20350925E-02
  0.70523760E-03  0.66275464E-03  0.27866437E-02
  0.47248150E-02 -0.40438195E-02  0.70458689E-02
  0.33706009E-03  0.74585143E-02  0.33660788E-02
 -0.29900127E-02 -0.31658802E-02  0.38748289E-02
 -0.54872763E-02 -0.48353409E-02  0.53934371E-02
 -0.42561790E-02 -0.21117113E-02 -0.15888106E-02
  0.87999272E-02  0.62408755E-02 -0.30602499E-02
  0.54157231E-02 -0.16601479E-02  0.72595746E-02
 -0.24730516E-02 -0.76918109E-02 -0.14415108E-02
  0.38153856E-02 -0.13459717E-01  0.18312841E-02
  0.54268899E-02 -0.33689012E-02  0.82350941E-02
  0.45195238E-03  0.95262622E-03 -0.83125111E-03
  0.59646247E-02  0.65524542E-02  0.91806459E-03
 -0.26774599E-02 -0.28379244E-03 -0.69257178E-03
 -0.64516727E-03 -0.50357043E-02  0.25042015E-02
 -0.10234455E-02 -0.20273114E-02 -0.13088225E-02
  0.53536810E-02 -0.44064685E-02  0.28212442E-02
  0.22245659E-02 -0.31413047E-02  0.21737858E-02
 -0.22796177E-02  0.74733053E-02  0.17539901E-02
  0.20243841E-02 -0.10560420E-02  0.72092947E-03
 -0.47309432E-03 -0.13021245E-02 -0.75618653E-02
  0.32295432E-02  0.20760089E-02 -0.85017671E-02
 -0.30547015E-02 -0.49411113E-03 -0.30749865E-02
 -0.35303161E-02  0.38427576E-03  0.10150638E-02
 -0.20040551E-02  0.10297027E-02 -0.14493174E-02
 -0.27084044E-02  0.28060523E-02 -0.37345834E-02
 -0.13318553E-02 -0.58848063E-02  0.15884285E-02
  0.90319474E-02  0.20063772E-02  0.18090849E-02
 -0.24808099E-02 -0.37045850E-02  0.56123825E-03
  0.64748539E-02  0.95257049E-03  0.40121165E-02
 -0.28275693E-02 -0.43513481E-02 -0.12160212E-02
  0.47135086E-02  0.31025011E-02 -0.96512206E-03
  0.20008990E-02 -0.90955821E-02 -0.14229955E-03
 -0.96279994E-02  0.67558558E-02  0.18964456E-02
  0.39141966E-02  0.17886819E-02 -0.25816564E-02
 -0.41664529E-02  0.22504145E-02 -0.26204700E-02
 -0.27912147E-02  0.57551613E-03 -0.53654984E-03
  0.80830688E-03 -0.22412699E-02 -0.56786273E-03
  0.19967237E-02 -0.46151471E-02  0.62640551E-03
  0.16643658E-02  0.34927718E-03 -0.21460787E-02
 -0.40395702E-02  0.69731482E-03 -0.39986256E-02
 -0.31804820E-02 -0.14279597E-02 -0.15319522E-02
  0.30425359E-03 -0.30629670E-02 -0.70109315E-03
  0.14935790E-02  0.50094605E-03  0.71372638E-02
 -0.86221451E-02  0.45206692E-02 -0.51680932E-02
  0.34793005E-02 -0.10449645E-02 -0.34321179E-02
 -0.56731259E-03  0.33651391E-02 -0.19504597E-02
  0.22311568E-02  0.72655973E-02 -0.25032180E-02
 -0.39259119E-02 -0.12052070E-02  0.26703989E-02
  0.62971793E-02  0.51395037E-02  0.34787821E-03
 -0.99916826E-03 -0.20332686E-02  0.44064285E-02
  0.16289427E-02 -0.11331530E-02  0.19653337E-02
  0.39065357E-02  0.82041769E-02  0.15884375E-02
 -0.38701737E-02 -0.54787287E-02 -0.22760841E-02
  0.55800578E-02  0.10740551E-02  0.19977389E-02
  0.29653734E-02 -0.11889117E-02  0.54124328E-03
  0.34889897E-02 -0.60186836E-03 -0.71387960E-02
  0.25971765E-02  0.34655796E-03  0.21152704E-02
 -0.27946587E-03  0.21138155E-02 -0.16191520E-03
  0.15344015E-02 -0.75606543E-03 -0.10612926E-02
 -0.20802706E-02  0.12746965E-02  0.37170854E-02
 -0.37586271E-03 -0.17570369E-03  0.48868612E-02
  0.22824517E-02  0.55635892E-02  0.13434597E-02
 -0.93043084E-03 -0.43199769E-03  0.27527423E-02
  0.39430214E-02 -0.11280991E-02  0.42281421E-02
  0.22572717E-02 -0.18792748E-02  0.21155331E-02
  0.30300760E-03 -0.58200481E-03  0.38354796E-02
 -0.10941637E-02 -0.90411734E-03 -0.67382187E-02
  0.30505456E-02 -0.31304628E-02 -0.16557638E-02
 -0.11387318E-02 -0.29576307E-02  0.61252265E-02
  0.19440842E-02  0.31293536E-02  0.11046468E-02
  0.23175338E-02  0.31039205E-02  0.15726428E-02
 -0.79173639E-02 -0.46764572E-02  0.47177947E-03
  0.14506095E-02 -0.21452521E-02  0.56351049E-02
 -0.11131673E-02  0.51374351E-02  0.33928164E-02
 -0.22299887E-02  0.55166880E-02 -0.11698023E-02
 -0.61247360E-02 -0.19320556E-03  0.37439547E-02
 -0.70469883E-03  0.73860426E-03  0.49105430E-03
 -0.49831326E-02 -0.32788403E-02  0.17612401E-03
  0.89612323E-03  0.39497665E-02  0.11839542E-05
 -0.43340083E-03 -0.63718694E-04  0.17047800E-03
  0.16117139E-02 -0.20216930E-02 -0.15529145E-02
 -0.48909149E-02 -0.15634841E-02  0.24988652E-02
  0.12394610E-02  0.14660934E-03  0.10125633E-02
 -0.19736850E-02  0.18434871E-02  0.72848244E-04
 -0.31313923E-03 -0.11535508E-03 -0.26733220E-02
 -0.17178768E-02  0.18447953E-02  0.57788784E-03
  0.14857243E-02 -0.75172728E-02  0.99814587E-03
  0.13332582E-02  0.31161248E-02 -0.81708143E-04
 -0.23979685E-03  0.28114950E-02 -0.32394693E-02
  0.22364622E-02 -0.32216630E-02  0.26944003E-02
 -0.19191665E-02 -0.17725494E-02 -0.15480622E-02
 -0.17768817E-03 -0.20872689E-02  0.22331669E-02
 -0.10114821E-02 -0.32315498E-02 -0.55368601E-02
  0.12402372E-02 -0.64511291E-04  0.35122855E-02
  0.14688708E-02 -0.22383445E-02 -0.28883857E-02
  0.45089020E-02  0.29585641E-02 -0.70042878E-03
  0.10638685E-02 -0.91223264E-03 -0.45118240E-02
  0.14882001E-02 -0.25944361E-02  0.15574532E-02
  0.10991362E-03  0.24742590E-02  0.15888703E-02
 -0.27922487E-02  0.18880821E-02 -0.28459467E-02
 -0.32879820E-03 -0.21121520E-02  0.49759698E-03
 -0.56226089E-02  0.18907144E-02  0.34146394E-02
  0.19005536E-02  0.24611904E-02 -0.18989287E-02
  0.51317599E-02  0.28854627E-02  0.39468575E-02
  0.17906434E-02  0.19939222E-02 -0.52552851E-03
 -0.11659927E-02  0.11668595E-02  0.28976999E-03
 -0.39433581E-02 -0.92691664E-03 -0.23330427E-02
  0.35366433E-02  0.94366216E-03 -0.16375564E-02
  0.41678666E-02 -0.29504047E-02 -0.38880318E-03
 -0.56617781E-03  0.39253315E-02 -0.13466549E-02
 -0.29990025E-02 -0.85775703E-03  0.23527822E-03
 -0.16877640E-02 -0.40271931E-02 -0.12820128E-03
 -0.88226903E-03  0.11031642E-02  0.42836493E-06
  0.11854683E-02  0.60137243E-02  0.42108152E-02
  0.25304352E-02 -0.16748139E-02  0.68073531E-02
 -0.12326063E-02 -0.10385951E-02 -0.24630504E-02
  0.42157296E-02  0.35173040E-02  0.38075600E-02
 -0.14908997E-02  0.25093511E-02 -0.38533588E-02
  0.31227612E-02 -0.54611361E-02 -0.11641823E-03
  0.12430136E-02 -0.63676114E-02 -0.36049586E-02
 -0.37172133E-03 -0.41328937E-02 -0.21128583E-02
  0.45658188E-03  0.65807893E-02 -0.17033462E-02
 -0.16871176E-02  0.28027088E-02  0.12503636E-02
 -0.34228628E-02  0.60973281E-02  0.25128151E-02
  0.75628677E-03  0.11285520E-02 -0.34180692E-02
 -0.30197211E-02  0.18457219E-02 -0.28947160E-02
  0.15236313E-02  0.22254266E-02 -0.47729593E-02
  0.28704399E-02  0.83988853E-03 -0.21803339E-02
 -0.20750320E-02  0.89265562E-03 -0.54249577E-03
 -0.15220461E-02  0.16223716E-02 -0.31147298E-02
 
           1
   2.00000000000000     
  0.10732581E+01  0.44302404E-03  0.14068616E-17  0.00000000E+00
  0.52307518E+00  0.64946879E+00  0.99397268E+00
  0.46856067E+00  0.48794020E+00  0.53784903E+00
  0.24554450E+00  0.47715039E+00  0.86850650E+00
  0.77558345E+00  0.26399340E-02  0.37087688E+00
  0.51078434E+00  0.97419649E+00  0.86909200E+00
  0.64488571E-02  0.48819023E+00  0.35846006E+00
  0.28543190E+00  0.17045118E+00  0.12701921E+00
  0.72704858E+00  0.23160640E+00  0.25166522E+00
  0.52386472E+00  0.17501059E-01  0.51264071E+00
  0.70302084E+00  0.25188584E+00  0.89349178E+00
  0.82052970E+00  0.78933633E+00  0.53976194E+00
  0.53079923E+00  0.96022293E+00  0.83248210E-02
  0.23666994E+00  0.26341486E+00  0.23700476E+00
  0.38656418E+00  0.83050772E+00  0.46535945E+00
  0.25707265E+00  0.93833465E+00  0.87372689E+00
  0.23242564E+00  0.48630011E+00  0.35553322E+00
  0.98500567E+00  0.73806068E+00  0.98048544E+00
  0.73991315E+00  0.24902362E+00  0.50925143E+00
  0.10852712E-01  0.44044664E+00  0.13026461E+00
  0.63288376E+00  0.75625427E+00  0.61791205E+00
  0.74122764E+00  0.76726233E+00  0.36231960E+00
  0.50174554E+00  0.42993991E+00  0.23063580E+00
  0.50918911E+00  0.50805977E+00  0.76443985E+00
  0.45129717E+00  0.82227694E+00  0.73810212E+00
  0.22888198E+00  0.52777131E+00  0.10252771E+00
  0.49082671E+00  0.68070470E-01  0.71949949E+00
  0.26933345E+00  0.70839357E+00  0.35561430E-02
  0.95366557E+00  0.25064929E+00  0.23588621E+00
  0.58967818E+00  0.69227781E+00  0.49271476E+00
  0.76031156E+00  0.51224651E+00  0.13566899E+00
  0.63379066E+00  0.44911370E+00  0.65371935E+00
  0.95851701E+00  0.74757949E+00  0.76753859E+00
  0.21933915E+00  0.88616378E+00  0.10102875E+00
  0.76528804E+00  0.47856387E+00  0.88488330E+00
  0.98735312E+00  0.98147206E+00  0.22955143E+00
  0.52473152E+00  0.12831546E-01  0.36821105E+00
  0.67623876E+00  0.75660745E+00  0.78864573E+00
  0.50791520E+00  0.24079329E+00  0.28855224E+00
  0.27851826E-01  0.48130682E+00  0.77014784E+00
  0.49791680E+00  0.69224117E+00  0.23005693E+00
  0.15906388E-01  0.98229289E+00  0.34368078E+00
  0.24832765E+00  0.73040827E+00  0.62383412E+00
  0.69146074E+00  0.30422850E-01  0.62361175E+00
  0.24750464E+00  0.80836428E+00  0.21584453E+00
  0.25180503E+00  0.21306513E+00  0.99194301E+00
  0.97069405E+00  0.99414639E+00  0.63919557E+00
  0.97269965E+00  0.20306984E+00  0.54454240E+00
  0.98398581E+00  0.21517313E+00  0.66588829E-03
  0.18079018E-01  0.97382339E+00  0.48793715E+00
  0.20305642E+00  0.75818816E+00  0.73997138E+00
  0.96171564E+00  0.35106534E-01  0.77676573E+00
  0.46698290E+00  0.93028233E+00  0.24345892E+00
  0.16222845E+00  0.26896997E+00  0.47107422E+00
  0.23094907E+00  0.26955359E+00  0.88488464E+00
  0.68090639E+00  0.26769459E+00  0.72781380E+00
  0.30740431E-01  0.48189636E+00  0.10211763E-01
  0.14612168E-01  0.97146433E+00  0.99762255E+00
  0.45974319E+00  0.27173372E+00  0.48071909E+00
  0.47479462E+00  0.38222798E+00  0.19803738E-01
  0.96293695E+00  0.53311573E+00  0.49204478E+00
  0.48935703E+00  0.99822917E+00  0.12869580E+00
  0.50575381E+00  0.46729675E+00  0.88641131E+00
  0.23021466E-01  0.47722912E+00  0.88093763E+00
  0.25294992E+00  0.43224090E-01  0.63164953E+00
  0.49214726E+00  0.46916708E+00  0.38958301E+00
  0.73607102E+00  0.78107908E+00  0.56595836E-02
  0.29214233E+00  0.98628456E+00  0.36334945E+00
  0.28256736E+00  0.27918028E+00  0.73966782E+00
  0.23218060E+00  0.74298896E+00  0.38458578E+00
  0.98874574E+00  0.24312020E+00  0.74350623E+00
  0.76950236E+00  0.80274795E+00  0.11744886E+00
  0.10958994E+00  0.74329095E+00  0.51658569E+00
  0.50541705E+00  0.54652829E+00  0.11453769E+00
  0.83720413E+00  0.57172087E+00  0.64336916E+00
  0.77949139E+00  0.74489146E+00  0.88702109E+00
  0.27304682E+00  0.26761763E+00  0.36042759E+00
  0.67599118E+00  0.26586443E+00  0.32165869E-01
  0.73804248E+00  0.23098203E+00  0.38108572E+00
  0.67067134E+00  0.91700824E-01  0.11479657E+00
  0.13572836E+00  0.55306025E+00  0.60262338E+00
  0.75032198E+00  0.11954262E-01  0.86537018E+00
  0.77019918E+00  0.71953530E+00  0.24045175E+00
  0.36170737E+00  0.44660823E+00  0.65073781E+00
  0.99877102E+00  0.38981949E-01  0.11635972E+00
  0.20298770E+00  0.26542541E+00  0.60187493E+00
  0.98974798E+00  0.55811085E+00  0.24497128E+00
  0.26633620E+00  0.73516492E+00  0.88391665E+00
  0.77604594E+00  0.50874807E+00  0.40090873E+00
  0.23133038E+00  0.39513585E-01  0.23824002E+00
  0.76540633E+00  0.51443089E+00  0.76534244E+00
  0.21851866E+00  0.24086025E-01  0.75198235E+00
  0.73216706E+00  0.46074011E+00  0.26825041E+00
  0.28061922E+00  0.97334992E+00  0.99390285E+00
  0.73191067E+00  0.49779092E+00  0.52206559E+00
  0.26705669E+00  0.12140138E-01  0.49601424E+00
  0.73647249E+00  0.52153633E+00  0.61058810E-02
  0.72404468E+00  0.99643434E+00  0.74115998E+00
  0.25824550E+00  0.54451725E+00  0.25056718E+00
  0.27360262E+00  0.52178066E+00  0.75616768E+00
  0.74183009E+00  0.98547564E+00  0.23788167E+00
  0.23167623E+00  0.50796719E+00  0.48633139E+00
  0.74600682E+00  0.99633658E+00  0.46413706E-02
  0.75193668E+00  0.95791452E+00  0.48558098E+00
  0.26853225E+00  0.48367139E+00  0.99186416E+00
  0.99048412E+00  0.24090473E+00  0.37051552E+00
  0.50128368E+00  0.73451943E+00  0.88749193E+00
  0.51275377E+00  0.24205939E+00  0.61427270E+00
  0.16028582E-02  0.76119135E+00  0.12377533E+00
  0.97743822E+00  0.23721076E+00  0.88579768E+00
  0.49980497E+00  0.73295820E+00  0.36247310E+00
  0.99400268E+00  0.77098013E+00  0.62787904E+00
  0.50874783E+00  0.25162579E+00  0.13665704E+00
  0.18493268E+00  0.37615736E+00  0.48764214E-01
  0.65083534E+00  0.88461093E+00  0.54211362E+00
  0.65091876E+00  0.95868695E-01  0.95962372E+00
  0.12626484E+00  0.58859872E+00  0.43163657E+00
  0.34517958E+00  0.36348075E+00  0.94910719E+00
  0.85284549E+00  0.85869247E+00  0.44015005E+00
  0.85572843E+00  0.11689032E+00  0.41790110E-01
  0.32317520E+00  0.62593400E+00  0.53012628E+00
  0.83890010E+00  0.99120000E-01  0.19282621E+00
  0.37925421E+00  0.64483097E+00  0.70999212E+00
  0.83526149E+00  0.87913116E+00  0.28731408E+00
  0.36527493E+00  0.40101790E+00  0.79423745E+00
  0.15449262E+00  0.63583398E+00  0.29687024E+00
  0.60869077E+00  0.86993399E-01  0.78477367E+00
  0.17180815E+00  0.42576441E+00  0.19975575E+00
  0.62394877E+00  0.89148673E+00  0.69360287E+00
  0.85104177E+00  0.62485434E+00  0.96199528E+00
  0.35707756E+00  0.98866363E-01  0.44681539E+00
  0.83745857E+00  0.38958816E+00  0.54786335E+00
  0.38278098E+00  0.85372379E+00  0.39600451E-01
  0.15316756E+00  0.10639876E+00  0.54889419E+00
  0.65876511E+00  0.62954008E+00  0.60252056E-01
  0.15759965E+00  0.84824308E+00  0.95587320E+00
  0.63447827E+00  0.40928912E+00  0.47177805E+00