Na88 Ge16 P8 S96                        
   1.00000000000000     
    13.3422163233000006    0.0000000000000000    0.0000000000000000
     0.0000000000000000   13.3422163233000006    0.0000000000000000
     0.0000000000000000    0.0000000000000000   26.6844326466999995
   Na   Ge   P    S 
    88    16     8    96
Direct
  0.2168374241750821  0.8896039275914458  0.1370148967862879
  0.5319961234004094  0.4783317188282013  0.7280963101891441
  0.5353912134054025  0.4545828916543109  0.8848126663179735
  0.0177261937295983  0.0287886128271247  0.2763820623437367
  0.7704743465948212  0.0364961080985395  0.8666711925971426
  0.0217304338199426  0.4917760506350588  0.3795781098932529
  0.0137957507315589  0.4806223155624121  0.9945559627016549
  0.2499363768984510  0.2328232947575745  0.2462257705091727
  0.6753974791653676  0.0165264960678692  0.6216765368285290
  0.7153992803949274  0.2534157465821843  0.7466935289174736
  0.6928826086477350  0.7302677272807119  0.3290361162288875
  0.2639441623354585  0.4832543021242130  0.8816937507737437
  0.7642954770512609  0.2302781244955815  0.1667116880642941
  0.1916243053082520  0.5972030609475262  0.6072259159226868
  0.0110020558392946  0.9910423872402107  0.8563137694845754
  0.5127906309376127  0.5098397072555608  0.3694499775118051
  0.9535108395516312  0.9694712332840861  0.5971510801147192
  0.9923326574456655  0.5244984906281898  0.6359460779689244
  0.4822524475456759  0.9770424646542828  0.1097148029192580
  0.9985203091705255  0.5325711567254657  0.8766700593780875
  0.5087812796703975  0.0062991946577778  0.3860898156875751
  0.1834137454746234  0.0612075339658054  0.3764557990290748
  0.7257572223221742  0.5657124487099553  0.8817043050813660
  0.6956136578720423  0.4965822588069763  0.6427759505275189
  0.2224124204489390  0.6087785870687549  0.1326040296414642
  0.2016947250337439  0.2826894316999805  0.5966384253830366
  0.7351834425303206  0.7518065087931957  0.1151019887725755
  0.8655345997057542  0.2265535499934550  0.4844421179504508
  0.4495261424164931  0.7594592291230481  0.5022135793236285
  0.5451616848017348  0.9267566695786098  0.9626088897329544
  0.9724099930932273  0.0323616340795998  0.4741778053430381
  0.4482111565183352  0.7492289916187886  0.7537327078118295
  0.0281213442189049  0.7517399235643677  0.2687154229979323
  0.4469231634002567  0.2348564390460168  0.7529258052675030
  0.0311685531665310  0.9401910863210270  0.0115875705758174
  0.5170470865184877  0.2185739511051999  0.4855283635552603
  0.4695378162587694  0.6901097123579892  0.0297334330589009
  0.7468052341136004  0.2030911657747705  0.3672928098614438
  0.9705875315202571  0.7679572392509827  0.7558102811668910
  0.5082505667637637  0.7444291166915850  0.2351614577027450
  0.0252484826153563  0.0011250683321406  0.1207575346762960
  0.5376170824925035  0.4557232368417890  0.0286223758793273
  0.4918053893485867  0.9770954662703522  0.7803654467648822
  0.9880332508311178  0.4751761259412690  0.2407588612594529
  0.2357958704398852  0.1974728776232239  0.0143865222313461
  0.7030190374103755  0.7316244313382758  0.4816094283428265
  0.2150982723683214  0.7453928569046049  0.5126639117377194
  0.7900572376272799  0.2467768765414748  0.0179165421443049
  0.9851677238881313  0.9842972217068099  0.7322552886564457
  0.4850419645170934  0.5100799656797551  0.2530883869356941
  0.0143179644483517  0.5336767064613088  0.7567371594889191
  0.5152281351931839  0.0324087324382346  0.2310929559079404
  0.2571329747871731  0.2598396249025968  0.4981609775531820
  0.7451713639824076  0.7600337672405002  0.9860950517554713
  0.7970922779985267  0.2378310889489650  0.6097010900865855
  0.2364187594112692  0.7149167695654430  0.0262644341379961
  0.0018140099574553  0.2666207235305967  0.0059792677637698
  0.4847711480500820  0.4891513499088330  0.4958358691534535
  0.3397832530629624  0.4033148632466728  0.1220136337645289
  0.0006430351540165  0.4866737395024984  0.4940124777900636
  0.2368289784693394  0.0111323656160450  0.8848870391922374
  0.9879239540101988  0.7587986100615369  0.4653461975869843
  0.9871819494923478  0.7430503600284010  0.9807468590191474
  0.4752105496727191  0.9862934807367087  0.4825871970602928
  0.5553872466520100  0.2762870899166536  0.2796660457930736
  0.7067374025634727  0.7568947321980060  0.7752072987865604
  0.2819055595411566  0.7464896134210565  0.2502883897293868
  0.9698310161669815  0.2458295562739395  0.7418258861324126
  0.7798059133488181  0.7431685917349782  0.2162190728526290
  0.1813618025724561  0.2631982935995827  0.7568944846611944
  0.8441946998837291  0.2208835593055895  0.2666261863226680
  0.2269971928294204  0.7438690169975275  0.7231992942748631
  0.0109606447138413  0.4740147252823355  0.1125389057541890
  0.4378686399478524  0.0112520957814188  0.6348665162100976
  0.7347233494957874  0.2637605433928326  0.8831463092297522
  0.2922454908288601  0.2432369144075722  0.3638706409483391
  0.2240581511741357  0.7575535379384253  0.8747097964905460
  0.7313456748183920  0.9649021112954272  0.3594450784702244
  0.7750176041884829  0.9815649108074608  0.1145227663375749
  0.3362899437085363  0.4518629215967445  0.6169828452541408
  0.5029949870208048  0.2431534970139195  0.0003488784622104
  0.2657420381417170  0.5465067383460462  0.3711148458919512
  0.7428982805591303  0.7627306830031049  0.6110438062832987
  0.2574383161680026  0.1400899136825084  0.1379564720537108
  0.2184242282999941  0.9947910232879184  0.6163276424619989
  0.6720949640690347  0.4626201550388980  0.1366742033347349
  0.2755411842468312  0.2705942855924993  0.8617029440819924
  0.7328999213828682  0.4497020957891282  0.3950099538940910
  0.2716749295770433  0.9783080700414992  0.2663273759493774
  0.7762164976296422  0.5161566435564404  0.7606857625719821
  0.2347022890872666  0.0208530129143484  0.7412745560097272
  0.7391018010139303  0.5090731645094946  0.2594144896167594
  0.2669996906791264  0.9560685864514821  0.0050984031495261
  0.7389483585709764  0.4841303038040431  0.5025108446470420
  0.2405956526843493  0.0109640293476274  0.4916180406076332
  0.7652060506673695  0.4923235534709547  0.0007406965030891
  0.7482986129944780  0.0136160489228539  0.7415893186136173
  0.2315339365704628  0.4895506137150345  0.2478633391492732
  0.2610709838736505  0.5004246724118776  0.7391277667119057
  0.7761777168476397  0.9939826958029330  0.2454560603605060
  0.2504648748600513  0.5100767422886657  0.4825729016891425
  0.7706953677103775  0.9911299420330835  0.0039002993230666
  0.7214765118498894  0.9882109347504326  0.4941298502134704
  0.2650248371078374  0.4600621605655674  0.9924434209166277
  0.9847668731046728  0.2385214483003576  0.3710743891418444
  0.4937380901485199  0.7413127152097618  0.8700332465362646
  0.4946039882866006  0.2493227248855343  0.6039621682071129
  0.0051107966916942  0.7105649808069198  0.1275954023314256
  0.0004634640925925  0.2550406522856599  0.8746230047324453
  0.4672517690928681  0.7525869087343844  0.3734246915918052
  0.0044514605082388  0.7595403370398623  0.6249345929700511
  0.5373702926679338  0.2472325613228400  0.1204954965572380
  0.1661133612665269  0.3613216303889399  0.0417284292089772
  0.6278758467550030  0.8972512583210361  0.5426198052036423
  0.6913763756291454  0.0995387932366517  0.9618041502698823
  0.1311653444852019  0.5953493072732898  0.4397947308743645
  0.3714088012954721  0.3592621332036207  0.9393067518116575
  0.8412385017119567  0.8893694197561349  0.4536469126022150
  0.8856147458091339  0.0766787935380225  0.0469903017024159
  0.3479975530299688  0.5967450604920941  0.5384699942535012
  0.8931536403884701  0.0716490579186075  0.1994840675147461
  0.3510108750926542  0.6048446282883300  0.6918725548685912
  0.8508745353362540  0.8876614824804184  0.2928825127901069
  0.3446475193643660  0.3814519690664170  0.7853245633620310
  0.1298075423376936  0.5867786608668805  0.2891854835782334
  0.6466150714619956  0.1335274302461390  0.7967400127596652
  0.1603227725425737  0.4120807337665019  0.1815992987338478
  0.6189953033047917  0.9218065953793009  0.7012714004564030
  0.8597478179320084  0.6027739519983608  0.9606463301222228
  0.3393779762346439  0.1109071460348910  0.4449921071881737
  0.8378523221584399  0.4219071703472361  0.5670656202078390
  0.3646612669693894  0.8622607660959983  0.0590983786475779
  0.1303789228664486  0.1028352667852561  0.5228198032504323
  0.6644910050907400  0.6123768849409293  0.0389363381822401
  0.1773307336103838  0.8555882008439571  0.9561577157582752
  0.6686453598285573  0.3536563099348917  0.4708064364365038
  0.6336972306968653  0.4558043569961695  0.3118916388037951
  0.1390783213190613  0.8943344404004789  0.7856386523203390
  0.1352523731933842  0.1209834285860457  0.7018117956740704
  0.6423727527113910  0.6278781558884645  0.2180526593163267
  0.8623064275782957  0.4111604203363673  0.7123662437806504
  0.3611611092310285  0.8903487800966902  0.1990310499787884
  0.3816999615024326  0.0887688551145066  0.3019169343233741
  0.8631787939206768  0.6161443233692601  0.8132316957378134
  0.1738605077014308  0.0346433827224271  0.0689604214547407
  0.6292195023494240  0.5983587225751578  0.5389849791574907
  0.6568518835465272  0.4034084724475155  0.9559637551788903
  0.1660923509841467  0.9004265602724061  0.4377103069825165
  0.3440369903912998  0.0810838772586644  0.9708076211578877
  0.8495606478049149  0.5595932829016169  0.4491082393762719
  0.8406119648805227  0.4039431110678453  0.0606610722326567
  0.3331462966887085  0.9083841171534539  0.5506357797350194
  0.1547340108017024  0.0589113310243035  0.2123532349280974
  0.6624490746639073  0.6092274048478628  0.7201185782024738
  0.1894857498542254  0.8879250258823671  0.3174598207182238
  0.6792800555913361  0.4181498685450979  0.8040537593187304
  0.8675121612907744  0.5719767948413448  0.3018706044018941
  0.3145646002249337  0.0988629447697559  0.8041526164779119
  0.7955644723205545  0.3792101362193044  0.2179483513209551
  0.3330485071268809  0.9188708356848786  0.6984089834267808
  0.8638531114526283  0.9021725618747788  0.9570073505472141
  0.3460041842254258  0.4077341985169726  0.4384637295907986
  0.8128087587236869  0.0714870253163380  0.5414087646681047
  0.3534111788662604  0.5430123571046160  0.0480657076909444
  0.1528579850095248  0.4435662101230804  0.5449053405900751
  0.6648590697153250  0.8949294165864045  0.0524028016503324
  0.1545078869447614  0.5614841180873615  0.9526239542138136
  0.6383710449229673  0.0860424123131746  0.4456586046867731
  0.3296651392118996  0.3960093268054501  0.2919172163480718
  0.8331585284098453  0.9236215433331942  0.7933610214852493
  0.8489336076967222  0.1080320204075840  0.6924884751247914
  0.3535967912227865  0.5962534995669991  0.1928833236697422
  0.1598444270797751  0.4139315099357802  0.6819062008641188
  0.6638111571047741  0.9201803698436356  0.1988536295332001
  0.6780902550508547  0.1175335810205795  0.2810642371112994
  0.1872975619271198  0.6066869310985610  0.7946344241947108
  0.0897598644844736  0.1852951026569672  0.3144650057485661
  0.6229960914605349  0.7849799797722607  0.8932452099105848
  0.5807712367739578  0.3053338564556381  0.6593801591830027
  0.1056958165040507  0.7678534328742644  0.1730097829611198
  0.3629803394670160  0.2257448297399693  0.6440946963402867
  0.9033129824042189  0.6260738383417250  0.1648576024052332
  0.8940751814249629  0.3438827351971340  0.3449438255635780
  0.5085269064369466  0.6156565206684117  0.8247971706391147
  0.0954532614243530  0.1612492368694485  0.9145562669317540
  0.5749245636771393  0.6770661193833425  0.4151062989191299
  0.1087453194616474  0.8434708721776032  0.5857795582944663
  0.6543736304093211  0.2968759205498546  0.0856019701487950
  0.9209092724658521  0.6725810622681115  0.5688895430475190
  0.4090004426058493  0.2101165855556148  0.0839806940754593
  0.9127121894787034  0.3312392642927113  0.9256121978952707
  0.3711082222451854  0.8423564359653559  0.4127093582513264
  0.9049696142141664  0.8571245488867573  0.6648632664618330
  0.4999092784216724  0.3479959396181182  0.1694051212729580
  0.8938915081759302  0.1716636720730811  0.8317811495180689
  0.4141823137844790  0.6588962848880183  0.3222733345986342
  0.0899148377542555  0.3625192617233647  0.8321268468521384
  0.5544647769581121  0.8630756610783133  0.3294140955660325
  0.0640505115429556  0.6675430296906306  0.6799179827674000
  0.5877460726262314  0.1237131509574781  0.1509590620346290
  0.4262760831894121  0.3396707921476746  0.5476866416716486
  0.9388944426377362  0.8271602956831658  0.0903338438221211
  0.9121631612186124  0.0979473388128945  0.3858001569406982
  0.4154518495846848  0.7077079304957840  0.9332051969271716
  0.0715674001621134  0.2987196414432864  0.4307747191968886
  0.4049917166981115  0.8477831919429355  0.8348441976891461
  0.5614005054556591  0.1271543891734328  0.5704618990449092
  0.0711021868645599  0.6384842817348446  0.0609183415583781
 
 -0.46874917E-02 -0.30874653E-02 -0.75081517E-02
 -0.10809619E-01  0.15469625E-02 -0.41974943E-02
  0.17127198E-01  0.25846288E-02 -0.47167101E-02
 -0.35945682E-02 -0.20556965E-02 -0.32110578E-03
  0.72527915E-02  0.11209817E-02  0.69115501E-02
 -0.14495197E-02  0.87731690E-02 -0.48242885E-02
 -0.12383775E-01  0.92924630E-02  0.57313327E-02
 -0.75302565E-02 -0.22666079E-02  0.66493120E-02
  0.25531260E-02  0.11119401E-02  0.21911433E-02
  0.23722481E-03 -0.71259600E-02 -0.43596672E-02
  0.33353557E-02  0.30182964E-02 -0.45091466E-02
 -0.68375096E-02  0.85218236E-02 -0.12229646E-01
 -0.87354559E-02  0.44861167E-02  0.82977326E-02
  0.11151836E-02 -0.98155083E-02  0.74674862E-03
 -0.77788980E-02 -0.84179651E-03  0.84101445E-02
 -0.32291799E-03 -0.15890143E-01 -0.72767358E-03
  0.23658936E-02 -0.27943634E-02 -0.92030764E-02
 -0.56795112E-02  0.16852723E-03  0.36272974E-02
  0.19382885E-02 -0.26542860E-02  0.12456841E-01
 -0.86247620E-02  0.20033186E-02  0.16858824E-01
  0.26997995E-02  0.90279228E-03  0.36455670E-02
 -0.19078839E-02  0.10958594E-01  0.90984948E-04
  0.60552261E-02  0.13871387E-02  0.42150918E-02
  0.85448867E-02 -0.14824568E-02 -0.56206201E-02
 -0.84176625E-02  0.74891087E-02  0.16424621E-03
 -0.91741240E-02  0.58276629E-02 -0.16458547E-02
  0.51395742E-02  0.47380822E-03 -0.11558807E-01
  0.48828884E-02 -0.18818407E-01 -0.13417588E-01
 -0.13309564E-02  0.62747150E-02 -0.61692413E-02
 -0.52871057E-03  0.69963189E-02 -0.73500704E-02
  0.11482051E-02  0.99249495E-02 -0.31473122E-02
  0.17920612E-02  0.49420426E-02 -0.55873861E-02
  0.55139567E-02 -0.54440787E-02 -0.63391839E-03
  0.13163122E-02  0.30174772E-02  0.13106556E-02
 -0.96618450E-02  0.92720664E-02  0.27540193E-03
  0.20754225E-02 -0.26417579E-03  0.12921637E-01
 -0.53405717E-03  0.15538215E-01 -0.35139097E-02
 -0.31347889E-02 -0.73832137E-02  0.10437731E-01
 -0.63590354E-02  0.12087988E-02  0.69225607E-03
  0.72841013E-02 -0.30971719E-02 -0.50403030E-03
 -0.10853353E-02 -0.19830976E-03 -0.54912083E-02
 -0.37822389E-02 -0.20763808E-02 -0.69357222E-02
  0.14671893E-01  0.58701385E-03 -0.60096464E-04
 -0.98568271E-02 -0.55360405E-02 -0.17374904E-02
  0.23924334E-02  0.18805472E-02 -0.42174496E-02
  0.60681005E-02  0.70501996E-02  0.61811827E-03
 -0.50240608E-02  0.14015310E-03  0.34681177E-02
  0.29779174E-02 -0.10566093E-03  0.51068859E-02
 -0.37063848E-02 -0.10090076E-01 -0.25746876E-02
  0.64129793E-02 -0.91197618E-04  0.88861903E-02
 -0.17962493E-02  0.49143846E-02 -0.10875434E-01
 -0.60356508E-02 -0.79499770E-02 -0.18289571E-02
 -0.36536660E-02 -0.44119157E-02  0.15166607E-02
  0.12675999E-01 -0.92479973E-02 -0.41312912E-02
  0.26257232E-03  0.11796276E-01 -0.24902029E-02
 -0.45508723E-02  0.29378565E-02  0.14628706E-02
  0.50917985E-02  0.14007051E-02  0.30117999E-02
 -0.17572783E-02 -0.80748119E-03 -0.67332941E-03
  0.11576742E-02 -0.61008433E-02  0.84563000E-03
  0.10793190E-01  0.59504211E-02  0.95765126E-02
 -0.56495696E-02 -0.55009039E-02 -0.62350780E-02
 -0.59071604E-02  0.71060794E-02  0.74728698E-02
  0.35436540E-02 -0.34074720E-03  0.15003811E-02
  0.22647121E-02 -0.50370554E-02 -0.32929621E-03
  0.62063806E-02 -0.10549959E-01 -0.88678596E-02
  0.12087710E-02  0.47531266E-02  0.15913352E-02
 -0.35487482E-02 -0.53613273E-02  0.46570831E-03
 -0.75779478E-02  0.35828825E-02 -0.39297454E-02
  0.10235901E-01 -0.14373075E-01  0.46109750E-02
  0.26426958E-02 -0.38564040E-02  0.51274919E-02
 -0.36513060E-02  0.16405597E-02 -0.17204979E-02
 -0.51845744E-02  0.39969609E-02  0.67521820E-02
 -0.23808079E-02  0.37138426E-02 -0.16512235E-02
 -0.40185720E-03  0.10023542E-01 -0.40720713E-02
 -0.62201794E-02 -0.16517352E-02 -0.49180664E-02
 -0.23088479E-02 -0.33855793E-02 -0.60308573E-02
 -0.14486612E-01 -0.36072535E-02  0.77489223E-02
  0.31248194E-02 -0.16087048E-02 -0.46803190E-02
  0.37001797E-02  0.33294682E-02  0.33049416E-03
 -0.12686904E-01  0.66052604E-02  0.48038914E-02
 -0.21887819E-02 -0.45154033E-02 -0.53243870E-02
 -0.70096989E-03 -0.58068074E-02  0.70497364E-02
 -0.10750970E-01  0.86331303E-02 -0.13423514E-01
 -0.26241253E-02 -0.81847728E-02 -0.83902788E-04
 -0.99456816E-02 -0.50287914E-02 -0.45398144E-02
  0.24131837E-02  0.11978616E-01  0.14090465E-02
  0.59704688E-02 -0.14988838E-02 -0.18128782E-02
  0.13711578E-01  0.11187999E-01  0.28386281E-02
  0.48531589E-02  0.38241863E-02  0.50345081E-02
  0.21550354E-02  0.23568809E-03 -0.13716552E-02
 -0.41614588E-02  0.37974256E-02  0.31076738E-02
  0.55185424E-02 -0.32560785E-02  0.73353730E-03
  0.39445098E-02  0.72814196E-02 -0.15610293E-02
  0.27942571E-02 -0.21703522E-02  0.48569824E-02
 -0.43447792E-02  0.11469198E-02 -0.33472179E-02
 -0.24053638E-02  0.19936400E-02  0.27653674E-02
 -0.66488087E-02 -0.33906373E-02  0.18202100E-02
  0.11223969E-02 -0.44400311E-02 -0.23468602E-02
 -0.22339320E-03 -0.49928352E-02 -0.20579068E-02
  0.38945761E-03 -0.38905622E-03 -0.56977124E-02
  0.87891065E-03  0.33100947E-02 -0.18905309E-02
 -0.21831950E-02 -0.27945297E-02 -0.39902917E-02
 -0.62615473E-02  0.21136478E-03 -0.93906307E-03
 -0.87313582E-03  0.32425118E-03 -0.28108615E-04
 -0.50655230E-02 -0.19244103E-02 -0.61984771E-02
  0.14413453E-02  0.26686483E-02  0.48841455E-03
 -0.32238343E-03 -0.49827486E-02  0.80923884E-02
  0.18939200E-02  0.60099323E-02 -0.52725899E-03
 -0.11865916E-01  0.20817441E-02  0.21915600E-02
  0.34936791E-02  0.50821785E-03  0.17966950E-02
  0.17530415E-02  0.20486008E-02 -0.41193583E-02
 -0.23357281E-02  0.10208529E-01  0.86332820E-03
  0.88664286E-02  0.26689835E-03  0.10852992E-01
  0.13269191E-03 -0.27889156E-03  0.92121181E-03
  0.76773905E-02 -0.28951927E-04 -0.61106741E-02
  0.80504684E-02  0.70117582E-02  0.93235045E-03
 -0.68516327E-02 -0.27482974E-02  0.72460137E-02
 -0.82196282E-03  0.46654912E-02 -0.73852705E-03
  0.13093888E-03 -0.78345734E-02  0.13895135E-02
  0.10633648E-03 -0.58991850E-02  0.34290473E-02
 -0.26909817E-02  0.45833861E-02  0.63793405E-02
  0.98849299E-02 -0.45685503E-02  0.10764949E-02
  0.42579587E-02 -0.48652957E-02 -0.15236061E-02
  0.93033422E-02 -0.12161309E-02  0.32307851E-02
  0.48574229E-02 -0.79358588E-02 -0.77747607E-02
  0.36614016E-02 -0.65955923E-02  0.37994671E-02
  0.62311638E-02  0.94810246E-03  0.28970376E-02
  0.93827975E-02  0.54090184E-02  0.39224434E-03
 -0.12821514E-02 -0.35541042E-02  0.36508190E-02
  0.70075528E-02  0.34898684E-02  0.78813451E-02
 -0.11391022E-02 -0.51285598E-02 -0.10655260E-02
  0.34513731E-02  0.91830871E-02 -0.21739682E-02
 -0.25026146E-02  0.54506750E-03  0.11343182E-03
 -0.46400714E-02  0.12820716E-01 -0.30012673E-02
  0.20797771E-02  0.30945629E-02 -0.12655133E-02
  0.34048811E-02 -0.25181994E-02 -0.70496765E-03
  0.65984718E-02  0.28374348E-02 -0.99413961E-03
  0.87900071E-03 -0.79058347E-02  0.36337428E-02
  0.36205820E-03  0.11639596E-02 -0.13629591E-02
 -0.16632571E-02 -0.21938204E-02  0.30760657E-02
 -0.22777857E-02 -0.54043452E-02 -0.14247619E-02
  0.14554918E-01 -0.10805375E-01  0.44683122E-02
 -0.15642857E-03  0.12056942E-01  0.43349501E-03
 -0.11425113E-02 -0.11177187E-01 -0.12960926E-02
 -0.41150498E-02 -0.43892597E-02  0.18827975E-02
  0.18800329E-03  0.37581186E-02  0.55608614E-02
 -0.31612303E-03  0.60792288E-02 -0.16043457E-01
 -0.72544269E-02  0.12065525E-02  0.67963951E-02
 -0.90692902E-02  0.45166643E-02 -0.59446584E-02
 -0.22834853E-02 -0.48377911E-02 -0.28285156E-02
 -0.39865977E-02 -0.51778328E-02 -0.23694041E-02
 -0.43753667E-03  0.39371442E-02 -0.28915011E-02
 -0.58731672E-03 -0.36011008E-02 -0.28613505E-02
 -0.90407621E-03  0.79062690E-02  0.42797112E-03
  0.31796697E-02  0.46731343E-03 -0.26392566E-02
 -0.65806732E-02 -0.95336325E-02 -0.29862970E-02
  0.17719621E-02 -0.35289027E-02  0.45669377E-02
 -0.58129191E-02  0.73264299E-02  0.17478544E-03
 -0.48344323E-03 -0.64113067E-02 -0.57716653E-02
  0.51948114E-02  0.82503788E-02  0.64531112E-02
  0.23660407E-02  0.78484295E-03  0.14435310E-02
 -0.62453893E-02 -0.26282538E-02 -0.26229101E-02
  0.43411391E-02  0.38095072E-02  0.34565105E-02
  0.51859941E-03 -0.50274083E-02 -0.34197764E-02
  0.22004547E-02  0.82524693E-02  0.23519945E-02
  0.23876480E-03  0.24609640E-02 -0.81603900E-03
  0.11414930E-01  0.14974633E-03 -0.42598907E-02
 -0.72254295E-04  0.30628565E-02 -0.14855231E-03
  0.69823374E-02 -0.89888443E-03  0.24916290E-02
 -0.49185556E-02 -0.77848871E-02 -0.49361084E-03
 -0.24280802E-02  0.92894793E-03 -0.33989975E-02
  0.88606779E-04  0.12545606E-02  0.17515634E-02
 -0.76041156E-02 -0.74109450E-02 -0.35011399E-02
  0.57435537E-02  0.34088876E-02  0.10612616E-02
  0.17169211E-02 -0.26709343E-02  0.10472842E-02
  0.13587668E-02  0.21437769E-02  0.81258291E-03
 -0.76236224E-02 -0.23366856E-02 -0.55451344E-02
 -0.33405737E-02  0.46386225E-03 -0.27048221E-02
  0.14595728E-01 -0.15796483E-01  0.10401830E-01
  0.71468515E-02  0.51272317E-02  0.29981408E-02
 -0.91180135E-02 -0.57696396E-02 -0.35997921E-02
 -0.54566331E-02  0.65880570E-02  0.40361499E-02
 -0.90860882E-03  0.60466448E-02 -0.73487078E-02
  0.36877815E-02  0.69968556E-02 -0.65508512E-02
 -0.57743572E-02  0.61773122E-02 -0.35935184E-02
 -0.63802003E-02 -0.30004727E-02  0.24405310E-02
  0.34157373E-02 -0.66952865E-03  0.35225547E-02
 -0.69369489E-02  0.15787701E-02 -0.28055454E-02
 -0.34264261E-02  0.11711503E-02  0.40288296E-02
  0.75893375E-03 -0.73892736E-02  0.59558189E-02
  0.86170176E-02 -0.10429271E-01 -0.51674249E-02
 -0.18327244E-02 -0.13944854E-02  0.45026850E-02
 -0.59344261E-02 -0.29267813E-02 -0.14575190E-03
 -0.72401877E-02 -0.19379888E-02 -0.20066176E-02
  0.31233208E-02  0.11148041E-01  0.13649274E-01
 -0.86059813E-03 -0.39621846E-02  0.64976979E-02
  0.27807839E-02  0.16442356E-02 -0.36819317E-02
  0.24235144E-02 -0.10981203E-02  0.40818921E-02
  0.55404592E-02  0.12821576E-02  0.57289971E-02
  0.74642693E-02  0.68278888E-02 -0.82077180E-03
  0.11025228E-01 -0.82624475E-02 -0.11838240E-01
  0.72121230E-02 -0.14087963E-02  0.57761334E-03
 -0.11485044E-01 -0.61304410E-02 -0.67791588E-03
 -0.19102598E-02 -0.26861676E-02  0.21128629E-02
 -0.78429815E-02  0.11175202E-02  0.42831093E-02
 -0.74298777E-02 -0.66123690E-03  0.46792730E-02
  0.29342399E-02 -0.72617934E-03 -0.47030267E-02
  0.67178760E-02 -0.20079294E-02 -0.28619172E-02
 
           1
   2.00000000000000     
  0.58984996E+00 -0.23513029E-02  0.00000000E+00  0.00000000E+00
  0.21613477E+00  0.88914112E+00  0.13645216E+00
  0.53037576E+00  0.47856361E+00  0.72778171E+00
  0.53795858E+00  0.45497033E+00  0.88445915E+00
  0.17187367E-01  0.28480464E-01  0.27635800E+00
  0.77156154E+00  0.36664143E-01  0.86718921E+00
  0.21513151E-01  0.49309115E+00  0.37921653E+00
  0.11939421E-01  0.48201526E+00  0.99498553E+00
  0.24880759E+00  0.23248353E+00  0.24672414E+00
  0.67578019E+00  0.16693176E-01  0.62184076E+00
  0.71543484E+00  0.25234756E+00  0.74636677E+00
  0.69338258E+00  0.73072017E+00  0.32869816E+00
  0.26291922E+00  0.48453172E+00  0.88077714E+00
  0.76298603E+00  0.23095059E+00  0.16733360E+00
  0.19179147E+00  0.59573171E+00  0.60728188E+00
  0.98359980E-02  0.99091620E+00  0.85694411E+00
  0.51274223E+00  0.50745777E+00  0.36939544E+00
  0.95386549E+00  0.96905236E+00  0.59646131E+00
  0.99148130E+00  0.52452375E+00  0.63621794E+00
  0.48254300E+00  0.97664459E+00  0.11064844E+00
  0.99722746E+00  0.53287145E+00  0.87793363E+00
  0.50918598E+00  0.64345233E-02  0.38636305E+00
  0.18312775E+00  0.62850229E-01  0.37646262E+00
  0.72666490E+00  0.56592038E+00  0.88202023E+00
  0.69689454E+00  0.49636004E+00  0.64235468E+00
  0.22115061E+00  0.60990121E+00  0.13261634E+00
  0.20031952E+00  0.28356300E+00  0.59651507E+00
  0.73595387E+00  0.75187753E+00  0.11423566E+00
  0.86626655E+00  0.22373267E+00  0.48343647E+00
  0.44932663E+00  0.76039981E+00  0.50175119E+00
  0.54508243E+00  0.92780542E+00  0.96205800E+00
  0.97258211E+00  0.33849385E-01  0.47394191E+00
  0.44847979E+00  0.74996980E+00  0.75331393E+00
  0.28947887E-01  0.75092386E+00  0.26866791E+00
  0.44712048E+00  0.23530876E+00  0.75302404E+00
  0.29720241E-01  0.94158097E+00  0.11608212E-01
  0.51735819E+00  0.21853435E+00  0.48649684E+00
  0.46945776E+00  0.69243889E+00  0.29470065E-01
  0.74633533E+00  0.20198442E+00  0.36807512E+00
  0.96963431E+00  0.76813844E+00  0.75586217E+00
  0.50934245E+00  0.74396485E+00  0.23512368E+00
  0.25085791E-01  0.10953417E-02  0.12034597E+00
  0.53705012E+00  0.45541199E+00  0.28102543E-01
  0.49400471E+00  0.97718346E+00  0.78036094E+00
  0.98655571E+00  0.47434627E+00  0.24062864E+00
  0.23615450E+00  0.19775477E+00  0.14070424E-01
  0.70392865E+00  0.73268126E+00  0.48165576E+00
  0.21434516E+00  0.74541387E+00  0.51292385E+00
  0.79050363E+00  0.24676104E+00  0.18299304E-01
  0.98461214E+00  0.98278472E+00  0.73206232E+00
  0.48600327E+00  0.51006630E+00  0.25375441E+00
  0.14048706E-01  0.53441337E+00  0.75592204E+00
  0.51432339E+00  0.31217030E-01  0.23095588E+00
  0.25658529E+00  0.25917828E+00  0.49827465E+00
  0.74707150E+00  0.75864749E+00  0.98578541E+00
  0.79713164E+00  0.23959935E+00  0.60951445E+00
  0.23573658E+00  0.71535715E+00  0.26374076E-01
  0.25772712E-02  0.26683069E+00  0.62050024E-02
  0.48450773E+00  0.48903031E+00  0.49578540E+00
  0.33995679E+00  0.40240035E+00  0.12207701E+00
  0.22609358E-02  0.48756571E+00  0.49473024E+00
  0.23598211E+00  0.10307779E-01  0.88441972E+00
  0.98703847E+00  0.75986381E+00  0.46590629E+00
  0.98771314E+00  0.74299928E+00  0.98085931E+00
  0.47555003E+00  0.98553843E+00  0.48256252E+00
  0.55631758E+00  0.27470565E+00  0.27900140E+00
  0.70691860E+00  0.75760723E+00  0.77532657E+00
  0.28137360E+00  0.74568595E+00  0.25032329E+00
  0.96869508E+00  0.24636663E+00  0.74153135E+00
  0.78134028E+00  0.74101407E+00  0.21656467E+00
  0.18175794E+00  0.26262022E+00  0.75727879E+00
  0.84364737E+00  0.22112948E+00  0.26649723E+00
  0.22622002E+00  0.74446816E+00  0.72370537E+00
  0.10603761E-01  0.47457143E+00  0.11241515E+00
  0.43780840E+00  0.12754626E-01  0.63456131E+00
  0.73379094E+00  0.26351295E+00  0.88277770E+00
  0.29189939E+00  0.24272942E+00  0.36341863E+00
  0.22188661E+00  0.75701281E+00  0.87529058E+00
  0.73181409E+00  0.96466097E+00  0.35909429E+00
  0.77557226E+00  0.98206400E+00  0.11454754E+00
  0.33438818E+00  0.45285305E+00  0.61734290E+00
  0.50266689E+00  0.24247664E+00  0.99994982E+00
  0.26563696E+00  0.54563630E+00  0.37164322E+00
  0.74128671E+00  0.76402479E+00  0.61003771E+00
  0.25704496E+00  0.13886302E+00  0.13795018E+00
  0.21693337E+00  0.99403721E+00  0.61598738E+00
  0.67245670E+00  0.46441575E+00  0.13677981E+00
  0.27643616E+00  0.27036960E+00  0.86156707E+00
  0.73495529E+00  0.45137918E+00  0.39522271E+00
  0.27240242E+00  0.97888132E+00  0.26670471E+00
  0.77653954E+00  0.51619197E+00  0.76058296E+00
  0.23407849E+00  0.21422248E-01  0.74150748E+00
  0.73992903E+00  0.50858508E+00  0.25946947E+00
  0.26759097E+00  0.95716007E+00  0.49814039E-02
  0.73936722E+00  0.48380497E+00  0.50287488E+00
  0.23994437E+00  0.11135953E-01  0.49136717E+00
  0.76484549E+00  0.49262240E+00  0.94796097E-03
  0.74730196E+00  0.13107792E-01  0.74172574E+00
  0.23170218E+00  0.48888505E+00  0.24768744E+00
  0.26103750E+00  0.49967625E+00  0.73897353E+00
  0.77623610E+00  0.99392438E+00  0.24502902E+00
  0.25059662E+00  0.51057293E+00  0.48243121E+00
  0.77036811E+00  0.99071104E+00  0.36012267E-02
  0.72053791E+00  0.98824262E+00  0.49405947E+00
  0.26489395E+00  0.46011077E+00  0.99244131E+00
  0.98400755E+00  0.23823298E+00  0.37060981E+00
  0.49395415E+00  0.74171275E+00  0.87006985E+00
  0.49455566E+00  0.24857581E+00  0.60456869E+00
  0.53946956E-02  0.71146587E+00  0.12755588E+00
  0.99868476E+00  0.25535271E+00  0.87478726E+00
  0.46777547E+00  0.75266309E+00  0.37355935E+00
  0.47142417E-02  0.75984742E+00  0.62462585E+00
  0.53702017E+00  0.24876282E+00  0.12056020E+00
  0.16744244E+00  0.36136164E+00  0.42541862E-01
  0.62789574E+00  0.89720945E+00  0.54268885E+00
  0.69252722E+00  0.99534453E-01  0.96134615E+00
  0.13237211E+00  0.59640037E+00  0.43986461E+00
  0.37038174E+00  0.35885016E+00  0.93984984E+00
  0.84111529E+00  0.89006878E+00  0.45359156E+00
  0.88563437E+00  0.75504390E-01  0.47094446E-01
  0.34801349E+00  0.59586077E+00  0.53872700E+00
  0.89275026E+00  0.72336108E-01  0.19996220E+00
  0.35249263E+00  0.60415980E+00  0.69195324E+00
  0.85151280E+00  0.88693217E+00  0.29276832E+00
  0.34604209E+00  0.38126967E+00  0.78556671E+00
  0.13053567E+00  0.58558907E+00  0.28860276E+00
  0.64716392E+00  0.13253875E+00  0.79702478E+00
  0.16125682E+00  0.41222285E+00  0.18181643E+00
  0.62040179E+00  0.92261741E+00  0.70130080E+00
  0.85955562E+00  0.60224119E+00  0.96091996E+00
  0.34042841E+00  0.11143028E+00  0.44558281E+00
  0.83768157E+00  0.42113840E+00  0.56698576E+00
  0.36517863E+00  0.86363731E+00  0.58935440E-01
  0.13000378E+00  0.10291697E+00  0.52282830E+00
  0.66379546E+00  0.61429871E+00  0.38711393E-01
  0.17764249E+00  0.85605208E+00  0.95606287E+00
  0.66915575E+00  0.35327883E+00  0.47075360E+00