Na88 Sn16 P8 S96                        
   1.00000000000000     
    13.4813327813000008    0.0000000000000000    0.0000000000000000
     0.0000000000000000   13.4813327813000008    0.0000000000000000
     0.0000000000000000    0.0000000000000000   26.9626655626000016
   Na   Sn   P    S 
    88    16     8    96
Direct
  0.0013876254205705  0.9898190906104735  0.1305730258876407
  0.5333022090635027  0.3630865346551241  0.7281207277114660
  0.3206329483041716  0.2534654613962199  0.8524302563405317
  0.2779901058595389  0.9865051746113361  0.3592427434993806
  0.3045373031284565  0.9665277756369023  0.8687539665132896
  0.9883814495797224  0.5240470678044061  0.4964803183731993
  0.9780306195367092  0.5863399255265482  0.2320873304021260
  0.3806641038622173  0.4469605415928710  0.1305344571753166
  0.9912351840755204  0.0866460866350501  0.6228696868028959
  0.7655089128153059  0.2397471263873309  0.8844167721218127
  0.7723910328732401  0.7957380954084290  0.3599491069733239
  0.2639467691718891  0.2382341089876117  0.0071803454248049
  0.5244552915675107  0.9670999479102441  0.2569371116001179
  0.2586185941977777  0.8250235417851037  0.6236864632354852
  0.9977056406904226  0.0155093036589182  0.7384443845990653
  0.4955143244553249  0.4204110614500792  0.3744338119420410
  0.0707619144268796  0.2583241910533127  0.7615472154638999
  0.0031139927832601  0.4343032285944793  0.6234072761927381
  0.2619834004883972  0.8793231538611630  0.1288584588836711
  0.0384136395315184  0.7759803127731459  0.9889092970904912
  0.7489263865515571  0.0148654832040737  0.3798382549172539
  0.2755912035852590  0.2395445082344842  0.2640959558578941
  0.7453942896600210  0.5302844971795577  0.8759542883922438
  0.7309309131912556  0.5729386865693621  0.6309526636308835
  0.7046351223577872  0.7494147191553066  0.9868666953522702
  0.3035133712911489  0.2375282801148910  0.7290268770405487
  0.0119052212825682  0.5129300848385324  0.0205310240765054
  0.7835060607452168  0.3028841811864672  0.1453588315241631
  0.4754614983901443  0.7117481640744379  0.4748547617090869
  0.5249130740329797  0.2207775555116392  0.9938771847441039
  0.7544550945008024  0.7430947539378042  0.5220501516165612
  0.4357740658634342  0.6237297588156309  0.7566366879745993
  0.7804101822932463  0.7308990649866439  0.1031081924790913
  0.2527109643395845  0.4869594575649006  0.8774650145546560
  0.7905044455267602  0.2465914052351057  0.9954130201925860
  0.4873984216150921  0.2607627908273190  0.4801086265440050
  0.0310384995951791  0.0506106173683832  0.2574106877965582
  0.5414345991022852  0.2330357156902410  0.2491089882174688
  0.0330432999625855  0.0252841471510265  0.8736877213931696
  0.6287376874470400  0.7493022490690148  0.2618713373419502
  0.0162614157727732  0.9988044583651206  0.3893172080694965
  0.4966034504558203  0.5407546840774968  0.6228544909182748
  0.5055841413585365  0.0311747927416576  0.8653649559079035
  0.0153420313287268  0.5150933916477622  0.3634961478083944
  0.7685990517872164  0.1915674102960181  0.7650033067040061
  0.4835129956104922  0.0261723063275865  0.5016714420750079
  0.2177212600062377  0.7709574161297814  0.4964210625656160
  0.5225764777076222  0.9332886290625556  0.9859740450873400
  0.7332656458971777  0.9661647710062604  0.8745067763637397
  0.4639068401984479  0.5226839109460444  0.2570661896769572
  0.9944561192121887  0.7370094490423333  0.7324969926444168
  0.5203793173135924  0.0504106992769914  0.3731657478296455
  0.2425979440730178  0.2469539151742220  0.3878148194156335
  0.4815097887920883  0.6533418497183446  0.1081459383135397
  0.7479667224496132  0.2528277567936368  0.5102790750981556
  0.3194038142430170  0.7438440422091860  0.9812769233377990
  0.2088715923347105  0.1978274653610367  0.1352559605652199
  0.5143849956537444  0.4833182122864513  0.5054538773631360
  0.5067320515852093  0.4570772638462849  0.8811741071562105
  0.9995804061161586  0.9424485387111398  0.5206910763120763
  0.5025935609454689  0.9370027095646701  0.1167424797527654
  0.0036224957381374  0.2744375906732851  0.5106896902909885
  0.0328451113620402  0.5531642944250585  0.8926607445814135
  0.5108848734843823  0.9720955446583804  0.6375566579808545
  0.9759584674992239  0.3006149866335235  0.2591248147580846
  0.8024699553062167  0.7598900674067034  0.8621812934593132
  0.2750449188691989  0.7504250574270912  0.2439848966535883
  0.7358331907819055  0.2344852701426660  0.6151651779353831
  0.9910251114310816  0.7917782205355340  0.2848096348656711
  0.2876894023132559  0.2852113468559439  0.5556547533356592
  0.7964250991298356  0.5109813046081356  0.1215905641217203
  0.2509469548572021  0.7253732875780063  0.7347240869010399
  0.1448150534414202  0.5208398865533440  0.1167452084619351
  0.7275018870505782  0.9152728859986297  0.6339295072059710
  0.0148467115895599  0.9797802198187365  0.9978409509019561
  0.2418771141191851  0.5176277509096393  0.3764305907644853
  0.9968746857560131  0.4950550106754822  0.7469917771917630
  0.7154627554036217  0.2788312115689927  0.3710105277488328
  0.7645440249002828  0.0657344548542940  0.1244297289646888
  0.1782261564307606  0.5565574895537783  0.6226708837213119
  0.5219687060848750  0.0097641484601648  0.7419726940771277
  0.2502013974381423  0.7470548679662776  0.3639683634888397
  0.7393089622604495  0.7268064895807367  0.7498802881319924
  0.0345233909755186  0.2350309068703283  0.0221026097282447
  0.2664989848498424  0.0592910509616664  0.6222693083668540
  0.5343080387581346  0.4877650295745287  0.0087722061667239
  0.2838814204499578  0.6897972414162026  0.8508102342971202
  0.7117094327872820  0.5351046974111477  0.3694196141260215
  0.3002336470192882  0.9966767329595844  0.2422944795962484
  0.7296824722386426  0.4838785212796357  0.7581575241609464
  0.2305940741138084  0.9823743776028726  0.7496708640031654
  0.7279270154042863  0.5210463151484361  0.2475448047425736
  0.2693654881421023  0.9872393272444465  0.0044039121281468
  0.7365305098684674  0.4900835820828003  0.4979247559853901
  0.2487314875074279  0.0200956237476276  0.4917562669556765
  0.7688851171609811  0.4967669384757764  0.0047269324579010
  0.7771155575457931  0.9556630112086235  0.7462692320272239
  0.2328366854138383  0.4949128173989191  0.2567775945740531
  0.2332001334891120  0.4856403918489498  0.7429320494569559
  0.7903453992197534  0.0389247376091474  0.2515155953762760
  0.2271766771716063  0.5253671525460391  0.4983918417255463
  0.7689343006075769  0.9803665335764764  0.9974571143464848
  0.7359078328744084  0.9978077330843893  0.5066351454333166
  0.2693205307060662  0.4676826086962599  0.9980272448294636
  0.9823944553272822  0.2655004101247613  0.3884519988991503
  0.5282073490276750  0.7546610798639074  0.8650929709649080
  0.4913943877861583  0.2404658546822909  0.6214849989303406
  0.0132636343164541  0.7382577634133627  0.1172707750957993
  0.0272379839682816  0.2852780290282517  0.8756334565192445
  0.5202135640759390  0.7842775547953533  0.3685240723234967
  0.9967517209195249  0.7510731678496124  0.6136404095830392
  0.5109331035493430  0.2384284716197922  0.1120987824952964
  0.1734602843501657  0.3642154927310655  0.0546365205817572
  0.6213740570438686  0.9135779073308201  0.5561754998104714
  0.6764308522723508  0.0707220652163981  0.9461702577875417
  0.1467128791548754  0.6217988064181478  0.4414981231270758
  0.3707722480215956  0.3578734849880129  0.9358763532631871
  0.8108727697596303  0.8719446123881304  0.4606020519684202
  0.8736745356146322  0.1105264414083206  0.0462629896129362
  0.3678360549034529  0.6038932323741072  0.5397559443751166
  0.9020598043318065  0.1204332029279309  0.1999150204843626
  0.3244148907014381  0.5890275562530062  0.6799695201168101
  0.8943163139618351  0.9544469607303900  0.3113953013670954
  0.3775057857173989  0.4443365541017353  0.7937414215879310
  0.1454482338689367  0.6164434938204535  0.3020159055016821
  0.6610243577075677  0.0461836462911740  0.7967274990318559
  0.1472821860496834  0.3742862977358331  0.2053349163503666
  0.6310751467795749  0.8593520974937177  0.7114611192384407
  0.8415096520785582  0.6361883481709871  0.9525505605872705
  0.3632882151913357  0.0906444471773963  0.4368038234555312
  0.8466507114774091  0.4066417731307387  0.5478105544446115
  0.3658669106588954  0.8598678074120315  0.0530088004976332
  0.1450041265718543  0.1326681305313853  0.5462817533897570
  0.6656690484467711  0.5948479017227115  0.0539138548890608
  0.1621825573232364  0.8975743163744928  0.9440197767401680
  0.6412226813650560  0.3820491070157879  0.4529608966638439
  0.6079116569101406  0.4025953170697524  0.2880241357173334
  0.1468685506218193  0.8640105700549253  0.7944625719080317
  0.1568220609325113  0.1135965103580155  0.6974345203671973
  0.6507175706423239  0.6142317303369557  0.1851870091207608
  0.8324062599654281  0.3714147521102582  0.7090167382051464
  0.4015863258117696  0.8793048962846740  0.1990869680840412
  0.3847988786297442  0.0929408473962812  0.3001533822352057
  0.8426944601354015  0.5674261210756097  0.8042510520835298
  0.1624392573774397  0.0730316777449906  0.0606702460211618
  0.6386034292804058  0.6003435220957355  0.5472686607869524
  0.6598792864244399  0.3834524032189942  0.9484498870086200
  0.1426916733488347  0.9160827316418303  0.4489741137782416
  0.3929667049935981  0.0533436628204817  0.9513061267401207
  0.8433942461938960  0.5860022424733764  0.4456490934529675
  0.8732040687803615  0.3881821469511120  0.0530230067317379
  0.3534612066719488  0.9069667559951702  0.5419527000464314
  0.1751478956320016  0.0492107014061930  0.1796588354204864
  0.6097993662882329  0.5769854444711529  0.7158693480287109
  0.1814503761330343  0.8943520026015459  0.2923990292365344
  0.6319978368878887  0.3628480446971818  0.8080833879488817
  0.8340405932715180  0.6440376309684357  0.2988099560543473
  0.3542119870957382  0.1058057240974137  0.7919347190030458
  0.8700310508583704  0.4302928868910695  0.2097363376333496
  0.3616204081409149  0.8827879468734596  0.7068190571755404
  0.8682043164333142  0.8649037074014232  0.9414171011088284
  0.3299555904442146  0.3984225334592851  0.4588107139911045
  0.8615522157989196  0.0963611877665186  0.5467831409082486
  0.3439879789073963  0.5730679909668444  0.0512994830309472
  0.1257708286507808  0.4216337200382639  0.5502029288902534
  0.6569099332269636  0.9088157206026632  0.0562470417478824
  0.1735879369363154  0.5878533942001239  0.9538224543021212
  0.6425488314584248  0.1240763256420899  0.4558216985908516
  0.3401322273858755  0.4010958153103457  0.3148078201270961
  0.9028439319913760  0.8711433689529477  0.7962372896331882
  0.8504431191710854  0.0877700585336520  0.6961805601915584
  0.3226882139596509  0.5792202491225106  0.1866252322026482
  0.1387666486075216  0.3754594523307334  0.6855267399457048
  0.7073565471993621  0.9307802522288086  0.1984656469506915
  0.6695901821413063  0.1433650933858808  0.2990349123585316
  0.1286767734470243  0.6064564342469368  0.7992369145502368
  0.0747105960971639  0.1927466250796898  0.3364464377171799
  0.6043658943502752  0.8555437347294421  0.9080311589330859
  0.3840115953408250  0.3425887211292450  0.6464669266034194
  0.9504815511982738  0.6035639261400120  0.1275937844970540
  0.5621213875276501  0.1560062336329208  0.6717467537887238
  0.9223301867754830  0.8420411961002178  0.0820793339264627
  0.8870922565100396  0.3465637334705610  0.3438668832843446
  0.4465023646045109  0.8066681883023015  0.8112095908201020
  0.1341652570895457  0.1897784337519630  0.8993852658293745
  0.6055736902293387  0.6767243983052931  0.3958843558167764
  0.8868316729102690  0.8601319320856945  0.6016038378830589
  0.3912719717998773  0.3078234465550567  0.0736899104424624
  0.9183298905577536  0.6352683745583678  0.6472523600869934
  0.5565836429500748  0.3564394015372253  0.1510573064213867
  0.9465033627363786  0.1806828037599239  0.8306872502411652
  0.4348397113976131  0.8788517848783002  0.4160162007496201
  0.0960390769352324  0.8144757952328352  0.6659507969552679
  0.6289615811400120  0.1845025504585151  0.0697857523956473
  0.0911017859795020  0.4002975216688431  0.8397070682952318
  0.4167753812465865  0.7263816284380836  0.3221777757078659
  0.9533866135094741  0.3633036449135951  0.9316911310138012
  0.6161334105627807  0.8784505212001905  0.3377036614098734
  0.0771704467817716  0.6901761914542588  0.5605914257701407
  0.4179040522228046  0.1436710577370910  0.1517719710585142
  0.4209851024720553  0.1317255414495137  0.5894661524478347
  0.0827962514410744  0.8016962505631126  0.1784971112058792
  0.9022682002970874  0.1575769002592107  0.4270752355982901
  0.6215439648885019  0.6568560969858100  0.8403371438056797
  0.0833729096853903  0.3453918763292141  0.4301713260740955
  0.4208396562841944  0.6873960629783580  0.9218266684775741
  0.5787826135404934  0.3143507699139690  0.5727202274247859
  0.1138907816498136  0.7068792734162598  0.0649566854307323
 
  0.12212102E-01 -0.47988376E-02 -0.31431762E-02
  0.31204182E-02  0.17396726E-03 -0.60623945E-02
 -0.52593787E-02  0.22091661E-02  0.50194125E-02
  0.35594853E-02 -0.10619953E-01 -0.28086942E-02
 -0.13735982E-02 -0.92403029E-02  0.77597121E-02
 -0.53612120E-02 -0.19880545E-03  0.34341329E-02
  0.47335599E-02 -0.12557682E-02 -0.66487700E-02
  0.39176417E-02 -0.27766191E-03  0.14579318E-02
 -0.18463135E-02  0.40793706E-02 -0.26412369E-02
 -0.10443276E-01  0.31174060E-02 -0.10278673E-01
  0.40928736E-02 -0.32359496E-02 -0.38830995E-03
  0.50197590E-02 -0.70033033E-02  0.34555194E-02
  0.43369264E-02  0.10902763E-01 -0.73236891E-02
  0.77147525E-02  0.56054292E-03  0.49269715E-02
 -0.95786157E-02  0.11400680E-02  0.50842160E-02
 -0.48916682E-02  0.25154106E-02  0.26190582E-02
  0.50465670E-02 -0.37128137E-02 -0.13853911E-02
 -0.14422958E-02  0.26507778E-02 -0.18781746E-02
 -0.14401254E-02  0.35019939E-02  0.95043267E-02
 -0.90390695E-02 -0.46795057E-02  0.14677206E-02
 -0.96608993E-02  0.43934669E-02  0.60151020E-03
 -0.86491558E-02  0.86494392E-02  0.99739161E-02
  0.12577674E-02 -0.20398261E-02  0.10738261E-01
 -0.13521353E-02  0.65609835E-02 -0.19772679E-02
 -0.41330998E-02  0.92157541E-02 -0.45982041E-02
  0.11298665E-01 -0.74883418E-02 -0.13324640E-01
  0.11423479E-01  0.15308539E-02  0.22442387E-02
  0.27776416E-03  0.12826130E-01  0.20335679E-02
  0.55375247E-02 -0.62359258E-02  0.95161407E-02
  0.65220369E-02  0.76458104E-02 -0.17953399E-02
 -0.14597786E-03 -0.12595797E-02 -0.11203901E-01
 -0.64466096E-02  0.43498140E-02 -0.82723543E-02
 -0.10019963E-01  0.84039638E-02 -0.46673920E-02
  0.45891867E-02  0.58365078E-02 -0.36596239E-02
 -0.10081804E-01 -0.38655825E-02 -0.47665159E-02
 -0.11372259E-03 -0.21838522E-03 -0.58382800E-03
  0.29619400E-02 -0.16601775E-02 -0.15513524E-02
 -0.22191710E-02  0.47820189E-02 -0.32439860E-05
  0.31135572E-02  0.62875301E-02  0.50705673E-02
  0.29312620E-02  0.86064855E-02  0.45856653E-02
  0.75627065E-02  0.27942554E-02 -0.74899029E-02
 -0.19636647E-02  0.65892330E-02 -0.11566841E-03
  0.31730882E-02  0.11946318E-01  0.30251621E-02
  0.33728785E-03  0.85957227E-02  0.10099418E-02
  0.15258531E-01  0.79608842E-02  0.45743228E-02
  0.85415847E-03 -0.82909964E-03 -0.18002818E-02
 -0.33797906E-02 -0.43127305E-03  0.81082465E-02
 -0.22144336E-02 -0.70854424E-03  0.12638932E-02
 -0.10945282E-01 -0.33472773E-02  0.39513431E-02
 -0.19935976E-02  0.13597130E-01  0.43413029E-03
  0.21602929E-02  0.74665558E-03  0.81743909E-02
  0.43384924E-03  0.86137865E-02  0.16186314E-01
  0.37609859E-03 -0.34220458E-02  0.46356803E-02
 -0.24648060E-03  0.23863380E-02  0.15200142E-02
 -0.26537778E-02  0.54590587E-02 -0.57335091E-02
 -0.33700733E-02  0.11317675E-01  0.49674159E-02
  0.86218048E-02 -0.13988362E-01 -0.65610508E-02
  0.58007996E-02  0.32962077E-03  0.56277808E-02
  0.96904000E-02 -0.99433029E-02 -0.12311976E-01
  0.23989807E-02  0.51829645E-02 -0.88230676E-02
 -0.60621560E-02 -0.51483653E-02 -0.94117615E-02
 -0.39665513E-03  0.17576946E-02 -0.38916419E-02
 -0.10360763E-01 -0.16405271E-01 -0.49762803E-02
 -0.76860791E-02 -0.21932024E-02  0.10077176E-01
 -0.18073504E-02 -0.46798096E-02  0.32877364E-02
  0.12755702E-01 -0.56452334E-02  0.74444244E-02
  0.99197875E-02 -0.52804888E-02 -0.49749394E-03
 -0.60401142E-03 -0.57967451E-02  0.14602508E-01
 -0.58893155E-02 -0.65061622E-02  0.65035731E-02
 -0.55405952E-02 -0.49927234E-02  0.16537353E-02
 -0.34936213E-02  0.40369489E-02  0.24453784E-02
  0.21041910E-02 -0.10439567E-01  0.59985901E-02
 -0.13413092E-02 -0.55196831E-02  0.18373970E-02
 -0.46287971E-02 -0.94976048E-02 -0.77929548E-02
 -0.35991883E-02  0.64854048E-02 -0.16550327E-02
 -0.31702803E-02 -0.10433981E-01  0.11111491E-02
 -0.73944181E-02  0.61678156E-02  0.31863997E-02
  0.64754471E-03 -0.45468233E-02  0.69382791E-02
 -0.19580478E-02 -0.49080693E-02  0.13102845E-01
  0.35191626E-03 -0.96633066E-02 -0.57830569E-02
 -0.44372511E-02  0.25839216E-02 -0.38146456E-02
  0.16230580E-02  0.22845203E-02  0.76894393E-02
 -0.11913347E-03 -0.18806147E-01 -0.88951523E-02
  0.14671963E-03  0.47434577E-02 -0.24903708E-02
 -0.26555952E-02 -0.24575225E-02  0.34922234E-02
 -0.39862341E-02 -0.71228376E-02  0.38072343E-03
  0.11030102E-01  0.10537090E-01  0.40923869E-02
 -0.33870539E-02 -0.29881487E-03  0.30398203E-02
  0.29064332E-02  0.77247589E-02 -0.17606480E-02
  0.13685741E-02  0.11813365E-02  0.56410841E-03
 -0.19719378E-03 -0.10415383E-02 -0.57327437E-03
 -0.25041120E-02  0.45729718E-03 -0.11529339E-02
 -0.20396532E-02 -0.14781063E-02  0.24582365E-02
 -0.20416143E-02  0.58171406E-03  0.13111960E-02
  0.76860634E-03 -0.44122704E-02  0.12570951E-03
  0.11807742E-02  0.94649870E-03  0.18152439E-03
 -0.17330276E-02 -0.10729938E-02 -0.60855651E-03
 -0.15544940E-02 -0.14548089E-03  0.26556263E-02
  0.25336296E-02 -0.17932866E-02 -0.26092328E-02
  0.13040676E-02  0.96340330E-03  0.59550930E-03
 -0.95148500E-03  0.21597828E-02  0.32252380E-02
 -0.14437175E-02 -0.25966268E-02  0.70772369E-03
 -0.45891773E-03 -0.21261407E-02  0.12451103E-02
  0.16227686E-02  0.28718581E-02  0.64267792E-03
 -0.32971858E-02 -0.44638839E-02 -0.98641571E-03
 -0.20966147E-03 -0.40025130E-03 -0.75763597E-03
 -0.67103834E-03 -0.51680379E-02 -0.12829664E-02
 -0.68343353E-02  0.95332375E-02 -0.10760501E-02
 -0.70300086E-02 -0.14402231E-02  0.62115452E-02
  0.11575265E-02 -0.12572619E-01  0.86657746E-02
  0.58674707E-02 -0.12414108E-01  0.41167642E-02
 -0.26399793E-02 -0.70587439E-02 -0.10760580E-01
 -0.31864640E-02 -0.75665500E-02  0.29458723E-02
  0.43346791E-03 -0.72151829E-02 -0.56824236E-02
 -0.79410678E-03 -0.64781903E-02 -0.49544131E-02
 -0.21380869E-02  0.85356857E-02 -0.51075711E-02
 -0.40799970E-02  0.35285375E-02 -0.17055236E-02
 -0.64387242E-02 -0.32678352E-02 -0.81711554E-02
  0.68995915E-03 -0.48148470E-02 -0.29543485E-02
 -0.64558107E-02  0.72879154E-03 -0.13024667E-02
  0.82930141E-02  0.26119912E-02  0.59015515E-02
  0.29816654E-02  0.26729332E-02 -0.31889940E-02
 -0.10838135E-02 -0.85821847E-03 -0.78026020E-02
  0.97789840E-02 -0.23730772E-02  0.95406294E-02
  0.38364143E-02  0.50922552E-02  0.10487359E-03
 -0.55198649E-02  0.34059953E-02 -0.77993390E-02
 -0.59845729E-03  0.22170736E-02  0.17592786E-02
 -0.39261923E-02  0.23830958E-02  0.58309650E-02
 -0.12204502E-03  0.52924158E-02  0.10111717E-01
 -0.37986539E-02  0.31262420E-02  0.35204864E-02
  0.12129788E-02 -0.91554920E-03 -0.11124901E-02
  0.61598100E-02  0.79550235E-03  0.49275631E-02
  0.13662213E-02  0.40310885E-02 -0.22735406E-02
 -0.42075540E-02  0.34633623E-02 -0.10939699E-02
  0.71542534E-02 -0.92691554E-03 -0.52315961E-02
  0.54139381E-02  0.18232015E-02 -0.73911385E-02
  0.25511308E-02  0.30023655E-02 -0.66675504E-02
 -0.45603197E-03 -0.42533633E-03  0.93947432E-03
  0.29640099E-02  0.30748462E-02  0.17631277E-02
  0.56279901E-02 -0.78252626E-02 -0.44097117E-02
  0.21424583E-02 -0.28802885E-02 -0.12249990E-02
  0.48825246E-02  0.53295721E-02 -0.30876108E-02
  0.24615501E-02 -0.10011121E-03  0.12994158E-02
 -0.45525223E-02  0.46238767E-02  0.26728516E-02
 -0.17829797E-02  0.58077617E-03 -0.93393067E-03
 -0.11006274E-01 -0.25323639E-02 -0.94092876E-03
  0.82045583E-02 -0.42249552E-02 -0.34347926E-02
  0.15507784E-02  0.96923205E-02 -0.13266739E-02
 -0.38591220E-02 -0.25288266E-02 -0.63062178E-02
  0.15877144E-02 -0.53480188E-02 -0.24694414E-02
 -0.15401582E-01  0.10956813E-01  0.58978384E-02
 -0.90072269E-02  0.66415895E-03 -0.49723764E-02
  0.30342407E-03  0.99530344E-02 -0.32294446E-02
 -0.10966539E-02 -0.75409992E-03 -0.24418082E-02
  0.69346316E-02  0.67307134E-02 -0.24206497E-02
 -0.19667686E-01  0.78994805E-02 -0.39123155E-02
 -0.11999510E-01 -0.51795286E-04  0.21486090E-02
 -0.19994887E-02  0.13495910E-01 -0.11625572E-02
  0.10185208E-02  0.10084193E-02 -0.44053115E-02
 -0.70521522E-02  0.13038024E-02 -0.86558041E-03
 -0.29604528E-02 -0.29925461E-02  0.11144583E-02
 -0.41776817E-02 -0.98950265E-02  0.36043650E-03
  0.10151808E-01 -0.10497267E-02  0.90356797E-04
 -0.11713235E-01  0.54254867E-02 -0.63118051E-02
 -0.57066971E-02  0.10032302E-02  0.25288940E-02
  0.66810511E-02  0.85790773E-03 -0.46878156E-02
  0.75268185E-02  0.18958139E-02 -0.43384068E-02
  0.64506872E-02 -0.55567931E-02  0.12121600E-01
  0.50164258E-02 -0.36173448E-02 -0.59624125E-02
  0.17692884E-02 -0.36237047E-02 -0.15472032E-02
 -0.31401656E-02 -0.24741590E-02 -0.13390857E-01
  0.31629964E-03 -0.53208143E-02  0.10017218E-02
  0.48195014E-02 -0.27475393E-02  0.53602019E-02
 -0.40490414E-02  0.41883342E-02  0.52845394E-02
  0.33781340E-02  0.24319619E-03 -0.66477586E-02
 -0.34944721E-02 -0.56269028E-02 -0.23012258E-02
 -0.87682974E-02 -0.52161146E-02  0.82702288E-02
 -0.77131783E-03  0.24546167E-02  0.42857137E-02
 -0.37833406E-02  0.47115372E-02 -0.67072863E-02
  0.33326080E-02  0.46318206E-02  0.67815458E-02
  0.41669762E-03  0.31161496E-03  0.35171028E-02
  0.33983597E-02 -0.76050552E-02 -0.23550415E-02
  0.59299399E-02  0.68143042E-02 -0.36909876E-02
 -0.86345994E-02 -0.16405324E-02  0.33381841E-02
  0.38133027E-02 -0.56901922E-02  0.10414696E-01
 -0.41950825E-02  0.52254101E-02 -0.96827199E-03
  0.37399893E-02 -0.12334856E-01  0.80892823E-02
 -0.28187504E-02 -0.62623386E-03  0.21310444E-02
  0.15354401E-02  0.18814239E-02 -0.61423492E-02
  0.10375096E-02  0.23819872E-03  0.16619127E-02
 -0.20985156E-02  0.69479125E-02 -0.41877525E-02
  0.44009738E-02 -0.18559493E-02 -0.75325449E-02
  0.60210111E-02  0.66724855E-02 -0.49208069E-02
  0.79530971E-02  0.57999329E-02 -0.15980959E-02
 -0.28628140E-02 -0.60550169E-02 -0.91106015E-03
  0.29552373E-02 -0.37253807E-02 -0.38598665E-02
  0.32715261E-02 -0.53273872E-02 -0.21094305E-02
  0.25187773E-02 -0.40185959E-02 -0.52107772E-02
  0.80358811E-02  0.65882371E-02 -0.65924150E-02
  0.59189696E-02 -0.78469911E-04  0.36661139E-03
  0.38965205E-02 -0.38174197E-02 -0.24368100E-02
  0.65143107E-02  0.45360897E-02  0.20747584E-02
  0.32316272E-03  0.39282059E-02  0.16057947E-02
  0.52500022E-03 -0.87649704E-02  0.86759150E-02
  0.53150410E-02 -0.73284815E-03  0.18938974E-02
 -0.55429754E-03 -0.95437050E-02 -0.36753747E-02
  0.45277240E-02  0.12610320E-02 -0.23181796E-02
  0.57744661E-02 -0.34116007E-03  0.79285507E-02
 
           1
   2.00000000000000     
  0.68942241E+00  0.32198181E-02  0.00000000E+00  0.00000000E+00
  0.31993308E-02  0.98910717E+00  0.13033988E+00
  0.53376513E+00  0.36311234E+00  0.72767104E+00
  0.31985270E+00  0.25379320E+00  0.85280258E+00
  0.27851817E+00  0.98492967E+00  0.35903440E+00
  0.30433353E+00  0.96515695E+00  0.86932956E+00
  0.98758610E+00  0.52401757E+00  0.49673505E+00
  0.97873286E+00  0.58615363E+00  0.23159415E+00
  0.38124530E+00  0.44691935E+00  0.13064260E+00
  0.99096128E+00  0.87251275E-01  0.62267377E+00
  0.76395962E+00  0.24020960E+00  0.88365433E+00
  0.77299822E+00  0.79525803E+00  0.35992030E+00
  0.26469147E+00  0.23719515E+00  0.74366642E-02
  0.52509869E+00  0.96871741E+00  0.25639386E+00
  0.25976310E+00  0.82510670E+00  0.62405193E+00
  0.99628462E+00  0.15678436E-01  0.73882151E+00
  0.49478863E+00  0.42078423E+00  0.37462808E+00
  0.71510589E-01  0.25777338E+00  0.76144445E+00
  0.29000235E-02  0.43469648E+00  0.62326796E+00
  0.26176975E+00  0.87984269E+00  0.12956346E+00
  0.37072664E-01  0.77528609E+00  0.98901817E+00
  0.74749316E+00  0.15517268E-01  0.37988287E+00
  0.27430807E+00  0.24082768E+00  0.26483579E+00
  0.74558088E+00  0.52998188E+00  0.87675082E+00
  0.73073032E+00  0.57391203E+00  0.63080600E+00
  0.70402196E+00  0.75078191E+00  0.98652562E+00
  0.30518957E+00  0.23641736E+00  0.72803850E+00
  0.13599932E-01  0.51315719E+00  0.20697494E-01
  0.78354727E+00  0.30478698E+00  0.14550967E+00
  0.47628301E+00  0.71082304E+00  0.47556064E+00
  0.52588064E+00  0.22191184E+00  0.99374401E+00
  0.75443344E+00  0.74290789E+00  0.52121908E+00
  0.43481769E+00  0.62437507E+00  0.75602307E+00
  0.77892369E+00  0.73214582E+00  0.10276198E+00
  0.25339179E+00  0.48782532E+00  0.87719356E+00
  0.78900878E+00  0.24601793E+00  0.99505946E+00
  0.48738155E+00  0.26073039E+00  0.48006532E+00
  0.31477913E-01  0.50364325E-01  0.25729561E+00
  0.54110538E+00  0.23374514E+00  0.24910875E+00
  0.33505206E-01  0.26216923E-01  0.87406384E+00
  0.62917255E+00  0.75057905E+00  0.26221149E+00
  0.17383368E-01  0.99921900E+00  0.38876163E+00
  0.49631213E+00  0.54173222E+00  0.62284591E+00
  0.50605488E+00  0.32947068E-01  0.86558935E+00
  0.15392069E-01  0.51636860E+00  0.36357106E+00
  0.77086270E+00  0.19274843E+00  0.76534261E+00
  0.48363971E+00  0.26049307E-01  0.50153790E+00
  0.21721986E+00  0.77089344E+00  0.49702251E+00
  0.52224796E+00  0.93318351E+00  0.98606780E+00
  0.73164188E+00  0.96566819E+00  0.87479987E+00
  0.46361108E+00  0.52470109E+00  0.25709839E+00
  0.99477661E+00  0.73712022E+00  0.73310334E+00
  0.52044368E+00  0.51688583E-01  0.37436639E+00
  0.24265374E+00  0.24644624E+00  0.38815868E+00
  0.48147322E+00  0.65369587E+00  0.10825869E+00
  0.74757303E+00  0.25363763E+00  0.50985378E+00
  0.31890385E+00  0.74552306E+00  0.98164539E+00
  0.21015067E+00  0.19575225E+00  0.13476928E+00
  0.51524556E+00  0.48336711E+00  0.50587133E+00
  0.50816965E+00  0.45560214E+00  0.88026085E+00
  0.99993630E+00  0.94321745E+00  0.52003661E+00
  0.50169422E+00  0.93623893E+00  0.11604435E+00
  0.35636506E-02  0.27469835E+00  0.51040102E+00
  0.31308058E-01  0.55073052E+00  0.89229162E+00
  0.50974462E+00  0.97177018E+00  0.63830415E+00
  0.97569034E+00  0.29992072E+00  0.25936869E+00
  0.80436231E+00  0.75905258E+00  0.86273350E+00
  0.27651655E+00  0.74964168E+00  0.24394799E+00
  0.73574358E+00  0.23362530E+00  0.61624834E+00
  0.99015141E+00  0.79081301E+00  0.28529205E+00
  0.28686744E+00  0.28447066E+00  0.55577742E+00
  0.79590681E+00  0.51158020E+00  0.12177195E+00
  0.25125912E+00  0.72382454E+00  0.73516904E+00
  0.14461607E+00  0.52002102E+00  0.11688150E+00
  0.72681519E+00  0.91386389E+00  0.63335145E+00
  0.14312760E-01  0.98074235E+00  0.99771819E+00
  0.24140679E+00  0.51607984E+00  0.37651301E+00
  0.99577770E+00  0.49597003E+00  0.74722813E+00
  0.71555882E+00  0.27815668E+00  0.37152519E+00
  0.76425354E+00  0.65006327E-01  0.12540165E+00
  0.17827836E+00  0.55512391E+00  0.62224192E+00
  0.52131043E+00  0.10147482E-01  0.74168974E+00
  0.25044218E+00  0.74739378E+00  0.36453874E+00
  0.73929129E+00  0.72401654E+00  0.74922048E+00
  0.34545157E-01  0.23573461E+00  0.21917882E-01
  0.26610502E+00  0.58926469E-01  0.62252835E+00
  0.53371667E+00  0.48670833E+00  0.88004470E-02
  0.28551777E+00  0.69136045E+00  0.85111379E+00
  0.71120695E+00  0.53506037E+00  0.36964510E+00
  0.30066483E+00  0.99782273E+00  0.24216388E+00
  0.72988550E+00  0.48405378E+00  0.75819937E+00
  0.23056482E+00  0.98221986E+00  0.74962834E+00
  0.72755552E+00  0.52111416E+00  0.24745928E+00
  0.26906290E+00  0.98702005E+00  0.45862559E-02
  0.73622763E+00  0.49016988E+00  0.49802202E+00
  0.24884551E+00  0.19441049E-01  0.49176559E+00
  0.76906029E+00  0.49690735E+00  0.47403973E-02
  0.77685846E+00  0.95550383E+00  0.74622409E+00
  0.23260607E+00  0.49489123E+00  0.25697458E+00
  0.23357601E+00  0.48537435E+00  0.74273851E+00
  0.79053886E+00  0.39067662E-01  0.25155977E+00
  0.22703552E+00  0.52568756E+00  0.49863108E+00
  0.76872012E+00  0.97998132E+00  0.99750961E+00
  0.73583975E+00  0.99749231E+00  0.50672750E+00
  0.26956127E+00  0.46810866E+00  0.99807492E+00
  0.98190531E+00  0.26483818E+00  0.38837883E+00
  0.52817625E+00  0.75460170E+00  0.86503677E+00
  0.49129484E+00  0.23969916E+00  0.62138983E+00
  0.12249738E-01  0.73967205E+00  0.11719096E+00
  0.26195059E-01  0.28506437E+00  0.87609421E+00
  0.52038529E+00  0.78241237E+00  0.36916687E+00
  0.99762218E+00  0.74923149E+00  0.61394578E+00
  0.51054145E+00  0.23738128E+00  0.11130060E+00
  0.17298756E+00  0.36309297E+00  0.54855035E-01
  0.62143836E+00  0.91250751E+00  0.55575400E+00
  0.67631304E+00  0.69761004E-01  0.94580276E+00
  0.14639569E+00  0.62306510E+00  0.44111926E+00
  0.37016697E+00  0.35839696E+00  0.93574984E+00
  0.80991756E+00  0.87145982E+00  0.45999594E+00
  0.87377689E+00  0.10981214E+00  0.46043846E-01
  0.36687831E+00  0.60400135E+00  0.53965933E+00
  0.90329010E+00  0.12082070E+00  0.20035278E+00
  0.32485723E+00  0.58942409E+00  0.67973297E+00
  0.89415553E+00  0.95431964E+00  0.31081653E+00
  0.37895653E+00  0.44398450E+00  0.79444911E+00
  0.14601738E+00  0.61719895E+00  0.30202368E+00
  0.66020547E+00  0.46688937E-01  0.79614897E+00
  0.14719340E+00  0.37461521E+00  0.20546541E+00
  0.63049268E+00  0.85970564E+00  0.71189364E+00
  0.84149155E+00  0.63697350E+00  0.95330061E+00
  0.36272467E+00  0.91108235E-01  0.43706496E+00
  0.84683066E+00  0.40650595E+00  0.54772803E+00
  0.36678074E+00  0.85998582E+00  0.53374311E-01
  0.14520681E+00  0.13326616E+00  0.54611311E+00
  0.66504484E+00  0.59536170E+00  0.53832708E-01
  0.16324391E+00  0.89743681E+00  0.94363171E+00
  0.64202586E+00  0.38231958E+00  0.45241265E+00