Na88 Sn16 P8 Se96                       
   1.00000000000000     
    14.0793397336999995    0.0000000000000000    0.0000000000000000
     0.0000000000000000   14.0793397336999995    0.0000000000000000
     0.0000000000000000    0.0000000000000000   28.1586794673000007
   Na   Sn   P    Se
    88    16     8    96
Direct
  0.2203158681544567  0.2318167262322146  0.9936085514323550
  0.4764943371500653  0.5183959349336095  0.6164312903389729
  0.5209407472655689  0.4183338511800705  0.8753788197936646
  0.0087789732390824  0.9689726398245674  0.2026127091738606
  0.5146405461583428  0.9713639972928971  0.8840685807167006
  0.6973958176883438  0.5681004962896247  0.3788200058871301
  0.2090919799259567  0.6395034240573859  0.1644647419817946
  0.2715720989557680  0.3049067668334698  0.1081844972765548
  0.7204999455063462  0.7166533121893802  0.6291355276219317
  0.7544266979267238  0.2358023763343211  0.9314978611642371
  0.7280742102955113  0.9173362119416737  0.3630357757730221
  0.0309693885456997  0.2398300480126148  0.7549746453844791
  0.7239711861880823  0.4316241325042812  0.1401145257441012
  0.1957338637428633  0.7684607844903002  0.7455870651380684
  0.0069506838003826  0.9957525072860874  0.8833747519549733
  0.7142333688910708  0.2349139025969470  0.3701732756790704
  0.0220135090448697  0.8668037855480641  0.5237240293426725
  0.2537930862194003  0.5131470978118484  0.6268218884159235
  0.5045282654189762  0.9608454507290860  0.9989924341238544
  0.9740939180740359  0.5634379949345073  0.8727531477722369
  0.4993265144125026  0.9563831107183334  0.4172443994219831
  0.2455509382991941  0.2489119783152263  0.4947545290561325
  0.7745305031862181  0.0137416335347916  0.8752568069950756
  0.0247788395027339  0.5163965954209288  0.6014096829960883
  0.2453551464306053  0.7442467254676222  0.0174886176598695
  0.2208743079565844  0.2791001090113384  0.6194967052392106
  0.7666298879677990  0.7542439100788663  0.9844265010880203
  0.0100356943518174  0.2439898672475784  0.4952815538173718
  0.4819038223051636  0.7987166441268867  0.5436374409838191
  0.2392124731227114  0.1930704946571849  0.8701515377513063
  0.9620692162981456  0.4709468357261015  0.3716803916570250
  0.5021097059471026  0.4912995950035542  0.7571049048635499
  0.7887555631545129  0.7367965886402545  0.2314117945080736
  0.7266540902641911  0.2563044068249728  0.6405116845506325
  0.9989638547329954  0.8015597443916730  0.0038148578096186
  0.5139525275898459  0.0916771061036888  0.5421189125135684
  0.4493994205407877  0.4906261479451502  0.0058699407191186
  0.2662010535862823  0.2876460757983082  0.3725812590525555
  0.2604658348464000  0.7788423388460817  0.6222123084062021
  0.6831498327116965  0.7418934367295469  0.1222506660632574
  0.9789847416266225  0.0319345657191796  0.0917165070922227
  0.9924271851146238  0.0270945903559089  0.7678549505294977
  0.4870140000971688  0.2353660415978508  0.7813657646037609
  0.9950758651495795  0.5239158311251355  0.2384951963738418
  0.2886937730110573  0.2527464859738164  0.7306856683758713
  0.7472419963367005  0.7736630050068495  0.5060081630456946
  0.2470236595798803  0.7763707726444263  0.4999233187921778
  0.6777312136273738  0.2491008435157012  0.0549858276445230
  0.9980546189798886  0.0029904267463495  0.6449254885354557
  0.5272493368558872  0.0048776272657881  0.1449122898327178
  0.0106894554087031  0.4567859112079350  0.7491730518140861
  0.5323452645480299  0.9574861290593891  0.2618315341446731
  0.7608553364332716  0.2697429663435348  0.5014346955426544
  0.7050109739293793  0.7535627338017041  0.8495842582922125
  0.4829806794375436  0.6173443274685289  0.4789789213882578
  0.4719349125894535  0.7314577662908538  0.0033440166765506
  0.9735681742215337  0.5414406280799750  0.9869523541757790
  0.2652752497472208  0.7495505876310210  0.3831508877087269
  0.5480951929455494  0.3500625745571696  0.2339375775412439
  0.0130033099489311  0.0082499084043428  0.3341297971855258
  0.4421770638729394  0.2216253497357108  0.9809158797890999
  0.0225338709545312  0.5561311932655445  0.4850420617035990
  0.4477729196373427  0.4955944729628686  0.1512397216906652
  0.4830555418994905  0.9637228900427409  0.7565707023688465
  0.2519455735560052  0.2851746606346073  0.2313586947001993
  0.5007731308229189  0.7471092773731034  0.7380504579543358
  0.0054090781576248  0.7509544788255320  0.2758098260455539
  0.8333915663757580  0.7277862909427528  0.7416511409655459
  0.3181476044311183  0.7899939584220568  0.2585063077718430
  0.7611918148362101  0.2189937184776495  0.7704851211107310
  0.7648530807716537  0.2259693300926173  0.2416778775177488
  0.2442150443398007  0.7721307194919472  0.8609738129511446
  0.4923883279472594  0.4383010525303381  0.3859646850558414
  0.7295121089374355  0.0021389803956929  0.6302772312185951
  0.9712375580608332  0.2779473609539124  0.0130059124973385
  0.2721989235935077  0.5296856734534313  0.3814812429157586
  0.1916662545408895  0.4630286853721603  0.8782515151950412
  0.0101762056826082  0.2885280492877468  0.2397586324148310
  0.7660467001938732  0.0073660481368810  0.1247147897790247
  0.5052839172835621  0.2571728439827374  0.4764146400693511
  0.7477841116888413  0.4473431959639459  0.8789213601526384
  0.2735805598399917  0.0194258397995867  0.3664845703944490
  0.7696681561323823  0.4771756882030465  0.6302616362508081
  0.2158609246660410  0.9356182585569190  0.1305522487489267
  0.2430736733322974  0.0597556769488036  0.6306808609390611
  0.0300961605628728  0.4853489220942299  0.1236231310188027
  0.2586482053819712  0.9652642649670143  0.8863577644737205
  0.5063394922279135  0.5429260989521318  0.2821886779167787
  0.2416007474351717  0.0393742583490501  0.2345230851512345
  0.7477615308817529  0.4703804618731320  0.7494041017047730
  0.2328237343034404  0.0110453270197022  0.7640008315802583
  0.7441663789313271  0.4960456555966198  0.2566517385715620
  0.2602079513554968  0.9730370414904876  0.0067146514781314
  0.7763694375423251  0.5128018244928959  0.5032731630515290
  0.2325355547739109  0.0064559851842101  0.5026826484565993
  0.7298975986429375  0.5079207183567072  0.9942988292014491
  0.7359480099510716  0.9469706812401590  0.7558523442352632
  0.2664241204513981  0.5474309652117818  0.2591289297156708
  0.2545942707265402  0.5286941846481099  0.7552941323945767
  0.7591415340350788  0.9838564287702959  0.2413407186261113
  0.2667875817919856  0.5032964426824618  0.4964325636061883
  0.7525327729777560  0.9904501666001667  0.0045543587535219
  0.7668005548414989  0.0157323248346882  0.5004179921155656
  0.2249271372987373  0.5057442081151632  0.0083396663253731
  0.0317603759407506  0.2542416890429058  0.3700071632633685
  0.4656016958499597  0.7220039757895419  0.8840556249895236
  0.4818503777858977  0.2615790342474651  0.6367116811012672
  0.9740060353728325  0.7403949907384474  0.1194195886191134
  0.9978825472935863  0.2701544154522516  0.8760550562200489
  0.4911379583117839  0.7534278871661431  0.3842863034076113
  0.9764835994321930  0.7531825013000564  0.6365005078463529
  0.5161524283886118  0.2393191293444481  0.1319406375833625
  0.1305445109700391  0.3863205162501833  0.0492760714393914
  0.6278684974151258  0.9305971881182461  0.5454876200025162
  0.6352804068769952  0.0726923936903605  0.9430086835365007
  0.1834276168433069  0.6216660416531640  0.4430795281901067
  0.3313689475005901  0.3826646633330069  0.9490362165339203
  0.8594967074746310  0.9060168600559508  0.4476254005793368
  0.8289623417506918  0.1278790773373025  0.0472158859072994
  0.3543545679666641  0.6400450797377318  0.5510799134570565
  0.8652599041975642  0.0953164988988545  0.1945350138056235
  0.3268885898293147  0.6382682289507116  0.7015700785304751
  0.8686878972540741  0.8880462044526914  0.2915509938649323
  0.3516199119427676  0.4059420012352551  0.8135180637065621
  0.1569364269048473  0.6459720928371270  0.3128753974852548
  0.6363497552352984  0.0821616543538960  0.7973628441912842
  0.1742388408009717  0.4540369355208821  0.1846993803004453
  0.6399009353373335  0.8512842958816532  0.6869109643087489
  0.7990933192707624  0.5971003451044169  0.9287792701086568
  0.3650132607075057  0.1009989212448274  0.4474720568828375
  0.9068936829773583  0.4224251800112118  0.5503132723585640
  0.3736603757680859  0.8778513094178028  0.0665414385442420
  0.1174170839406756  0.1140444875982738  0.5584296709054609
  0.6066570471454000  0.5956824373780183  0.0395514223533707
  0.1356427477613980  0.8843847995715896  0.9563198724373373
  0.6676750697618963  0.4170604883005206  0.4542459216021469
  0.6500051758430934  0.4088971492855780  0.3210970575731412
  0.1137002381807786  0.8859653801895865  0.8182359358213069
  0.1540664205459204  0.1234722652930240  0.7084418024787842
  0.6407014123338174  0.5695585617985258  0.2014271651562009
  0.8611534581316239  0.3735827121971656  0.7085720485782748
  0.3532241926305350  0.9392573318577162  0.1883077229939913
  0.3553648813632745  0.1122575870055302  0.2967313202887145
  0.8323321599089690  0.5772400584100551  0.8068555565759316
  0.1640474441905604  0.0637535398404648  0.0579709947276484
  0.6318976358926107  0.5936044873448357  0.5559091324973005
  0.6084535353087561  0.3809035825768127  0.9659762454860742
  0.1511525801960449  0.9127893619447751  0.4403291926798580
  0.3433618777763712  0.0880856933501052  0.9426379257071696
  0.8345273221538048  0.6392937503569682  0.4501746407785172
  0.8405305762361518  0.4247976084774798  0.0458391425759341
  0.3209446730860644  0.9238331309976787  0.5694992290992317
  0.1674223276041244  0.1572860508538150  0.1729054388857753
  0.6427101697677722  0.5447537332969469  0.6923348871404477
  0.1529540166735319  0.9077498192972144  0.2689269523035738
  0.6530258307153293  0.3519835762986788  0.8074427493209483
  0.8507675974842025  0.6157988908965606  0.3040919648270468
  0.3471951295716998  0.1059614228979541  0.8065215946948395
  0.8529729722485624  0.3885123880776186  0.2097688894079872
  0.3272832362081755  0.9019684165728776  0.7098373053930969
  0.8784270169335766  0.9123233576464004  0.9522393852859111
  0.3584410495648002  0.3645372636620117  0.4572283642338855
  0.8539228982124177  0.1018084671137877  0.5755063710839112
  0.3016566219043659  0.5928959410012292  0.0731411300425023
  0.1561964441674211  0.4043375331813728  0.5511119120238540
  0.6796708771888020  0.8636130732606554  0.0431397458932165
  0.1333067667264858  0.5979463890027705  0.9434929949312468
  0.6527042190180778  0.1331288749340978  0.4597922030559348
  0.3728017077845667  0.4149821694697485  0.3005312335933419
  0.8353149495169355  0.8493912330798037  0.8106761413252472
  0.8517233222955168  0.0590172143590058  0.7101043292569762
  0.3843696512838519  0.6495172024814942  0.2102463109219233
  0.1670180289286105  0.4111883874813185  0.6962377028443848
  0.6449108080364567  0.8874205381744144  0.1921554247142051
  0.6659836751774982  0.0669190803034097  0.3075741629932389
  0.1204454754696512  0.5951075324701857  0.8032751481830686
  0.1412149415146756  0.1856934832768805  0.3298567762212338
  0.3652195575214438  0.6662839419393412  0.9431161646229621
  0.5784878369785155  0.3075924534234631  0.5756806073019847
  0.0916427846189013  0.7923009060451982  0.1708984904130685
  0.3992498944787191  0.3782767561495091  0.6743597493156178
  0.8852362525230566  0.6329838195340559  0.1540816844088835
  0.9179975997044724  0.3260464933391106  0.3234229881890898
  0.4012249011917400  0.8497560493758136  0.8385055277790138
  0.0377478938817987  0.1628682906334252  0.9296242041472154
  0.6373406641565630  0.7492449579206134  0.4093550063029111
  0.0960474416455588  0.6963455636486917  0.5797256879961481
  0.5665524976708259  0.3806379078077066  0.0931409744064387
  0.9118514331647631  0.6261197056227367  0.6569718251683507
  0.4303266966711604  0.1507132114402157  0.0775574052922712
  0.9122036004871885  0.3671946009513364  0.9140716498131466
  0.4091754323968019  0.7934234390024129  0.4480558853289335
  0.8830939748883062  0.8473257711834139  0.5992022835607620
  0.4225842934498215  0.2432636913060918  0.1941643005297558
  0.9168278836750577  0.1667390627105415  0.8249406762833377
  0.4415573640605834  0.6096797472499302  0.3603610198608674
  0.1192475152702328  0.3197410647673442  0.8414993182526782
  0.4435973509206764  0.8589348746744508  0.3282403436298821
  0.0412488285316516  0.8291631684590511  0.6930636121607848
  0.6484783586527875  0.1576291710422364  0.1522089232572342
  0.3796919606677914  0.1651970871136547  0.6032882984525270
  0.8745633108980851  0.8418114099368363  0.0910836952976265
  0.9654153867343870  0.1395687685684927  0.4152501571993511
  0.5757626446447254  0.8082376270844466  0.9093188828092769
  0.0986130770383367  0.3587133979472958  0.4161856672476260
  0.4794899702532087  0.6012230227238066  0.8361265356182094
  0.5632761568409893  0.1792330680877651  0.6920313449803943
  0.0543985375663842  0.6509168601204249  0.0615771570668503
 
 -0.98259068E-02 -0.96496663E-03  0.76065880E-02
  0.44133201E-03  0.34390509E-02  0.76480115E-02
  0.44722190E-02 -0.15493889E-02 -0.62772323E-02
  0.37450416E-03 -0.30877960E-02  0.32674542E-02
 -0.38441465E-02  0.23953870E-02 -0.28310634E-03
  0.52312680E-02  0.19542903E-02  0.15161613E-01
 -0.21986639E-02  0.47779833E-03 -0.11890041E-01
 -0.13031365E-02  0.35284581E-04  0.14858418E-02
  0.39708818E-02  0.51340827E-02 -0.58040329E-02
  0.38145678E-02  0.61846411E-02  0.11612714E-01
  0.33702833E-02  0.86131877E-03 -0.36142424E-02
  0.82098920E-02  0.53595317E-02  0.55458662E-02
 -0.55397567E-02  0.32725164E-02  0.48790158E-02
  0.72588052E-02 -0.16596671E-03 -0.10058096E-01
 -0.66371388E-02  0.14014424E-02  0.78773818E-02
 -0.89496592E-02 -0.21017642E-02  0.55687378E-02
  0.45393927E-02  0.55608793E-02 -0.33671390E-05
 -0.12716317E-01 -0.55283064E-02  0.21413654E-02
 -0.87747544E-02  0.14175715E-01  0.67513671E-02
 -0.93744682E-02  0.50763633E-03 -0.39000593E-02
 -0.84006081E-02  0.14268441E-02 -0.22081941E-02
 -0.50133353E-02 -0.72760460E-02  0.58389257E-02
 -0.36558280E-02 -0.34791533E-03 -0.12320341E-01
  0.15044059E-02  0.22448156E-02  0.17165799E-03
  0.50727419E-02 -0.25171889E-02  0.15712017E-01
  0.78755472E-02  0.54980975E-02  0.21969081E-02
 -0.58011155E-02  0.13164266E-01  0.21573921E-02
  0.12522222E-01 -0.47460492E-02 -0.20229724E-01
  0.77703551E-03  0.33943449E-02  0.38898274E-02
 -0.71308143E-04 -0.13228458E-01 -0.11016172E-02
 -0.45658339E-02  0.38876908E-02  0.58587085E-02
  0.34311908E-02 -0.80127183E-02  0.60726115E-02
 -0.24010654E-02 -0.13281648E-02 -0.24809895E-03
 -0.16045175E-02 -0.13031185E-01  0.64080641E-02
  0.24693548E-02 -0.24153591E-02 -0.10357911E-02
  0.22430155E-02  0.21359800E-02  0.70128690E-03
 -0.20453500E-02 -0.92966671E-02 -0.31082716E-03
 -0.41502837E-03  0.58721908E-02  0.95717545E-02
 -0.10983963E-02 -0.35029262E-02 -0.60810162E-02
  0.32419257E-02  0.35480029E-02 -0.70519380E-03
 -0.91129217E-02 -0.62626775E-02  0.17310470E-02
 -0.51584248E-03 -0.37402545E-02 -0.46454603E-02
  0.92422744E-02  0.10855790E-01  0.53845683E-02
 -0.53810100E-02 -0.37199664E-02 -0.83796090E-03
  0.43001593E-02 -0.92096407E-02  0.50100320E-02
  0.46259222E-02 -0.15720747E-03  0.11653242E-01
  0.95862779E-02  0.33993764E-02  0.14384505E-02
 -0.45791355E-03  0.14864177E-02 -0.84230307E-02
 -0.65612067E-03 -0.17284771E-02 -0.77363474E-02
 -0.32770535E-02  0.16075143E-02 -0.30654829E-02
  0.60220324E-02 -0.16006452E-02 -0.35913102E-02
  0.77282349E-03  0.57914075E-02  0.28043505E-02
  0.14455909E-02 -0.10419908E-02  0.96268961E-03
  0.14096078E-02  0.25619365E-02 -0.94662556E-02
  0.32134425E-03  0.51185137E-02  0.31392195E-02
  0.78011374E-02 -0.91321062E-04  0.35899862E-02
  0.87528365E-02 -0.16337594E-02 -0.25703804E-02
  0.10739266E-01 -0.32807206E-02 -0.59904914E-02
  0.14354685E-02 -0.29843675E-02 -0.34668175E-02
  0.38620103E-02  0.46813014E-02 -0.26574996E-02
  0.60227859E-02  0.16596756E-01  0.79369161E-02
 -0.51594670E-03  0.76062184E-02  0.14761458E-02
  0.10121477E-01  0.13236627E-01  0.32961522E-02
 -0.62720877E-02 -0.21755545E-02 -0.37590567E-03
 -0.52766035E-03  0.75192493E-02 -0.42087998E-02
 -0.68524845E-02 -0.66417688E-04  0.79097523E-03
  0.15567658E-02 -0.56701402E-03  0.19069076E-02
 -0.27392297E-02 -0.68828572E-02  0.34241227E-02
 -0.85271051E-03 -0.83158251E-02 -0.11278117E-02
 -0.49996116E-02  0.21054372E-02  0.26737206E-02
 -0.40834211E-02  0.78720203E-03  0.16596761E-01
 -0.40596611E-03 -0.96192640E-02  0.78797152E-02
 -0.10574087E-02  0.76179414E-03  0.32601096E-02
 -0.32424680E-02  0.11298132E-02 -0.78695877E-02
 -0.15077889E-02 -0.93795512E-03 -0.54626887E-02
 -0.18281046E-02 -0.25606486E-02 -0.24499717E-02
  0.37187371E-02  0.13012357E-02 -0.25481970E-02
  0.99719619E-03  0.96130683E-02 -0.12210304E-01
  0.55668831E-02  0.45042942E-02 -0.29308452E-02
  0.33921966E-02  0.37745919E-03 -0.49682537E-02
 -0.23549091E-02 -0.17396599E-02  0.33211220E-02
 -0.91858525E-03 -0.77868136E-02  0.57262151E-02
  0.17375279E-02  0.69982855E-03 -0.33518995E-02
  0.16166949E-02 -0.11712076E-02 -0.26739583E-03
 -0.27319341E-02 -0.26645629E-02 -0.23373463E-02
  0.37856417E-03  0.58442671E-02 -0.12557642E-01
 -0.35349876E-02 -0.17479407E-03 -0.71848271E-04
  0.56600330E-03 -0.35479122E-02 -0.34230738E-02
  0.21832629E-02  0.17033169E-02 -0.23982663E-02
  0.19576220E-02 -0.52548492E-03  0.26091637E-02
  0.23727817E-02 -0.16919007E-03  0.45046465E-03
 -0.15768428E-02  0.32750895E-02  0.20797694E-02
 -0.15126118E-02 -0.32729213E-04  0.57483652E-03
 -0.12330947E-02 -0.40334793E-02 -0.10505890E-02
  0.79817510E-03  0.13341412E-02 -0.14501142E-02
  0.10656995E-02 -0.14358958E-02 -0.34917694E-02
  0.50730977E-02  0.37272028E-02 -0.28361244E-02
 -0.72186531E-04  0.10478288E-02  0.48135790E-02
  0.33077226E-02 -0.31599624E-02 -0.18693127E-02
  0.23009327E-03  0.10816832E-02  0.31513720E-02
 -0.35773873E-02 -0.18683493E-02 -0.35798569E-03
  0.35973317E-02  0.19033295E-02  0.55330278E-02
 -0.28212281E-02  0.24667030E-03 -0.23472255E-02
 -0.37630015E-02 -0.51138622E-02 -0.67241109E-03
  0.83491286E-02 -0.12768391E-03  0.23232541E-02
 -0.32414696E-03  0.74723425E-02 -0.51487648E-02
 -0.14015678E-02  0.16144449E-02  0.87574604E-02
 -0.69951690E-02  0.24888689E-02 -0.12812478E-02
  0.46577782E-02 -0.54963183E-02 -0.71758495E-02
 -0.18825036E-02 -0.79856338E-02 -0.51898511E-02
 -0.67835624E-02  0.19200308E-02  0.55654232E-02
  0.22200032E-02  0.27407988E-02 -0.41883210E-02
 -0.22803479E-02 -0.26361670E-02  0.10840684E-02
  0.55672943E-03  0.40514274E-02  0.10209455E-02
 -0.47868284E-03 -0.23773447E-02 -0.24695724E-02
 -0.38759716E-02 -0.15542846E-02 -0.24719198E-02
 -0.65567010E-03  0.18479172E-02  0.13486611E-03
 -0.80727908E-04  0.16405600E-02  0.15565499E-02
  0.12106206E-02  0.20430711E-02 -0.20125635E-02
 -0.49942483E-02  0.65097263E-03  0.70281962E-03
  0.14800956E-02 -0.25602038E-02  0.13590048E-02
  0.29734070E-02 -0.54832003E-02  0.21550821E-02
  0.61769037E-02  0.10890862E-03  0.61192433E-02
  0.16730381E-02 -0.45859754E-02 -0.12101362E-02
 -0.25252172E-02  0.13387401E-02  0.31020823E-02
 -0.22788285E-02 -0.81934020E-03  0.17833467E-02
 -0.27593177E-02 -0.62246081E-02  0.34550135E-02
  0.17227407E-02  0.36775482E-02 -0.79456147E-03
 -0.31496326E-03 -0.50184598E-02 -0.72552522E-02
  0.18547533E-02 -0.47035412E-02 -0.23358974E-02
 -0.24664419E-02  0.35985400E-02 -0.50870548E-02
  0.35639598E-02  0.40392544E-02 -0.76445541E-02
 -0.67931072E-04 -0.16954175E-02 -0.60977244E-02
  0.21306337E-02 -0.59257991E-04  0.27068523E-02
 -0.19591882E-02  0.12032528E-03 -0.39139015E-02
 -0.30986975E-03 -0.89708196E-03  0.74143855E-03
  0.16191602E-02  0.75718086E-03 -0.66596779E-03
  0.19811533E-03 -0.60562414E-03 -0.23484115E-02
  0.91142737E-03  0.17989098E-02  0.11582399E-02
 -0.36770187E-02 -0.98343005E-03  0.11796810E-02
  0.30279412E-02 -0.13658161E-02 -0.13031945E-02
 -0.17262829E-03 -0.12555260E-02  0.47827051E-02
  0.41548880E-02 -0.76864784E-03 -0.51711781E-03
  0.22191232E-02  0.65696283E-02  0.10238760E-02
 -0.50641532E-02 -0.21135771E-02  0.48572012E-02
 -0.34913426E-02 -0.39922609E-02 -0.31798127E-02
  0.14967669E-02 -0.14971947E-02  0.21845163E-02
  0.47265032E-02  0.64864262E-03  0.89062016E-03
 -0.29040793E-02 -0.10275754E-02  0.20397517E-02
 -0.28597269E-02 -0.20020297E-02  0.15664088E-02
  0.29487779E-02 -0.28594229E-02  0.36489740E-02
 -0.17899979E-03 -0.17620712E-02 -0.99028005E-03
  0.12362517E-03 -0.30573807E-02 -0.35124709E-02
  0.15109876E-03  0.24781850E-02  0.60670591E-03
  0.12024270E-02 -0.36316454E-03  0.11410925E-02
 -0.11255042E-02 -0.29639813E-02 -0.30844605E-02
 -0.19043187E-02 -0.17374895E-02  0.29939823E-02
 -0.16497122E-02 -0.47432131E-03  0.46475517E-03
 -0.55755484E-04  0.12493670E-02  0.56353471E-03
 -0.28805802E-03  0.13631156E-02 -0.30587928E-02
 -0.16709063E-02  0.37732123E-02  0.60685986E-02
 -0.48638592E-02  0.22305496E-02 -0.32433205E-02
 -0.20168266E-02  0.11830443E-02  0.18072220E-02
  0.21401843E-02 -0.47617126E-02 -0.39484723E-03
 -0.11371252E-02  0.55010018E-02 -0.15274006E-02
 -0.80519032E-02  0.32100367E-02 -0.45749385E-02
 -0.51081852E-02  0.14857937E-02 -0.45185314E-02
 -0.19226099E-03 -0.35178890E-02  0.31135666E-02
  0.12853624E-02  0.39963382E-02  0.15655719E-02
  0.57269295E-03  0.16610155E-02 -0.37672890E-02
  0.27257795E-03 -0.20576010E-02  0.60969179E-02
  0.77503745E-03  0.20008871E-02  0.17685731E-02
 -0.29574634E-02  0.22670679E-02 -0.12492505E-02
 -0.44915391E-05 -0.48582159E-02  0.15989898E-03
 -0.83054236E-02  0.60932366E-02  0.16853589E-02
  0.37593006E-02 -0.68409941E-03 -0.71063134E-02
 -0.42206111E-02 -0.13554835E-03 -0.40077513E-02
  0.65262929E-03  0.48680157E-02  0.98982945E-03
 -0.39286939E-03 -0.56391608E-03 -0.61493847E-02
 -0.21216428E-03  0.41327574E-02  0.77697025E-03
  0.26890839E-02 -0.31146757E-02  0.18874610E-02
  0.54291444E-02  0.23583427E-02  0.34341908E-02
  0.16211580E-03  0.15743006E-02 -0.33991791E-03
  0.26299918E-02 -0.18910644E-02  0.32523262E-02
 -0.50023873E-04 -0.20196810E-02 -0.16392174E-02
 -0.54212847E-03  0.26834804E-03  0.10123886E-03
 -0.43943788E-02 -0.81577723E-03 -0.86882516E-03
 -0.22926865E-02  0.24039097E-02  0.16638356E-02
  0.19382919E-02  0.55020226E-02 -0.18205615E-02
  0.66801205E-02 -0.71925876E-03 -0.61418280E-03
  0.23685230E-02  0.32507401E-02  0.27162187E-02
  0.17259229E-02  0.17970392E-02 -0.20277420E-02
 -0.48633919E-03 -0.17008273E-02  0.14130477E-02
  0.89249924E-03 -0.36169667E-02  0.75256134E-03
 -0.19042940E-02 -0.94020200E-03  0.12965275E-02
  0.62200760E-02  0.46724757E-02 -0.76450029E-02
  0.66142384E-03 -0.43475218E-02 -0.25346525E-02
  0.89305953E-03  0.31614309E-02 -0.41081984E-02
 -0.76727863E-03 -0.36327603E-02  0.25498049E-02
 -0.37108535E-02 -0.19219793E-02 -0.77943808E-03
 -0.97554649E-03  0.13691906E-02 -0.33083926E-03
  0.40847567E-02  0.13856815E-03  0.34752249E-02
  0.50243595E-02 -0.45802966E-02  0.35236925E-03
 -0.69346390E-02  0.65666252E-03  0.36067661E-03
 -0.14313581E-02 -0.24365243E-02  0.71601806E-04
  0.97564788E-03 -0.42952550E-02  0.18485357E-02
 -0.34312623E-02 -0.29197660E-03  0.38256561E-02
  0.28414510E-02  0.41142891E-02  0.15227291E-02
 
           1
   2.00000000000000     
  0.50900158E+00 -0.55046394E-03  0.00000000E+00  0.00000000E+00
  0.21892008E+00  0.23167965E+00  0.99414882E+00
  0.47655703E+00  0.51888446E+00  0.61697450E+00
  0.52157604E+00  0.41811376E+00  0.87493297E+00
  0.88321723E-02  0.96853401E+00  0.20284478E+00
  0.51409448E+00  0.97170427E+00  0.88404847E+00
  0.69813893E+00  0.56837811E+00  0.37989688E+00
  0.20877966E+00  0.63957130E+00  0.16362024E+00
  0.27138699E+00  0.30491178E+00  0.10829003E+00
  0.72106402E+00  0.71738262E+00  0.62872329E+00
  0.75496857E+00  0.23668092E+00  0.93232267E+00
  0.72855297E+00  0.91745856E+00  0.36277907E+00
  0.32135621E-01  0.24059138E+00  0.75536855E+00
  0.72318425E+00  0.43208900E+00  0.14046106E+00
  0.19676499E+00  0.76843721E+00  0.74487268E+00
  0.60078642E-02  0.99595159E+00  0.88393425E+00
  0.71296205E+00  0.23461534E+00  0.37056880E+00
  0.22658339E-01  0.86759372E+00  0.52372379E+00
  0.25198671E+00  0.51236179E+00  0.62697398E+00
  0.50328179E+00  0.96285914E+00  0.99947196E+00
  0.97276226E+00  0.56351011E+00  0.87247614E+00
  0.49813319E+00  0.95658580E+00  0.41708756E+00
  0.24483878E+00  0.24787840E+00  0.49516924E+00
  0.77401119E+00  0.13692211E-01  0.87438174E+00
  0.24992544E-01  0.51671548E+00  0.60142188E+00
  0.24607574E+00  0.74388915E+00  0.18604580E-01
  0.22199305E+00  0.27988113E+00  0.61965274E+00
  0.76580583E+00  0.75611392E+00  0.98457973E+00
  0.11814503E-01  0.24331568E+00  0.49384472E+00
  0.48201420E+00  0.79919882E+00  0.54391372E+00
  0.23920234E+00  0.19119136E+00  0.87007329E+00
  0.96142063E+00  0.47149909E+00  0.37209651E+00
  0.50259711E+00  0.49016137E+00  0.75753622E+00
  0.78841449E+00  0.73660792E+00  0.23139417E+00
  0.72642617E+00  0.25445330E+00  0.64096682E+00
  0.99931463E+00  0.80121664E+00  0.37412897E-02
  0.51427115E+00  0.91980527E-01  0.54216872E+00
  0.44910887E+00  0.48930554E+00  0.58478639E-02
  0.26614210E+00  0.28848023E+00  0.37326110E+00
  0.26030981E+00  0.77834474E+00  0.62178040E+00
  0.68361036E+00  0.74239744E+00  0.12220058E+00
  0.97769023E+00  0.31044939E-01  0.91839457E-01
  0.99235391E+00  0.26563279E-01  0.76752500E+00
  0.48832688E+00  0.23690813E+00  0.78174821E+00
  0.99431148E+00  0.52338740E+00  0.23843568E+00
  0.28930462E+00  0.25143824E+00  0.73104151E+00
  0.74789912E+00  0.77364067E+00  0.50683585E+00
  0.24838541E+00  0.77685366E+00  0.50002549E+00
  0.67766617E+00  0.24931199E+00  0.54387573E-01
  0.99796142E+00  0.27448929E-02  0.64437601E+00
  0.52678382E+00  0.51059781E-02  0.14469456E+00
  0.11544898E-01  0.45655854E+00  0.74891798E+00
  0.53245505E+00  0.95830881E+00  0.26203072E+00
  0.76106069E+00  0.26959495E+00  0.50150307E+00
  0.70521121E+00  0.75392666E+00  0.84891191E+00
  0.48302633E+00  0.61807142E+00  0.47920189E+00
  0.47304308E+00  0.73144479E+00  0.35989992E-02
  0.97481153E+00  0.54120855E+00  0.98676979E+00
  0.26680079E+00  0.74908455E+00  0.38272541E+00
  0.54829910E+00  0.34963864E+00  0.23369134E+00
  0.13551917E-01  0.89148972E-02  0.33394105E+00
  0.44303261E+00  0.22398295E+00  0.98147961E+00
  0.22460580E-01  0.55721167E+00  0.48514691E+00
  0.44921070E+00  0.49747476E+00  0.15147383E+00
  0.48216458E+00  0.96341385E+00  0.75654400E+00
  0.25187062E+00  0.28624279E+00  0.23105976E+00
  0.49979972E+00  0.74709984E+00  0.73810664E+00
  0.56302200E-02  0.75087393E+00  0.27594527E+00
  0.83300245E+00  0.72680857E+00  0.74189434E+00
  0.31802648E+00  0.78881268E+00  0.25842620E+00
  0.76048161E+00  0.21929280E+00  0.77067502E+00
  0.76427302E+00  0.22608115E+00  0.24285668E+00
  0.24415738E+00  0.77076428E+00  0.86153348E+00
  0.49223812E+00  0.43840927E+00  0.38619624E+00
  0.72905151E+00  0.22994727E-02  0.62971829E+00
  0.97102337E+00  0.27781412E+00  0.12617919E-01
  0.27193924E+00  0.52932193E+00  0.38130723E+00
  0.19219451E+00  0.46321353E+00  0.87807053E+00
  0.10317860E-01  0.28989361E+00  0.23889138E+00
  0.76683749E+00  0.80058927E-02  0.12450662E+00
  0.50576579E+00  0.25722646E+00  0.47606176E+00
  0.74744959E+00  0.44709607E+00  0.87915725E+00
  0.27345007E+00  0.18319706E-01  0.36689128E+00
  0.76991498E+00  0.47727510E+00  0.63002356E+00
  0.21609058E+00  0.93545189E+00  0.13053326E+00
  0.24268560E+00  0.59377170E-01  0.63051485E+00
  0.30149936E-01  0.48617911E+00  0.12273121E+00
  0.25814605E+00  0.96523944E+00  0.88635266E+00
  0.50641989E+00  0.54242211E+00  0.28194555E+00
  0.24191088E+00  0.39616218E-01  0.23435275E+00
  0.74803962E+00  0.47030582E+00  0.74958942E+00
  0.23316079E+00  0.11021293E-01  0.76403283E+00
  0.74394239E+00  0.49651089E+00  0.25679946E+00
  0.25999308E+00  0.97303239E+00  0.67554799E-02
  0.77619427E+00  0.51222886E+00  0.50319854E+00
  0.23264894E+00  0.66455028E-02  0.50257965E+00
  0.73004898E+00  0.50771675E+00  0.99405082E+00
  0.73666865E+00  0.94750014E+00  0.75565091E+00
  0.26641387E+00  0.54757981E+00  0.25947082E+00
  0.25506414E+00  0.52824531E+00  0.75516136E+00
  0.75917422E+00  0.98401008E+00  0.24156455E+00
  0.26627941E+00  0.50303104E+00  0.49640714E+00
  0.75304378E+00  0.99072054E+00  0.49473479E-02
  0.76639979E+00  0.15767365E-01  0.50025128E+00
  0.22439259E+00  0.50501777E+00  0.82919076E-02
  0.32946387E-01  0.25422355E+00  0.37017217E+00
  0.46555565E+00  0.72306544E+00  0.88368993E+00
  0.48165128E+00  0.26180837E+00  0.63733369E+00
  0.97301236E+00  0.74074854E+00  0.11932859E+00
  0.99854419E+00  0.26937365E+00  0.87554538E+00
  0.49087054E+00  0.75229351E+00  0.38391769E+00
  0.97551998E+00  0.75345525E+00  0.63689580E+00
  0.51646778E+00  0.23970847E+00  0.13164316E+00
  0.13022058E+00  0.38594604E+00  0.49353069E-01
  0.62794758E+00  0.93117270E+00  0.54556013E+00
  0.63521241E+00  0.72354687E-01  0.94283328E+00
  0.18287703E+00  0.62144525E+00  0.44290396E+00
  0.33127581E+00  0.38292716E+00  0.94904580E+00
  0.85948524E+00  0.90624991E+00  0.44773596E+00
  0.82913431E+00  0.12816930E+00  0.47072941E-01
  0.35364512E+00  0.64013755E+00  0.55112983E+00
  0.86547015E+00  0.94952817E-01  0.19463154E+00
  0.32731097E+00  0.63748933E+00  0.70172315E+00
  0.86956534E+00  0.88806168E+00  0.29198562E+00
  0.35185757E+00  0.40529055E+00  0.81343211E+00
  0.15657771E+00  0.64616226E+00  0.31309573E+00
  0.63602604E+00  0.82045265E-01  0.79748951E+00
  0.17384687E+00  0.45315272E+00  0.18494478E+00
  0.64014565E+00  0.85180670E+00  0.68685453E+00
  0.79904858E+00  0.59638746E+00  0.92826396E+00
  0.36527673E+00  0.10033077E+00  0.44730615E+00
  0.90654332E+00  0.42293636E+00  0.54995196E+00
  0.37416664E+00  0.87842509E+00  0.65998476E-01
  0.11740743E+00  0.11380365E+00  0.55799657E+00
  0.60695971E+00  0.59567402E+00  0.39743679E-01
  0.13536444E+00  0.88440189E+00  0.95604188E+00
  0.66763105E+00  0.41693306E+00  0.45429858E+00