Na88 Ge16 P8 S96                        
   1.00000000000000     
    13.3422163233000006    0.0000000000000000    0.0000000000000000
     0.0000000000000000   13.3422163233000006    0.0000000000000000
     0.0000000000000000    0.0000000000000000   26.6844326466999995
   Na   Ge   P    S 
    88    16     8    96
Direct
  0.0073627525325135  0.0215441528026549  0.1086646237670337
  0.5196854337584415  0.7417798316443769  0.7498150269722884
  0.4745696671237757  0.4787679386443912  0.8788757607931356
  0.0051793515705994  0.9983443095872186  0.3765558112653853
  0.7245502846313510  0.2321732864763959  0.9023281188357680
  0.2441424838188304  0.5435052244271423  0.3807418269667714
  0.9510534086411613  0.4982479391223988  0.1292202244266427
  0.2413270115572081  0.2379063139944316  0.1177184851203527
  0.7088853800640730  0.9738268077974143  0.6343617592045532
  0.7858283760786363  0.2259726238685184  0.6506369976009351
  0.7219214279738916  0.9314359283365976  0.3738531075390741
  0.2428968809597958  0.4742457108056649  0.8708536312461875
  0.7659529706162805  0.2335847017863926  0.1348052682337562
  0.2350862094790539  0.5665744101559015  0.6258156661335187
  0.9528623064449367  0.9444649011108515  0.8781839800004306
  0.4775163234243546  0.4854328540684082  0.3577284132091970
  0.9860210855868250  0.0289345630415524  0.6318217248836782
  0.0134878909017488  0.4694583584590332  0.6133272555757677
  0.5157825915489561  0.9529531071339196  0.0040409710289532
  0.9835618663606721  0.4945834817284085  0.8779506136503084
  0.5504551094419627  0.0002557968921215  0.2794330775610318
  0.2343414553381216  0.0097390073887301  0.3549120218988009
  0.7332894502161816  0.5706168918772689  0.8680641337019122
  0.7569180279872743  0.4524673512381211  0.6312620738049675
  0.2848482594172008  0.7117764219323394  0.1183560119214530
  0.2337395634310422  0.2293024814192885  0.6240918007585247
  0.6892664160007300  0.7461131583389778  0.1394485730580762
  0.7626872323650098  0.2042511719294439  0.5109368239979604
  0.4780881266324828  0.7311024437134990  0.4914440285028327
  0.5089571316587590  0.2011366787136211  0.0006573490554235
  0.9995509855801424  0.0631745275408682  0.4974402996879655
  0.7502725410495705  0.7363108854563403  0.7668673801238757
  0.9616307005277012  0.7543778105583364  0.2445366955807644
  0.5076106529622113  0.2298859295041126  0.7728414740806102
  0.0152307917308084  0.9774273637772322  0.9983011040772525
  0.4793990270599564  0.1720964079222189  0.5149894941680434
  0.4782003549047918  0.7028190029702621  0.0104449643066829
  0.3281928986004292  0.2330100819865127  0.2370482474096900
  0.9869012871385885  0.7809284343247190  0.7564725732034023
  0.5134128022938241  0.7524316888843416  0.2419612454411840
  0.0153828165912603  0.9745657115124167  0.2310919585583662
  0.5413850065956621  0.5028894898460663  0.7476061370197142
  0.4639599617578200  0.0171158886360255  0.7499229113162724
  0.9822687868587574  0.5082698825049931  0.2393166710460327
  0.2350927748999851  0.2065351977529270  0.9844922322774332
  0.7440444828824848  0.7164842780586353  0.4704991420364981
  0.2258715304782961  0.7801884795734759  0.5135073553579164
  0.7490705834839956  0.2568716691187568  0.0104885374728398
  0.0000759587237644  0.0368189350128223  0.7687480571455472
  0.4787873252754398  0.4616918857154828  0.2343471308441286
  0.0296096859757460  0.4972431214974390  0.7453456221658026
  0.5242011345679518  0.9759163051181723  0.1424924292694617
  0.2539041395303594  0.2821072830280485  0.4970176205072043
  0.7233962915586172  0.7340200287837980  0.0158262886463552
  0.0231340483514620  0.4904506610514499  0.5018368551636138
  0.1846030575192372  0.7280900602498778  0.9994453755399125
  0.9843370820602704  0.2473277050791939  0.0046386800391052
  0.4955309131736455  0.4605266263278263  0.5119980948494810
  0.4513487919669016  0.5079221920534749  0.1129550885904222
  0.9959714336530672  0.5110292675196013  0.3853746546262972
  0.4683905278432239  0.0000812955004925  0.8953911718818990
  0.9852548628684032  0.7556036506980510  0.4830360321515015
  0.9875770785894675  0.5340782605154193  0.9967635496005298
  0.4859762606594817  0.9803892109770445  0.4187876704999143
  0.0004334390681212  0.2577509434541740  0.2547451304593515
  0.7119931963610537  0.9241979488453199  0.8811660433501434
  0.2433537077513150  0.7383428225565262  0.2492145195560450
  0.0196493515222589  0.2602757644462891  0.7451186539789871
  0.7075456957366908  0.7325174713939535  0.2985172235645316
  0.2387483971759377  0.2669516009661206  0.7774111275234987
  0.7370644842349968  0.2464888809354150  0.2594745885528603
  0.1979683608413211  0.7553738027229280  0.7079043499691020
  0.2110024613561136  0.4790742698746413  0.1252315375845907
  0.4942739199640455  0.9492845019259877  0.5983715531743519
  0.7883800857721641  0.2472203708441608  0.7708998426064428
  0.2764125132740305  0.2300861962052222  0.3569184103993250
  0.2600189849437384  0.7521654839788412  0.8666941968220283
  0.7348998542311116  0.2001529335935046  0.4053823734847912
  0.7812653934497040  0.9841618057131394  0.1304398597204713
  0.4946797385922300  0.4671540846083196  0.6363896894995910
  0.5060069998376463  0.4755876329841746  0.0060139350312484
  0.1675535649933642  0.7697421602217566  0.3714423779322675
  0.7534327938111900  0.7047624998355146  0.6075169213622800
  0.2659603629036496  0.9588833553076536  0.1296243611056249
  0.2505423628817164  0.9757758421988433  0.6142925487743774
  0.7187225198782923  0.4927636476564387  0.1261300819503510
  0.2581607149594000  0.9746484640327541  0.8621443240427338
  0.7561600620614599  0.4792735613355150  0.3713099883417932
  0.2701640832065473  0.9610479417108854  0.2480533652526460
  0.7891621984783382  0.5143724593753473  0.7586151964275197
  0.2317298418499986  0.0047643944523694  0.7398659854945212
  0.7332238903999445  0.5146060302848063  0.2540148179801706
  0.2645992479913372  0.9504917050524431  0.0013718473649796
  0.7645722642422468  0.4525415459600520  0.5114065920758188
  0.2518039134089716  0.0224079105936334  0.4951237244433929
  0.7342537780407976  0.4930519006647048  0.9932532670924764
  0.7247166233241963  0.9793135184975349  0.7604514210330625
  0.2103959689009853  0.4904190157113100  0.2541085304956570
  0.2713974155026784  0.4911531438129617  0.7437225405505096
  0.7871574540720928  0.9949110377158630  0.2598430787348854
  0.2707445651955473  0.5382765992632244  0.5011664251442962
  0.7589379593251427  0.9860136551054314  0.0132048421482983
  0.7505777781478321  0.9657826506365303  0.5004062452898362
  0.2338251300228393  0.4491906599917863  0.9950378545217099
  0.0124977568688738  0.2623213917194767  0.3774332625908844
  0.4891383867433640  0.7443553082116904  0.8800944277370729
  0.4990545940502109  0.2161703852283312  0.6358990043009968
  0.0053657540488640  0.7425330755654077  0.1184912619619961
  0.9846177219152306  0.2274526018888390  0.8814543061844022
  0.4559321114017812  0.7415662071796671  0.3671239752856520
  0.9977512906285457  0.7411372862505491  0.6208815390738557
  0.4997507967937340  0.2480695821806772  0.1397828673769304
  0.1443344375954571  0.3592659640654284  0.0479448177302110
  0.6631081180455815  0.8442063444129005  0.5434603215482410
  0.6448215500132881  0.0566081962984263  0.9620126112635934
  0.1467800757589995  0.6398787607056071  0.4627879270450679
  0.3421405647130489  0.3633969459578624  0.9516986194379902
  0.8579943906283161  0.8938035939376228  0.4458283785139656
  0.8526761232156187  0.1097259601292190  0.0555019065025402
  0.3598999791841246  0.6191745185744749  0.5590254243074133
  0.8816460482575005  0.0902729359727826  0.2074181606950430
  0.3763869641499407  0.5988094742648270  0.6937308865106314
  0.8781928435800392  0.8912900852983935  0.3118616452202545
  0.3866555713165548  0.3949733543243618  0.7884727275855636
  0.1230040592726470  0.6021514098116819  0.2941384369684215
  0.6376303054358702  0.0742050972812165  0.8188020157555819
  0.1355290008311489  0.3804673346606717  0.2023090793031162
  0.6241930681601621  0.8922182889596881  0.7144101870846163
  0.8251403727220985  0.6064740152104894  0.9492197274240791
  0.3457344235338291  0.1128012131219994  0.4455318329201412
  0.8613592899279320  0.3534891872257376  0.5532494767767506
  0.3370327215114298  0.8334907778714390  0.0403357790080092
  0.1592643891813263  0.1204431503041617  0.5443197849878428
  0.6357321567114665  0.5775821915516258  0.0569425751374859
  0.1632343306702719  0.8816447949403418  0.9425679723058309
  0.6692930344364870  0.3542383988507735  0.4529750714388351
  0.6300735430770559  0.4104197848023927  0.2969690524214853
  0.1318436014129624  0.9004505771925945  0.7828470969074995
  0.1167610450503095  0.1055227805163784  0.6985699176276942
  0.6243432410296426  0.5938075343905321  0.2040082722447496
  0.8628468460255412  0.3976602484606519  0.7115624556193528
  0.3775353391353376  0.8578705194294174  0.1928987757421010
  0.3701397143500669  0.0711641447507112  0.2971695623444068
  0.8824947614397749  0.6133307882834818  0.7982333417344797
  0.1660845635588810  0.0532182642993322  0.0504110135350725
  0.6622805956123425  0.5490408201764682  0.5563957357949573
  0.6307618580634672  0.3748174894987992  0.9521340528133356
  0.1309438279364329  0.9297370342444417  0.4447761448640174
  0.3563285371045599  0.0591284750314706  0.9562901073852190
  0.8614123127372371  0.5573161295113042  0.4607198846341859
  0.8552410353715154  0.4256695998719542  0.0437531706825857
  0.3542995396977277  0.9195758959038290  0.5327547623016146
  0.1820409388997835  0.0676768548193127  0.1953015119188251
  0.6979531471820568  0.6014965843435766  0.7028935081083093
  0.1577355688336111  0.8815810145479119  0.2936532231735386
  0.6871393619054207  0.4205631599584965  0.8000389718343714
  0.8442850081260673  0.5780943110550403  0.2998997646732972
  0.3081953357017664  0.0934972493410974  0.7966450026583277
  0.8172371969677092  0.4128135335555746  0.1995060596814177
  0.3245465310743083  0.9032775507697073  0.7009774934136476
  0.8514341212253993  0.8934356226487997  0.9631312025777341
  0.3394946047859216  0.4389845056407290  0.4444533862913747
  0.8278983569185958  0.0518899325859684  0.5588494138587401
  0.3364237705259476  0.5594971854333541  0.0396527156791222
  0.1830085063271859  0.4320639688002403  0.5538863099597261
  0.6623858530059978  0.9016581389837427  0.0715194039566692
  0.1446809800849631  0.5517591866261863  0.9521456786837347
  0.6474268644191213  0.0469604341964748  0.4505619820925702
  0.3203620743856584  0.4090419263969155  0.3004194062761857
  0.8456411357418012  0.8878062691291924  0.8000152268498314
  0.8275370287909084  0.0875403227677065  0.7160700968275056
  0.3183108771315917  0.5764287745831408  0.2004054279077389
  0.1819328486279357  0.3806491848868065  0.7003967746824015
  0.6799565492913270  0.8996117990094434  0.2184018648665634
  0.6989665739548213  0.0871103756369024  0.3147068622683863
  0.1800609163309781  0.5860128315353369  0.7957158357370573
  0.0918898295079561  0.1649286535993123  0.3310084458098940
  0.5805081511835642  0.6483531352688242  0.8369740517346913
  0.5902216707570174  0.2961871188458098  0.6857392803093406
  0.0927506889183487  0.8095884866343338  0.1706959558251735
  0.3980768823439209  0.1460455054971166  0.6789318805146874
  0.8907479863000726  0.6814928396371721  0.1612870867473696
  0.9118561459067779  0.3543599166318918  0.3357977153028038
  0.4309571193644625  0.8436536508767457  0.8265099418816139
  0.0755045243184406  0.1485606723631386  0.9205563493875327
  0.5637962920603816  0.6574997956202442  0.4036193150981158
  0.0970639234665769  0.8491316610850207  0.6057851379337323
  0.5926667996431053  0.3235158786818469  0.0804363869623559
  0.9452458672830911  0.6665113312434273  0.5617234713721874
  0.4274908670526549  0.1364760536423242  0.0950478366221041
  0.8935786182063996  0.3284783420058895  0.9214783817916030
  0.3684897070298927  0.8224858842807957  0.4165052587267429
  0.8793300013922966  0.8145590258772439  0.6608560263801772
  0.3922858267898000  0.3340122331804358  0.1642830544237025
  0.8952259143821094  0.1413255922678472  0.8351268212185479
  0.3778589041248147  0.6688165919889594  0.3150605308775760
  0.0715139684954253  0.3279011204310469  0.8398356849894097
  0.5538370439080751  0.8456691979760089  0.3339576547643240
  0.0616412999441140  0.6342715732018206  0.6662448627595329
  0.6018068666360700  0.1719362950275999  0.1884000230934997
  0.4303542980483677  0.2941292689920872  0.5785396520704437
  0.9476464258156556  0.8121651944699046  0.0603377972430662
  0.9304265895617665  0.1657813127244485  0.4257243365510998
  0.3907528567975933  0.6538701693857017  0.9155787293683663
  0.1046066381151431  0.3502463358464286  0.4164216554630459
  0.5760365947728432  0.8107832544804725  0.9374881340745943
  0.5956825388259901  0.1219600512769042  0.5931691247883952
  0.0842186241523788  0.6283256703863723  0.0827182238515421
 
 -0.70775479E-02  0.99398556E-02  0.88058015E-02
  0.32041940E-02 -0.29600056E-02 -0.50123590E-02
  0.21489916E-02  0.68265101E-02 -0.78632400E-02
 -0.86264455E-03  0.20106679E-02  0.78471220E-02
  0.33312024E-02 -0.43971750E-02  0.33473252E-02
  0.29616343E-02 -0.63405357E-02  0.19584496E-03
  0.21287255E-02 -0.10387347E-01 -0.23180616E-02
  0.48658425E-02  0.15703454E-02  0.44390260E-03
  0.29060677E-03  0.27829602E-02 -0.70395061E-02
 -0.81253048E-03 -0.83055250E-02  0.83623139E-02
 -0.25034009E-02  0.57073897E-02  0.16458535E-02
  0.42984299E-03  0.10379536E-03 -0.18324878E-03
 -0.46511639E-02 -0.23475495E-02  0.64804156E-02
 -0.71397165E-02 -0.45144976E-02  0.32983676E-02
  0.35614486E-03 -0.72802533E-02 -0.47839528E-02
  0.39492629E-02  0.71097391E-02 -0.15296150E-02
 -0.42390045E-03  0.44679250E-03 -0.23218617E-03
  0.72465926E-02 -0.61354904E-02 -0.77076425E-02
 -0.10318962E-01  0.25487919E-02  0.25661326E-02
  0.42896772E-02 -0.81717885E-03 -0.37276406E-02
 -0.40639647E-02 -0.47286532E-02 -0.97593509E-02
  0.27563053E-02 -0.19291137E-02 -0.52070978E-02
  0.61200980E-02  0.43036203E-03  0.28237524E-02
 -0.65255042E-02 -0.11083441E-02 -0.30423449E-02
  0.13687172E-02 -0.16362144E-02 -0.59130895E-02
  0.41129738E-02  0.97179574E-02  0.68871591E-02
  0.98114817E-03  0.30706059E-03 -0.68687123E-02
 -0.61922984E-02  0.70966120E-02  0.36346183E-02
 -0.25914985E-02  0.56773707E-03 -0.23224247E-03
 -0.69792072E-02  0.90983196E-02  0.67759937E-02
 -0.49213483E-02  0.31736855E-02  0.82989360E-02
  0.34037785E-02  0.12073850E-01 -0.50298430E-02
  0.15633700E-02  0.38568872E-02  0.39941993E-03
 -0.55128377E-04 -0.14722289E-02  0.18347113E-02
  0.40586529E-03 -0.14697119E-02  0.33461918E-02
 -0.48688514E-02 -0.10548406E-02 -0.38968871E-02
  0.38136762E-02  0.28704735E-02 -0.11815149E-02
  0.52049883E-03  0.70409747E-03 -0.10236795E-02
 -0.29835153E-02 -0.48573295E-03  0.18783703E-02
  0.15416588E-02  0.11150914E-02  0.93045056E-02
 -0.24436170E-02  0.87352247E-02  0.88549619E-02
 -0.94529331E-02  0.10633089E-02 -0.73254802E-02
  0.23401001E-02  0.31489266E-02 -0.40610133E-02
 -0.27208464E-03 -0.16734191E-02  0.50566396E-02
  0.71692065E-03 -0.16871711E-02  0.13125270E-03
  0.84669335E-02  0.62491571E-04 -0.23447443E-02
  0.16185560E-02 -0.64800196E-02  0.18057600E-02
 -0.14377573E-02  0.97349247E-03 -0.65885652E-02
  0.12781552E-02  0.51338850E-02 -0.51581997E-02
 -0.11219080E-01 -0.11649252E-01 -0.24283321E-02
 -0.54757941E-02 -0.62117748E-02 -0.52298991E-02
 -0.23559574E-02  0.58076506E-03 -0.31982119E-02
 -0.39486532E-02  0.25898932E-02  0.21300020E-02
 -0.68805155E-02 -0.18883227E-02  0.53286714E-02
  0.68198658E-02 -0.16271861E-03  0.14792505E-02
  0.20478658E-02 -0.71719669E-02 -0.61994652E-02
 -0.26060617E-02  0.78637321E-02  0.24405612E-02
 -0.13188477E-02  0.33376151E-02 -0.35528580E-02
 -0.20443855E-02 -0.33122975E-02 -0.74788605E-02
 -0.14572824E-02  0.10758011E-03  0.38805523E-02
 -0.30945990E-02  0.40580276E-03  0.36125197E-02
  0.16188203E-02  0.62912395E-03 -0.59229039E-02
  0.15246450E-02  0.27133018E-02  0.37394862E-03
  0.38574743E-02  0.89060691E-03  0.51740955E-02
  0.25063578E-02 -0.36454371E-02 -0.87808377E-02
  0.37546831E-02 -0.33936742E-02 -0.41845104E-02
  0.38856451E-02 -0.29577961E-02 -0.17666423E-02
  0.51266897E-03  0.42064349E-02  0.52522236E-02
 -0.67823363E-02 -0.50905510E-02  0.19200966E-02
 -0.42505915E-03 -0.96538939E-03  0.48881600E-02
 -0.25164315E-02  0.71207781E-02 -0.30294407E-02
 -0.13910387E-03  0.95837560E-03 -0.78036226E-02
 -0.49070224E-02  0.86946407E-02  0.22417074E-02
 -0.66799871E-02 -0.13041350E-01  0.13586835E-02
 -0.17527328E-03  0.29798336E-02 -0.82641339E-02
 -0.57363021E-02 -0.16401364E-02  0.10321145E-02
 -0.58134826E-02  0.29931087E-02 -0.18960500E-02
  0.32381780E-02  0.60834433E-02 -0.27924063E-03
  0.42653772E-02 -0.32647726E-02  0.41860571E-02
 -0.12470062E-02 -0.88122605E-02 -0.22140222E-02
  0.87066312E-02 -0.42856235E-02 -0.14919691E-02
 -0.10540238E-02  0.51295649E-02 -0.34277177E-02
  0.47705947E-03 -0.13474894E-02  0.37542737E-02
 -0.26544984E-02 -0.42583340E-02  0.36584072E-02
  0.11607094E-01  0.30898155E-02 -0.35424259E-02
 -0.47383533E-02 -0.11749240E-02  0.23363321E-02
  0.17704789E-02  0.24772842E-02 -0.21276759E-02
  0.40734260E-02  0.19736428E-02  0.26942537E-02
  0.18784044E-03 -0.27390176E-02  0.15584394E-02
  0.15842542E-02 -0.36345074E-02 -0.18416598E-02
 -0.29375830E-03 -0.55115260E-02 -0.44720798E-03
  0.11498923E-02 -0.28197202E-02 -0.11294124E-02
 -0.55029208E-03  0.34091455E-02 -0.27970284E-03
 -0.23241407E-02 -0.93375544E-03 -0.10003975E-03
 -0.65633220E-03 -0.11948419E-02 -0.39344726E-03
 -0.51060696E-02  0.40210145E-02  0.40209489E-02
 -0.50636039E-03 -0.32861307E-03  0.60959988E-03
  0.36746838E-02  0.12528348E-02  0.23120779E-02
  0.50642821E-02 -0.21534231E-03  0.61468373E-02
 -0.58264974E-04 -0.57538070E-03  0.10394400E-02
 -0.54196389E-02 -0.17407622E-02  0.32381239E-03
 -0.32188755E-04  0.43872880E-02  0.33264419E-02
  0.21843765E-02  0.60412714E-03  0.16702370E-02
  0.32194632E-02  0.25445116E-03  0.52121710E-02
 -0.27359211E-02 -0.30532437E-02 -0.36013867E-02
 -0.66947855E-02  0.19688766E-02 -0.37974126E-02
 -0.14006606E-02  0.76066531E-02  0.18181061E-02
  0.78009707E-02  0.41286828E-02 -0.56983333E-02
  0.64595693E-02  0.10591925E-01  0.27570937E-02
  0.20574877E-02 -0.30766740E-02 -0.18637127E-02
 -0.68291030E-03  0.18819249E-02 -0.57119601E-02
  0.47887975E-03 -0.10363616E-01  0.39252518E-02
  0.87008671E-02 -0.28292033E-02  0.25406403E-02
 -0.50697568E-02  0.48665425E-02  0.33297159E-02
 -0.21930989E-02  0.10358165E-02  0.16995779E-02
  0.37106970E-02  0.98795609E-03  0.58868858E-02
 -0.42258579E-02 -0.20074851E-03  0.88531924E-02
 -0.18055268E-02 -0.13340675E-02 -0.14474099E-01
  0.19104675E-02 -0.12673424E-02  0.63883157E-02
  0.74101943E-02  0.34333972E-02 -0.33586867E-02
  0.18194490E-02  0.39700142E-02 -0.27761223E-02
  0.33786514E-02 -0.40205010E-02 -0.79554735E-02
 -0.58252445E-02  0.59712847E-02 -0.58464555E-02
 -0.50701947E-02 -0.15038787E-02 -0.40551761E-02
  0.16066401E-03 -0.27934227E-02 -0.10109864E-02
 -0.38601313E-02 -0.77865675E-02 -0.29782343E-02
 -0.20340642E-02 -0.63529882E-02 -0.32444205E-02
 -0.58087302E-02 -0.34964395E-02 -0.49317826E-02
 -0.20009063E-02 -0.93185616E-03 -0.69989384E-02
  0.73106494E-02 -0.51563790E-02 -0.26213333E-02
 -0.60673959E-02 -0.18368086E-02 -0.56618947E-02
 -0.75636361E-02 -0.35991991E-02  0.21506864E-02
 -0.38571153E-02  0.47250653E-02  0.21892304E-02
  0.40668352E-02  0.71062513E-03 -0.35525622E-02
  0.63633312E-02  0.49117001E-02 -0.16015770E-02
  0.27754706E-02 -0.23180749E-02 -0.29661441E-02
 -0.82976850E-04 -0.42018582E-03 -0.63993123E-02
  0.52215569E-03  0.43971237E-02  0.12457345E-02
 -0.43654081E-02  0.65668161E-02 -0.44798162E-02
  0.26931669E-02 -0.36901385E-02 -0.37861860E-02
  0.39274304E-03 -0.13537204E-02  0.29565496E-02
  0.25432072E-02  0.91359608E-02  0.37907479E-02
  0.24695796E-03  0.69327112E-02  0.16396517E-02
  0.48869658E-03 -0.63961553E-02 -0.42186815E-03
  0.95772763E-02  0.47240534E-03  0.29603227E-02
 -0.51025520E-02 -0.48883873E-02  0.27386186E-02
 -0.17336813E-02 -0.38098396E-02  0.10303098E-01
 -0.61396260E-02  0.55879662E-03 -0.32921678E-02
 -0.49369709E-02 -0.33394030E-02 -0.10098060E-03
  0.20826772E-03  0.36292745E-02 -0.12743460E-01
  0.66276193E-02  0.60654182E-03  0.63383763E-02
  0.25372361E-02  0.24468809E-02 -0.24099367E-02
  0.25344818E-02 -0.10912121E-02 -0.26701238E-02
 -0.26535038E-02  0.16418818E-02  0.58218199E-02
  0.72482531E-02 -0.45445505E-02 -0.30634433E-02
 -0.58213191E-02  0.31311888E-02  0.38082455E-02
 -0.11624409E-02  0.47045667E-02  0.16549274E-02
 -0.31422397E-02  0.61267038E-03  0.13780515E-03
  0.10842610E-02 -0.28593436E-02  0.17607290E-02
  0.52322298E-02 -0.51233330E-03  0.60145377E-02
  0.10075127E-02 -0.59899639E-02 -0.25350894E-02
  0.36571277E-02 -0.45936772E-02  0.15517599E-02
 -0.95703631E-03  0.42361687E-02  0.71155750E-03
 -0.16996173E-02 -0.59982274E-02  0.10590498E-01
 -0.17496596E-02  0.21356264E-03  0.17823359E-03
  0.15762671E-02  0.94174007E-02 -0.25501665E-02
 -0.35504458E-02 -0.13642953E-02 -0.20897655E-02
 -0.17560621E-02 -0.16369902E-03  0.17134613E-02
 -0.23117131E-02  0.30524865E-02 -0.46258192E-02
  0.73974844E-02 -0.20627367E-02 -0.43738466E-02
  0.16892110E-02 -0.81300802E-02  0.10234291E-02
 -0.44236270E-02 -0.34039082E-02  0.50193774E-02
 -0.45899273E-02  0.57526744E-03 -0.17371190E-03
  0.15263218E-02  0.72668635E-02 -0.91505321E-03
 -0.28072495E-02  0.44119823E-02  0.13565557E-02
  0.36772102E-02  0.33555510E-02 -0.79008390E-03
  0.29598161E-02  0.73521171E-03 -0.37903133E-02
 -0.31540673E-02  0.18726757E-02  0.42971389E-02
  0.19131492E-02  0.16640165E-02 -0.28613412E-02
  0.36049385E-02  0.32021337E-02 -0.27355277E-02
 -0.63461563E-02 -0.91796760E-03 -0.15940218E-02
 -0.17997994E-02 -0.28175099E-03  0.18578892E-02
 -0.17840474E-02 -0.35958816E-02  0.29315084E-02
  0.21446044E-02  0.36323891E-04  0.17137315E-02
 -0.30645742E-02 -0.71743238E-02  0.37168963E-02
  0.14728861E-02  0.51491657E-03  0.13731458E-02
  0.12827669E-02 -0.19078137E-02 -0.89757337E-02
 -0.41843310E-02 -0.32121208E-02  0.90943607E-02
  0.32218229E-02 -0.20126602E-03  0.37647939E-02
 -0.41558786E-02  0.31391319E-02 -0.66520679E-02
  0.69542205E-03  0.37509642E-02 -0.45221478E-02
  0.43239439E-02  0.22868609E-03 -0.15739988E-03
 -0.53756691E-03  0.28136622E-02  0.32168883E-02
  0.85856246E-02 -0.70298390E-02  0.36040150E-02
 -0.13359267E-02  0.52327617E-02 -0.33991798E-02
  0.48606807E-02  0.15485804E-02 -0.83347426E-03
  0.21850723E-02  0.22192808E-02  0.52183361E-02
  0.50934649E-02 -0.53920479E-02 -0.32525529E-02
  0.30575322E-03 -0.25185148E-02  0.29613352E-02
  0.19737546E-02  0.54208232E-02 -0.27976659E-02
  0.16177016E-02  0.17186474E-02 -0.85082702E-03
  0.61569972E-02  0.29438268E-02 -0.21924743E-03
 -0.69820231E-02  0.21616998E-02  0.35289913E-02
 -0.79892540E-03 -0.37477579E-02 -0.42328960E-02
  0.13056943E-02 -0.20674132E-02  0.75309782E-03
  0.35257702E-02 -0.34960745E-02  0.31942735E-02
 -0.34770327E-02  0.30918569E-02 -0.20028259E-02
 -0.15768761E-02 -0.39668601E-02  0.54782740E-02
 
           1
   2.00000000000000     
  0.91490355E+00  0.10256338E-02  0.00000000E+00  0.00000000E+00
  0.63018272E-02  0.23034138E-01  0.10932462E+00
  0.52016574E+00  0.74133613E+00  0.74943935E+00
  0.47489180E+00  0.47979123E+00  0.87828641E+00
  0.50500410E-02  0.99864571E+00  0.37714395E+00
  0.72504963E+00  0.23151415E+00  0.90257900E+00
  0.24458643E+00  0.54255478E+00  0.38075651E+00
  0.95137250E+00  0.49669087E+00  0.12904649E+00
  0.24205640E+00  0.23814171E+00  0.11775176E+00
  0.70892894E+00  0.97424397E+00  0.63383415E+00
  0.78570658E+00  0.22472762E+00  0.65126375E+00
  0.72154617E+00  0.93229147E+00  0.37397646E+00
  0.24296131E+00  0.47426127E+00  0.87083990E+00
  0.76525576E+00  0.23323280E+00  0.13529098E+00
  0.23401597E+00  0.56589769E+00  0.62606288E+00
  0.95291569E+00  0.94337359E+00  0.87782542E+00
  0.47810832E+00  0.48649860E+00  0.35761377E+00
  0.98595754E+00  0.29001537E-01  0.63180432E+00
  0.14574156E-01  0.46853865E+00  0.61274957E+00
  0.51423578E+00  0.95333517E+00  0.42333028E-02
  0.98420489E+00  0.49446099E+00  0.87767123E+00
  0.54984592E+00  0.99954697E+00  0.27870161E+00
  0.23475463E+00  0.94498330E-02  0.35452175E+00
  0.73420685E+00  0.57068140E+00  0.86827577E+00
  0.75593985E+00  0.45230121E+00  0.63103405E+00
  0.28505343E+00  0.71153115E+00  0.11791283E+00
  0.23435610E+00  0.23075920E+00  0.62460799E+00
  0.68941349E+00  0.74615919E+00  0.13893376E+00
  0.76175901E+00  0.20531496E+00  0.51120924E+00
  0.47769966E+00  0.73118755E+00  0.49142662E+00
  0.50791095E+00  0.20250052E+00  0.11652102E-02
  0.99881327E+00  0.63650263E-01  0.49806231E+00
  0.75078277E+00  0.73812076E+00  0.76649039E+00
  0.96186505E+00  0.75495596E+00  0.24456663E+00
  0.50760239E+00  0.22966524E+00  0.77297899E+00
  0.15291631E-01  0.97720705E+00  0.99855190E+00
  0.47866919E+00  0.17193829E+00  0.51469742E+00
  0.47877203E+00  0.70324929E+00  0.10356410E-01
  0.32827092E+00  0.23311563E+00  0.23697152E+00
  0.98645406E+00  0.78085562E+00  0.75661336E+00
  0.51364390E+00  0.75259884E+00  0.24265862E+00
  0.15016518E-01  0.97587512E+00  0.23175564E+00
  0.53996801E+00  0.50304888E+00  0.74705709E+00
  0.46431074E+00  0.17587913E-01  0.74961854E+00
  0.98222800E+00  0.50801904E+00  0.23969567E+00
  0.23520024E+00  0.20628229E+00  0.98450207E+00
  0.74531368E+00  0.71649365E+00  0.47032340E+00
  0.22611415E+00  0.77921712E+00  0.51364270E+00
  0.74885506E+00  0.25701760E+00  0.99947241E-02
  0.26755436E-03  0.37588505E-01  0.76836145E+00
  0.47710558E+00  0.45994566E+00  0.23416513E+00
  0.28788864E-01  0.49631198E+00  0.74495364E+00
  0.52384798E+00  0.97600336E+00  0.14225272E+00
  0.25331224E+00  0.28249551E+00  0.49717726E+00
  0.72236490E+00  0.73373697E+00  0.16225673E-01
  0.24156347E-01  0.49042627E+00  0.50194773E+00
  0.18491003E+00  0.72701498E+00  0.99898073E+00
  0.98394643E+00  0.24850648E+00  0.48216003E-02
  0.49533322E+00  0.46102694E+00  0.51173181E+00
  0.45104234E+00  0.50742568E+00  0.11239455E+00
  0.99575299E+00  0.51104539E+00  0.38566550E+00
  0.46792665E+00  0.14212539E-03  0.89566193E+00
  0.98549752E+00  0.75569796E+00  0.48259211E+00
  0.98780562E+00  0.53448498E+00  0.99679158E+00
  0.48655450E+00  0.98052271E+00  0.41917547E+00
  0.80914243E-03  0.25720449E+00  0.25408701E+00
  0.71255602E+00  0.92368924E+00  0.88085241E+00
  0.24393617E+00  0.73789945E+00  0.24908211E+00
  0.19726201E-01  0.26090631E+00  0.74551231E+00
  0.70652902E+00  0.73175440E+00  0.29866113E+00
  0.23868468E+00  0.26680689E+00  0.77777750E+00
  0.73668727E+00  0.24755629E+00  0.25924753E+00
  0.19794751E+00  0.75551746E+00  0.70731947E+00
  0.21026690E+00  0.48037760E+00  0.12539955E+00
  0.49327259E+00  0.94732960E+00  0.59847339E+00
  0.78835381E+00  0.24766705E+00  0.77028045E+00
  0.27555264E+00  0.22984034E+00  0.35699577E+00
  0.25914754E+00  0.75261415E+00  0.86655209E+00
  0.73538526E+00  0.20106484E+00  0.40536144E+00
  0.78190477E+00  0.98367242E+00  0.13075360E+00
  0.49449281E+00  0.46583313E+00  0.63622375E+00
  0.50731213E+00  0.47494522E+00  0.59021118E-02
  0.16739557E+00  0.77051108E+00  0.37118547E+00
  0.75350431E+00  0.70456051E+00  0.60779830E+00
  0.26556245E+00  0.95824503E+00  0.12989856E+00
  0.25228227E+00  0.97623901E+00  0.61402704E+00
  0.71801224E+00  0.49258753E+00  0.12630519E+00
  0.25842611E+00  0.97501981E+00  0.86198485E+00
  0.75677067E+00  0.47956941E+00  0.37151192E+00
  0.27019224E+00  0.96063736E+00  0.24817017E+00
  0.78939968E+00  0.51382765E+00  0.75847716E+00
  0.23168581E+00  0.39382160E-02  0.73983247E+00
  0.73339626E+00  0.51418335E+00  0.25393017E+00
  0.26451676E+00  0.95100274E+00  0.13508836E-02
  0.76422388E+00  0.45240158E+00  0.51139909E+00
  0.25170553E+00  0.22228804E-01  0.49509424E+00
  0.73348838E+00  0.49365465E+00  0.99355464E+00
  0.72464072E+00  0.97926426E+00  0.76049711E+00
  0.21094680E+00  0.49060682E+00  0.25428182E+00
  0.27215655E+00  0.49112086E+00  0.74418325E+00
  0.78714872E+00  0.99482479E+00  0.25992098E+00
  0.26993216E+00  0.53801566E+00  0.50119069E+00
  0.75893313E+00  0.98667131E+00  0.13454159E-01
  0.75090522E+00  0.96587321E+00  0.50053143E+00
  0.23430773E+00  0.44922880E+00  0.99542851E+00
  0.12087642E-01  0.26186371E+00  0.37716334E+00
  0.48813484E+00  0.74465044E+00  0.87980981E+00
  0.49884463E+00  0.21731062E+00  0.63603527E+00
  0.65351206E-02  0.74315197E+00  0.11806417E+00
  0.98558601E+00  0.22904033E+00  0.88166095E+00
  0.45624053E+00  0.74110501E+00  0.36698429E+00
  0.99764892E+00  0.74141939E+00  0.62045343E+00
  0.49982258E+00  0.24651607E+00  0.14007707E+00
  0.14563870E+00  0.35884187E+00  0.48135239E-01
  0.66234816E+00  0.84493584E+00  0.54370988E+00
  0.64449280E+00  0.56763465E-01  0.96213999E+00
  0.14733631E+00  0.64002686E+00  0.46322915E+00
  0.34150711E+00  0.36336685E+00  0.95236217E+00
  0.85772374E+00  0.89360362E+00  0.44474354E+00
  0.85296250E+00  0.10953599E+00  0.55980711E-01
  0.36101077E+00  0.61968919E+00  0.55877369E+00
  0.88191878E+00  0.90868042E-01  0.20721009E+00
  0.37689342E+00  0.59820680E+00  0.69313462E+00
  0.87731964E+00  0.89218518E+00  0.31142345E+00
  0.38589555E+00  0.39474792E+00  0.78816879E+00
  0.12302814E+00  0.60173268E+00  0.29406266E+00
  0.63705167E+00  0.73037890E-01  0.81857880E+00
  0.13522409E+00  0.37951502E+00  0.20206591E+00
  0.62332234E+00  0.89169417E+00  0.71404055E+00
  0.82484044E+00  0.60633433E+00  0.94869516E+00
  0.34683029E+00  0.11202827E+00  0.44533536E+00
  0.86044979E+00  0.35321385E+00  0.55282512E+00
  0.33589893E+00  0.83295126E+00  0.40496973E-01
  0.15868621E+00  0.12115144E+00  0.54448387E+00
  0.63634178E+00  0.57768871E+00  0.56676310E-01
  0.16418819E+00  0.88238106E+00  0.94244793E+00
  0.66970908E+00  0.35389092E+00  0.45275276E+00