Na88 Sn16 P8 S96                        
   1.00000000000000     
    13.4813327813000008    0.0000000000000000    0.0000000000000000
     0.0000000000000000   13.4813327813000008    0.0000000000000000
     0.0000000000000000    0.0000000000000000   26.9626655626000016
   Na   Sn   P    S 
    88    16     8    96
Direct
  0.0493302444011962  0.9908682605008964  0.1291202708910609
  0.5058586371800031  0.5429567241515221  0.6243200709055574
  0.4886196848033811  0.5036984358496408  0.8797239402231403
  0.9900196282345338  0.9857029467137975  0.3716088892446606
  0.2958778101738837  0.9767647689593170  0.8727261144350826
  0.9877578682042233  0.4911288190426550  0.3739619016796934
  0.9811117412707293  0.4386530282654789  0.1222462618151744
  0.2439810347597583  0.2221059320850252  0.1519596768520666
  0.7751037213246463  0.9444988021319486  0.6271109843920200
  0.7544873599648362  0.2609255179592527  0.8670897966571116
  0.7608595934538827  0.7404968494052915  0.3918132143825708
  0.2785163501413923  0.2319175494846784  0.8853334181823763
  0.7735759000042606  0.2291590221874912  0.1180176536342816
  0.2576803763082926  0.7837910944928099  0.6184388575605785
  0.0286977935252236  0.0277016925036993  0.8638895316613674
  0.2606050664208981  0.4964347595102380  0.3714908121630760
  0.9935779563354342  0.0206943153380809  0.6366018268604473
  0.0268640439134458  0.5033663197078968  0.6258712188251274
  0.5395106465613935  0.9914123599122326  0.1148841678046668
  0.9928791381626224  0.5370231539036713  0.8852112319926854
  0.4842144642265182  0.0063073342688014  0.3864809222572398
  0.2519744809185207  0.2584829687200520  0.3631460895487448
  0.7870516952602264  0.7657783784529382  0.8600899038725577
  0.7764264726373886  0.2438979370173173  0.6169025555351848
  0.2847602422099319  0.7196350678947002  0.1354453926966768
  0.2288916752520455  0.2776253294010944  0.6229485340829342
  0.7850623855047631  0.6573581069253620  0.1154269318117771
  0.7291991734156292  0.2507574768169197  0.3650076415743171
  0.5025710160366117  0.7565294012794803  0.5037156633056801
  0.5061007122303479  0.2383473943442625  0.9876799271240980
  0.9945345147766902  0.4968379600595234  0.4977872888242775
  0.5147114129633044  0.7439206361764040  0.7343722306423993
  0.9980643105657315  0.7211768803057860  0.2630709791892044
  0.4791657506849022  0.2645897291994281  0.7619714229850342
  0.0109496776902431  0.0266014572861770  0.9924838799511786
  0.5089108997869618  0.3062464805553795  0.4930459085570448
  0.4924653442342870  0.7393460260697678  0.0132382096166554
  0.4745397260239692  0.2374574965389066  0.2622353592950465
  0.0111523992212237  0.7236747839676025  0.7587104466902557
  0.5046496263345341  0.7326711527799590  0.2216511356479300
  0.0224127430727353  0.9698154453185782  0.2498951294336371
  0.4899590682806047  0.5052622021794867  0.7514693547897271
  0.5013085168739336  0.9880619203442719  0.7798381627708739
  0.9730856364178944  0.4552447579346056  0.2614324781472438
  0.2491722110459786  0.2163274803742781  0.0160030035085315
  0.7645475478751108  0.7332236511198120  0.5281126511170959
  0.0095612835200679  0.7212058290350675  0.4841129067897432
  0.7583072787920354  0.2574376804716876  0.9986922798827993
  0.9904520743842504  0.0574933577145890  0.7549671613401123
  0.4876896390472371  0.4944272523792492  0.2727964320213820
  0.0074476780477486  0.3533739188414630  0.7545320161501171
  0.5318643764453326  0.9869419436249521  0.2530409254900932
  0.2882518918709102  0.2522223201689364  0.5137716141574743
  0.7409504870302721  0.7708296183260182  0.9778447387369783
  0.7484886293117526  0.2399084870079648  0.5032767815036275
  0.1851497566848540  0.7262896314030669  0.0187280359833650
  0.0015724473802850  0.3251119875606305  0.9903254393144278
  0.4957782096704936  0.5265841911381782  0.4866585363099776
  0.4962116873699923  0.4763103531440885  0.0011818866879431
  0.9905143865820849  0.9838907613824505  0.5064419215205500
  0.5170515911991460  0.9833610504687048  0.9846952812746611
  0.0232227859082837  0.2205807397735164  0.4909267484835528
  0.9650730049681527  0.6186226773715106  0.0156797856856712
  0.5106628613024816  0.0046294402217155  0.5028221215915729
  0.0530022692531750  0.2217873159003670  0.2470687312370451
  0.7845470641164921  0.7784801508221102  0.7380337695086818
  0.2642905815137734  0.7330793397794763  0.2657405194494268
  0.7341399803452037  0.2903038656439667  0.7358561384509172
  0.7196117066034688  0.7284048038168912  0.2664076752991236
  0.2408680948396678  0.2948408565775808  0.7545843192946686
  0.7767721285516663  0.2158121182523458  0.2452875995490551
  0.2349677229416793  0.7864533819026798  0.7459821692002239
  0.2837784892631589  0.4745836480196713  0.1344886990354870
  0.5232712566350555  0.0277945453749763  0.6332692863981669
  0.7209180877979304  0.0217424620001392  0.8728439828954013
  0.2227517458825430  0.7707684406212391  0.3891121473938622
  0.2501190220683608  0.4777151960759050  0.8889803480838112
  0.7248729970105900  0.9614095353981994  0.3648225156380046
  0.8004488489752494  0.9301679892955330  0.1092692097810852
  0.2680553166625486  0.5247850870342139  0.6230708312181797
  0.7493463664092982  0.5219050037951883  0.8761851032244581
  0.2571008320263912  0.9987643080842290  0.3788969857195149
  0.7585198739062095  0.5344333139718873  0.6248045904421430
  0.2885643552204621  0.9776819854063410  0.1337616227408270
  0.2464509288897132  0.0018263072803259  0.6239961044822491
  0.5439675389690155  0.4768233910902738  0.1333210147007330
  0.2837485085494986  0.7378776696687447  0.8852660510231609
  0.6959683773036912  0.5182448282385332  0.3656852394613149
  0.2666168262378585  0.9725895426330032  0.2567794619471191
  0.7676585604784981  0.5241235355786122  0.7514009423968477
  0.2639172809856205  0.0278555680429974  0.7477814086006176
  0.7411394290987358  0.4744651198920545  0.2414374282996226
  0.2734052698060530  0.9695266348730742  0.0045023466772642
  0.7435043000738293  0.4665377973540294  0.4981730704000513
  0.2568820840722704  0.9966527607355716  0.5036005243890550
  0.7391691472896978  0.5145322347161702  0.9930690716510611
  0.7450153471279963  0.0259629901399343  0.7483492793687972
  0.2177246074700520  0.4763334863673355  0.2507203021849455
  0.2578187150724963  0.5343055486307625  0.7497841327857011
  0.7639621244536926  0.9746292092894240  0.2466860577556800
  0.2435254917337878  0.5184038196591609  0.4939259301613064
  0.7686655249080947  0.0229532642405020  0.9883793396020536
  0.7432499244509310  0.9981103760875969  0.4994729863908112
  0.2413478470411503  0.4824014475325339  0.0140937429346919
  0.0048126152409547  0.2349415101002504  0.3717407074099327
  0.5272487829024314  0.7543512057525096  0.8662497490282007
  0.5025547228176632  0.2871153479480573  0.6235021059582290
  0.0248307843529001  0.7166207520641825  0.1345844121308394
  0.0016556027240094  0.2668744111664413  0.8785825148602111
  0.4959183597025609  0.7405723475263742  0.3774600581329694
  0.0059244424697840  0.7660932633068249  0.6217582847085565
  0.5141093621172386  0.2346722818714833  0.1209915506038099
  0.1644934692757100  0.3634118574908268  0.0670488380567834
  0.6367379038338943  0.9024685439170531  0.5555810337270208
  0.6659958549348268  0.1376130483543486  0.9446936681478275
  0.1233624103248399  0.5955935696958379  0.4346376289287940
  0.3517339007059137  0.3732265814178037  0.9516359996067530
  0.8449555286504705  0.8681256059435563  0.4606895708017703
  0.8697653883245453  0.1238714256818646  0.0456010371988947
  0.3355619717664132  0.6457840999235348  0.5405600635051351
  0.8755830901530900  0.0692843897971700  0.1948110318788273
  0.3689671503586738  0.6140094486852001  0.6953101308069364
  0.8637556950934772  0.8732719639031979  0.3038461521450856
  0.3506159766563213  0.4384728313753775  0.8061734218584716
  0.1271127036642681  0.5882563381401543  0.3080601146467273
  0.6424838207647176  0.1250155602995716  0.7945347871676551
  0.1314178684302785  0.3720040713759578  0.1980032203198989
  0.6480823723645005  0.9132001409195073  0.7013505671656458
  0.8375914344731112  0.6337302562698286  0.9426678238538837
  0.3508415147862961  0.1177797902814913  0.4479012434008471
  0.8482343852950666  0.3797076355279021  0.5529694192653758
  0.3746501302950618  0.8762717079126634  0.0574567433074790
  0.1517110535221957  0.1144322480474483  0.5523814487647944
  0.6332312416181209  0.6103462497904056  0.0482197078925609
  0.1794844362834775  0.8733991271486723  0.9493753991734485
  0.6437703350967400  0.3831709080233071  0.4454114842645742
  0.6412898197788238  0.3685188867324380  0.2861522191204082
  0.1477825258868363  0.9375400073431988  0.8054062881282660
  0.1449523164941197  0.1203415855824999  0.6978513671545661
  0.6273082395939170  0.5861925091995410  0.2017470731632459
  0.8575010836144638  0.4205461198502125  0.6931619785217324
  0.3787829542505561  0.8809271425429893  0.2055639138968181
  0.3647550313761346  0.0785876476172698  0.3051538125888468
  0.8732646977663240  0.6129451547999802  0.8036928877768387
  0.1603602150762405  0.0601200677498677  0.0609205084175782
  0.6505344581961425  0.5888227176081162  0.5446964165138596
  0.6367821034508475  0.4150950743074784  0.9451915510670782
  0.1439822374531298  0.9085946620837670  0.4471318220068483
  0.3555635985040571  0.0891897831752464  0.9588706478787854
  0.8406504994059393  0.5627616893087669  0.4415097139606924
  0.8704628584398234  0.4412109292677380  0.0409512225118023
  0.3731797724925910  0.9362244043462727  0.5558162811523838
  0.1692157970343846  0.0620426084686250  0.1992859384071393
  0.6703577865803148  0.6245737222289439  0.6909973473085318
  0.1550808972401218  0.8695409920642270  0.3079340940718065
  0.6648201730287129  0.4185743440061358  0.8015220954078005
  0.8360195876241499  0.5704738878863034  0.3046545808685152
  0.3553108856526616  0.1316971476991346  0.8016164054032621
  0.8508313582350916  0.3647126852069490  0.1963244781724313
  0.3643192429431279  0.9130719235416461  0.7012089934443836
  0.8632811373506663  0.9384671536825636  0.9286568176850262
  0.3385977796665398  0.4065630288938288  0.4470480179242283
  0.8442984769420327  0.0873459950801231  0.5525650191228326
  0.3633222763878847  0.5892112065325451  0.0545891730380318
  0.1358891709167403  0.4325478167875443  0.5507028226273244
  0.6645911585678168  0.9133779427559207  0.0342873162107957
  0.1288782557107405  0.5577970255688836  0.9597761604838458
  0.6456663298471997  0.1001467538744084  0.4460044823226640
  0.3343468840880534  0.3793964678861110  0.3011652720467090
  0.8530944204168179  0.9301109163654402  0.8040333280381912
  0.8458393137911570  0.1387222481842937  0.6958216199494029
  0.3416987129356546  0.5891807430700831  0.2110878221549377
  0.1503508528765879  0.4343390328069779  0.6981562051596252
  0.6699977608793980  0.8731666199809982  0.1926776490116865
  0.6636295118633171  0.0890461118697067  0.2967006126031770
  0.1820542685803359  0.6410507409703068  0.8080249434436708
  0.0894203595007322  0.1366674620770711  0.3316434465401283
  0.6059678906552322  0.6742761293043966  0.8125298382095726
  0.5856719454245448  0.3775543799792440  0.6644935949128512
  0.1199478736515247  0.8099785895337168  0.1723518111601023
  0.4148157307979829  0.2024821836893856  0.6694340076923859
  0.9245531739135645  0.6560451606099175  0.1832063893666612
  0.9121704748696662  0.3066428381971856  0.3231528129680614
  0.4267728407848579  0.8357625979803713  0.8299991504728869
  0.0675993975253981  0.1820900004465092  0.9295811405752381
  0.5851867995855249  0.6561813764792916  0.4223239193497100
  0.0801271101002830  0.8668296845213818  0.5761805052156254
  0.5829268246901044  0.3232148547148408  0.0682208929385559
  0.9345772371066556  0.6692072541416213  0.5730174572673200
  0.4180013266852258  0.1411293023600513  0.0811627073789985
  0.9065016523435679  0.3685418890612637  0.9146989306720154
  0.4130773190305900  0.8368160065652019  0.4203452369104481
  0.9109395161163027  0.8426571148467035  0.6715324747081209
  0.4298465352186673  0.3291070569143285  0.1646545380872184
  0.9203782508889894  0.1978933557684319  0.8254049629435850
  0.4192744071766853  0.6709779516250831  0.3215074719043236
  0.1225781558236647  0.3295145646903504  0.8448182523633058
  0.5882664677271622  0.8380440529940456  0.3352395528421561
  0.0917445851999864  0.6716540640066562  0.6695387912282973
  0.6119736625656619  0.1464233762075886  0.1619624959116940
  0.4043374578268815  0.3782738971631640  0.5825533588867280
  0.9477599599530105  0.7890364112504434  0.0823174562909774
  0.9223741124883827  0.1520189443250862  0.4240855008904558
  0.4559721330816116  0.6658835019255054  0.9161375016259747
  0.0935245273707047  0.3347895057313455  0.4055737536983234
  0.6162172822815699  0.8419894469375298  0.9094057279569953
  0.5860607493866983  0.2058186146017420  0.5761344941349533
  0.1117170424292381  0.6115202953261557  0.1066713332404472
 
 -0.48086773E-03  0.83363960E-02 -0.28002528E-02
 -0.13901096E-02  0.84247590E-02  0.66996202E-03
 -0.17810667E-02  0.51726567E-02  0.40082597E-02
 -0.16592736E-03  0.11289996E-02  0.21887287E-02
  0.44547273E-02 -0.57804234E-03 -0.39886656E-04
 -0.38079058E-02 -0.18846413E-02  0.30430175E-02
 -0.86448135E-03 -0.78033913E-03 -0.39709448E-02
  0.48334600E-03  0.30238641E-02 -0.27496510E-02
  0.49602898E-02 -0.39687864E-02 -0.29344736E-02
 -0.70257069E-03  0.11256740E-02  0.88044269E-02
 -0.78463793E-03  0.20125512E-02  0.28061574E-03
  0.24346722E-02  0.24469860E-02 -0.11829734E-02
 -0.65617309E-02 -0.32655494E-02  0.37381571E-02
 -0.39619721E-02  0.42032420E-02  0.19359524E-02
  0.47345973E-02 -0.42623474E-02 -0.44462915E-02
 -0.68033744E-02 -0.73943876E-03 -0.31432643E-02
 -0.34103488E-02  0.15361620E-03  0.12440843E-02
  0.23459871E-02 -0.17539741E-02 -0.35890324E-02
 -0.11026355E-02  0.57029225E-02 -0.15203782E-02
 -0.21103894E-02  0.19744633E-02  0.10880677E-03
  0.12229320E-02  0.37917967E-02  0.18254273E-02
  0.45889793E-02 -0.14026427E-02 -0.95820101E-03
  0.55149433E-02  0.33917663E-02  0.28885296E-02
  0.75853897E-02 -0.35592053E-02 -0.14792197E-02
 -0.54824432E-02 -0.69642457E-02  0.33309928E-02
 -0.24563746E-02 -0.34140386E-02 -0.53478320E-02
  0.14140093E-02 -0.44361011E-02  0.35868251E-02
  0.29164240E-02 -0.71397293E-02  0.15781424E-02
  0.89849471E-02  0.56785295E-02  0.25819744E-02
 -0.34145263E-02  0.11413634E-02 -0.39812029E-02
  0.80377954E-03  0.88191415E-02 -0.38548633E-03
  0.31122838E-02 -0.33617057E-02 -0.69545401E-03
  0.24668940E-02  0.28638991E-02  0.15556831E-02
 -0.10085551E-02  0.21048555E-02 -0.10064901E-03
  0.16177419E-02 -0.66833044E-03  0.16953881E-02
  0.60852473E-02 -0.79419465E-02  0.84956562E-03
 -0.34914592E-02  0.68523183E-02  0.45849116E-02
 -0.45535298E-02 -0.73618156E-03 -0.18469796E-02
  0.37787697E-02 -0.76202562E-02  0.33014932E-03
  0.12900348E-02  0.33663441E-02  0.30896126E-02
 -0.77836467E-03 -0.51510996E-04 -0.44094705E-02
  0.14658824E-02  0.13557271E-02  0.85125523E-04
 -0.56962416E-02  0.50354609E-02 -0.35966089E-02
  0.34804340E-02  0.20617638E-02  0.22044481E-02
  0.62874024E-02  0.54778897E-02  0.27441102E-02
 -0.47857701E-02 -0.89865847E-02  0.10140883E-01
 -0.20522680E-02 -0.49951836E-02  0.45974328E-02
 -0.17814091E-03 -0.39038441E-02 -0.58503553E-02
  0.22195719E-02 -0.30666744E-02  0.46832841E-02
  0.79347704E-03  0.40293096E-03 -0.17447377E-02
  0.30116009E-02  0.41494877E-02 -0.22229605E-02
  0.47992283E-03  0.41617774E-03 -0.44296041E-04
 -0.10527682E-01  0.35737922E-02  0.34806173E-02
 -0.67498267E-02 -0.55333823E-02 -0.45254814E-02
 -0.17396483E-02  0.28102424E-02 -0.14920675E-02
  0.14663193E-02 -0.20826057E-02  0.32774486E-02
 -0.99089425E-03 -0.10607019E-02 -0.58339771E-02
  0.64989198E-02 -0.15678359E-02  0.62294628E-02
  0.81793767E-03 -0.36151007E-02  0.32917248E-02
  0.29208317E-02  0.19835405E-02 -0.56560962E-02
 -0.10389759E-02  0.41882463E-02 -0.34970618E-02
 -0.10688351E-02 -0.33309049E-03 -0.27068298E-02
  0.42418140E-02 -0.38898946E-02  0.31597610E-03
 -0.19692220E-02 -0.13140114E-02 -0.47740731E-02
  0.60671765E-03  0.56321215E-03  0.41910337E-02
  0.48382640E-02  0.36104749E-02 -0.41676989E-03
  0.95063876E-03 -0.69874095E-03  0.74570116E-02
  0.10614190E-01  0.61341842E-03 -0.18414516E-02
  0.28632047E-02 -0.52687838E-02 -0.10551659E-02
 -0.39146080E-02  0.99103213E-03 -0.41840307E-03
 -0.33828442E-02 -0.68605506E-02  0.53581646E-02
  0.78472193E-02 -0.36448823E-02 -0.57848022E-02
  0.47617257E-02  0.46969093E-03 -0.15214933E-02
  0.16872740E-02  0.50794529E-03 -0.62666813E-02
 -0.92577673E-03 -0.74909559E-03 -0.23172283E-03
 -0.27078456E-02 -0.99560345E-02 -0.30926834E-02
 -0.95937262E-02  0.44825257E-02 -0.18708938E-02
 -0.55712987E-02  0.39709526E-02 -0.62061575E-03
  0.90635973E-03 -0.34087204E-02  0.48549951E-03
  0.17069935E-02  0.10622580E-02 -0.44396721E-03
  0.16128383E-03  0.64102172E-02 -0.60913744E-03
  0.20466191E-02 -0.13145577E-03  0.95603106E-02
 -0.18873325E-02  0.13498247E-04  0.24481135E-02
  0.12589982E-02  0.22072696E-02  0.28694655E-02
 -0.58562915E-02  0.87564845E-02 -0.64404667E-02
 -0.60497896E-02 -0.37913184E-02 -0.24197052E-03
 -0.46755311E-02  0.56586781E-03  0.71721479E-02
 -0.17357025E-02  0.16934974E-02  0.34388813E-02
  0.23717800E-02 -0.11368741E-02  0.83587295E-04
 -0.26778199E-03  0.67773978E-03  0.23421263E-02
  0.90591978E-03  0.38241603E-02  0.49700432E-03
 -0.78275441E-03 -0.34666075E-02 -0.39909160E-02
  0.13328998E-02  0.39776539E-02  0.42552004E-03
  0.30951924E-02  0.14551259E-02  0.49433258E-03
  0.11195777E-02  0.20478578E-04 -0.24560091E-03
 -0.21882693E-03  0.10489051E-02 -0.89447862E-04
  0.84121733E-03  0.26650230E-02 -0.41851082E-03
 -0.28681227E-02  0.23165454E-03  0.10975330E-02
 -0.12012226E-02 -0.14513043E-02  0.32387750E-02
 -0.45472559E-03  0.84694407E-03  0.20061487E-02
  0.13116999E-02  0.88575327E-03  0.13952616E-02
 -0.22684596E-02  0.89190777E-03 -0.19215772E-02
  0.11909846E-02  0.93008511E-03  0.12541546E-02
 -0.20770642E-02 -0.29747934E-03  0.23634256E-02
 -0.45126890E-02 -0.24795854E-02 -0.63393788E-02
  0.10633740E-02 -0.24464386E-02 -0.45513872E-02
 -0.19893453E-03 -0.66995381E-02 -0.56935552E-02
 -0.73101235E-03 -0.11144240E-02  0.16815635E-02
 -0.16568255E-02 -0.42415598E-02  0.53249193E-03
 -0.18649301E-03  0.37496764E-02  0.11777173E-02
 -0.22940183E-02  0.29663392E-02  0.27372370E-02
 -0.41347929E-03  0.23860535E-02  0.15731780E-02
  0.31738269E-02  0.79650886E-02  0.49273448E-02
 -0.10274137E-02  0.30359426E-03 -0.25667811E-03
 -0.31292197E-02  0.20601463E-02 -0.40911902E-02
  0.57357965E-02 -0.17098426E-02 -0.10775399E-02
 -0.90629900E-02  0.16682168E-02  0.11546858E-02
  0.34832627E-03  0.15155036E-02 -0.43967844E-02
 -0.41120457E-02 -0.73714042E-02  0.27983287E-02
 -0.44523534E-02  0.43433910E-03  0.68554270E-02
 -0.79263246E-03 -0.48603863E-02 -0.55592346E-02
  0.25660383E-02  0.87979844E-02 -0.37249855E-02
  0.21462097E-02 -0.83129533E-03 -0.47433302E-03
  0.26388255E-02  0.18533177E-02 -0.10338015E-03
 -0.29747223E-02  0.22118912E-02  0.16801263E-02
 -0.60652140E-02  0.37706840E-02 -0.60319509E-03
  0.39637246E-02 -0.19080766E-02 -0.11185446E-02
 -0.96554050E-03  0.18548163E-02 -0.10776442E-02
  0.97644275E-03 -0.48262094E-02 -0.35392457E-02
  0.98164572E-02 -0.48011484E-02 -0.32210840E-03
 -0.27942089E-02  0.69965507E-02 -0.47176908E-02
  0.16313765E-02 -0.50831842E-02 -0.20153810E-02
 -0.98229595E-03  0.12916510E-02 -0.47478879E-02
  0.15763732E-02 -0.22110281E-02 -0.11202954E-02
 -0.45994129E-02  0.65825666E-02  0.31726785E-03
  0.50709406E-02  0.22534909E-02  0.18385994E-02
  0.48902924E-02 -0.28567633E-02  0.76638243E-03
  0.37040361E-02  0.93652810E-03 -0.64894996E-02
 -0.65878818E-03 -0.30662769E-02  0.34154689E-02
  0.22027148E-02 -0.19455937E-02  0.13670224E-02
  0.44488484E-02 -0.16439352E-02 -0.12039815E-02
 -0.92307405E-03  0.45925975E-03 -0.21027559E-02
 -0.32347479E-02 -0.27150282E-02 -0.54690786E-03
 -0.52868947E-02  0.31777139E-02  0.16689173E-02
 -0.13188312E-02 -0.96737877E-02 -0.33137799E-02
  0.45308987E-02 -0.32791055E-02 -0.32626147E-02
 -0.36510940E-02  0.15047949E-02 -0.17930212E-02
  0.88896899E-03  0.40571640E-02  0.34579761E-02
 -0.49520818E-02 -0.39945247E-02  0.10015869E-02
 -0.23653681E-02  0.13510699E-02 -0.35001238E-03
 -0.63018144E-03 -0.15895577E-03 -0.29344909E-03
 -0.66942521E-02 -0.60176032E-03 -0.22209531E-02
 -0.10102270E-02 -0.11534380E-02 -0.15319258E-02
  0.23110938E-02  0.52646020E-02  0.67754324E-02
 -0.16918370E-02  0.30542892E-03  0.17727712E-02
  0.13036255E-03 -0.23763614E-02  0.47265647E-02
 -0.61710106E-03 -0.11024011E-02  0.12528068E-02
  0.41396697E-02  0.58396419E-02 -0.10742578E-02
 -0.62595324E-02 -0.32425647E-02 -0.13860371E-02
 -0.28127829E-02 -0.24350833E-02  0.45836277E-03
 -0.93802061E-03 -0.67221277E-02  0.37631175E-03
  0.18712884E-02  0.57245021E-02 -0.11111444E-02
  0.36304342E-02 -0.24422945E-02 -0.39435284E-02
  0.14584148E-02 -0.37396174E-02 -0.56326957E-02
  0.82425248E-04 -0.34256472E-02  0.50757545E-02
  0.39399260E-02 -0.21976171E-02 -0.17631005E-02
  0.48759758E-02 -0.48441015E-03 -0.63203750E-02
 -0.12075000E-03 -0.85938631E-03  0.11153933E-02
  0.13012296E-02 -0.26684938E-02  0.20619947E-02
  0.12886358E-02  0.11011140E-02  0.20406675E-02
 -0.58240028E-03  0.14638841E-02  0.24159619E-03
  0.32423165E-02  0.29933877E-02  0.23711748E-03
 -0.18809438E-02 -0.23083047E-02 -0.68604235E-02
 -0.33657520E-02 -0.59465661E-03 -0.51180166E-02
 -0.87617261E-03 -0.18497361E-02  0.73600489E-03
  0.53031089E-02 -0.36439748E-02 -0.19200711E-02
 -0.32862125E-04 -0.30546994E-02  0.49622168E-03
  0.42289587E-02 -0.46260276E-02  0.25464051E-02
 -0.12572361E-02  0.80469915E-03  0.49909835E-03
 -0.10478224E-02 -0.24969339E-02  0.26449993E-02
 -0.18324071E-02  0.57717930E-02 -0.34899721E-02
 -0.39208930E-02  0.13305719E-02  0.66077774E-03
 -0.58839128E-02  0.14211392E-03  0.48940028E-02
 -0.29206678E-02 -0.29553523E-02 -0.54810391E-02
 -0.20515252E-02  0.27094818E-02 -0.14039804E-02
  0.30497856E-02  0.70319766E-02 -0.32014453E-02
  0.21092540E-02 -0.53750960E-02  0.26405112E-02
 -0.61922254E-03 -0.16201455E-03 -0.20457137E-02
 -0.46330175E-04  0.12074323E-02 -0.12652705E-02
  0.93176056E-03 -0.19782929E-02  0.35235349E-02
  0.22440734E-02 -0.11966537E-02 -0.20025148E-02
 -0.11312201E-03  0.17186277E-03  0.39193974E-02
  0.19685668E-02  0.28560539E-02 -0.42127551E-03
 -0.41940554E-02 -0.30348129E-02  0.12334066E-04
  0.18614180E-02 -0.28905144E-02 -0.54493516E-02
  0.23090663E-02 -0.21539743E-02 -0.15807409E-02
  0.10920331E-02 -0.46461837E-02 -0.42388162E-02
  0.53540951E-02 -0.74630609E-03 -0.25317050E-02
  0.27952207E-02  0.29963233E-02 -0.13559795E-02
  0.93219394E-03  0.35525542E-02 -0.24629912E-02
 -0.53855566E-02  0.14732397E-02  0.49773934E-02
  0.46558141E-02 -0.35407706E-02 -0.14925906E-02
 -0.51833600E-02 -0.19804618E-02  0.63574689E-02
 -0.13086066E-02 -0.18405378E-02  0.49393005E-02
 -0.16814504E-02 -0.14085329E-02 -0.27971041E-02
 -0.11897329E-02 -0.64495028E-02  0.16875217E-02
  0.18209990E-03  0.55013462E-02  0.19430271E-02
 -0.16652229E-02 -0.44167565E-02  0.15082753E-02
 
           1
   2.00000000000000     
  0.11224885E+01  0.35016035E-02  0.00000000E+00  0.00000000E+00
  0.49258906E-01  0.99210499E+00  0.12891256E+00
  0.50565241E+00  0.54420656E+00  0.62436977E+00
  0.48835546E+00  0.50446582E+00  0.88002126E+00
  0.98999501E+00  0.98587044E+00  0.37177124E+00
  0.29653868E+00  0.97667901E+00  0.87272316E+00
  0.98719295E+00  0.49084923E+00  0.37418762E+00
  0.98098349E+00  0.43853726E+00  0.12195171E+00
  0.24405274E+00  0.22255453E+00  0.15175572E+00
  0.77583960E+00  0.94391002E+00  0.62689331E+00
  0.75438313E+00  0.26109252E+00  0.86774288E+00
  0.76074319E+00  0.74079542E+00  0.39183403E+00
  0.27887754E+00  0.23228057E+00  0.88524567E+00
  0.77260245E+00  0.22867457E+00  0.11829494E+00
  0.25709260E+00  0.78441466E+00  0.61858246E+00
  0.29400187E-01  0.27069359E-01  0.86355972E+00
  0.25959576E+00  0.49632506E+00  0.37125766E+00
  0.99307202E+00  0.20717105E-01  0.63669411E+00
  0.27212079E-01  0.50310611E+00  0.62560500E+00
  0.53934707E+00  0.99225841E+00  0.11477139E+00
  0.99256605E+00  0.53731607E+00  0.88521930E+00
  0.48439589E+00  0.68698598E-02  0.38661633E+00
  0.25265527E+00  0.25827488E+00  0.36307501E+00
  0.78786986E+00  0.76628156E+00  0.86030417E+00
  0.77755179E+00  0.24336992E+00  0.61679283E+00
  0.28394690E+00  0.71860190E+00  0.13569247E+00
  0.22852726E+00  0.27711885E+00  0.62255185E+00
  0.78527216E+00  0.65670000E+00  0.11569299E+00
  0.72963183E+00  0.24969827E+00  0.36512470E+00
  0.50390396E+00  0.75737183E+00  0.50390719E+00
  0.50559416E+00  0.23851672E+00  0.98738461E+00
  0.99465376E+00  0.49814631E+00  0.49775869E+00
  0.51517313E+00  0.74342192E+00  0.73432064E+00
  0.99843028E+00  0.72160175E+00  0.26318637E+00
  0.47901613E+00  0.26490199E+00  0.76196396E+00
  0.11189675E-01  0.26502308E-01  0.99260964E+00
  0.50981367E+00  0.30506827E+00  0.49310893E+00
  0.49194737E+00  0.74036259E+00  0.13578303E-01
  0.47386419E+00  0.23734828E+00  0.26209836E+00
  0.11712992E-01  0.72254429E+00  0.75873494E+00
  0.50484101E+00  0.73317056E+00  0.22188031E+00
  0.22297270E-01  0.96980780E+00  0.24956805E+00
  0.49017654E+00  0.50546333E+00  0.75147567E+00
  0.50046346E+00  0.98880895E+00  0.77957138E+00
  0.97360197E+00  0.45555063E+00  0.26159600E+00
  0.25010497E+00  0.21714014E+00  0.16206552E-01
  0.76383756E+00  0.73189046E+00  0.52886487E+00
  0.92568228E-02  0.72046478E+00  0.48445393E+00
  0.75828085E+00  0.25685853E+00  0.99825832E+00
  0.99078136E+00  0.57038406E-01  0.75531455E+00
  0.48780735E+00  0.49448703E+00  0.27266701E+00
  0.78944589E-02  0.35398951E+00  0.75436712E+00
  0.53193557E+00  0.98700368E+00  0.25303764E+00
  0.28669008E+00  0.25275250E+00  0.51402979E+00
  0.73994913E+00  0.77000872E+00  0.97750905E+00
  0.74823055E+00  0.24032540E+00  0.50316610E+00
  0.18536729E+00  0.72598067E+00  0.18971146E-01
  0.14254450E-02  0.32495463E+00  0.98989269E+00
  0.49674235E+00  0.52635160E+00  0.48712062E+00
  0.49633303E+00  0.47577404E+00  0.14260558E-02
  0.99094770E+00  0.98418503E+00  0.50602237E+00
  0.51689746E+00  0.98398239E+00  0.98443588E+00
  0.23064221E-01  0.22053132E+00  0.49072596E+00
  0.96570229E+00  0.61804560E+00  0.15703224E-01
  0.51037072E+00  0.44345023E-02  0.50246800E+00
  0.53092278E-01  0.22187087E+00  0.24737961E+00
  0.78526484E+00  0.77901578E+00  0.73800285E+00
  0.26443161E+00  0.73297568E+00  0.26629366E+00
  0.73571463E+00  0.29039487E+00  0.73571955E+00
  0.72003647E+00  0.72762316E+00  0.26632941E+00
  0.24028735E+00  0.29498788E+00  0.75455328E+00
  0.77627027E+00  0.21479433E+00  0.24568505E+00
  0.23613188E+00  0.78591265E+00  0.74555307E+00
  0.28448491E+00  0.47465333E+00  0.13437584E+00
  0.52352157E+00  0.27869901E-01  0.63280445E+00
  0.72078075E+00  0.21631331E-01  0.87282679E+00
  0.22235003E+00  0.76929143E+00  0.38888274E+00
  0.24869576E+00  0.47838019E+00  0.88884157E+00
  0.72404648E+00  0.96199864E+00  0.36477648E+00
  0.80058331E+00  0.92966229E+00  0.10930522E+00
  0.26830855E+00  0.52494268E+00  0.62303790E+00
  0.74937029E+00  0.52285598E+00  0.87613992E+00
  0.25740445E+00  0.99874481E+00  0.37960614E+00
  0.75823988E+00  0.53443532E+00  0.62498618E+00
  0.28875113E+00  0.97800944E+00  0.13397447E+00
  0.24558213E+00  0.31253605E-02  0.62351837E+00
  0.54307003E+00  0.47626094E+00  0.13330307E+00
  0.28305488E+00  0.73796162E+00  0.88579806E+00
  0.69571088E+00  0.51849606E+00  0.36594032E+00
  0.26696869E+00  0.97242088E+00  0.25678566E+00
  0.76761883E+00  0.52422408E+00  0.75157467E+00
  0.26405168E+00  0.28422895E-01  0.74781827E+00
  0.74102330E+00  0.47395084E+00  0.24114140E+00
  0.27360301E+00  0.97011673E+00  0.45339103E-02
  0.74396348E+00  0.46675367E+00  0.49820974E+00
  0.25704818E+00  0.99665580E+00  0.50358231E+00
  0.73913668E+00  0.51468784E+00  0.99306244E+00
  0.74514014E+00  0.26358355E-01  0.74831824E+00
  0.21729911E+00  0.47636785E+00  0.25080171E+00
  0.25764051E+00  0.53409024E+00  0.75002437E+00
  0.76389466E+00  0.97475486E+00  0.24683487E+00
  0.24372009E+00  0.51853522E+00  0.49402943E+00
  0.76832899E+00  0.23085582E-01  0.98823680E+00
  0.74342661E+00  0.99824836E+00  0.49956602E+00
  0.24103971E+00  0.48235732E+00  0.14269054E-01
  0.41431430E-02  0.23457366E+00  0.37127047E+00
  0.52740654E+00  0.75398827E+00  0.86591214E+00
  0.50252521E+00  0.28612145E+00  0.62307978E+00
  0.24722336E-01  0.71645542E+00  0.13470914E+00
  0.14098072E-02  0.26624516E+00  0.87862201E+00
  0.49589069E+00  0.74112862E+00  0.37754742E+00
  0.55841173E-02  0.76653333E+00  0.62196132E+00
  0.51404802E+00  0.23502626E+00  0.12110824E+00
  0.16496432E+00  0.36459350E+00  0.67414332E-01
  0.63658548E+00  0.90251358E+00  0.55556199E+00
  0.66553162E+00  0.13791868E+00  0.94439020E+00
  0.12421333E+00  0.59533991E+00  0.43455770E+00
  0.35038938E+00  0.37347407E+00  0.95172165E+00
  0.84500720E+00  0.86835044E+00  0.46036343E+00
  0.86915535E+00  0.12277785E+00  0.45808608E-01
  0.33490145E+00  0.64584854E+00  0.54106858E+00
  0.87546550E+00  0.68563336E-01  0.19439867E+00
  0.36934783E+00  0.61531466E+00  0.69503382E+00
  0.86407409E+00  0.87314864E+00  0.30381097E+00
  0.35100746E+00  0.43874778E+00  0.80616575E+00
  0.12667139E+00  0.58858448E+00  0.30818474E+00
  0.64158403E+00  0.12557495E+00  0.79449004E+00
  0.13200590E+00  0.37172100E+00  0.19792025E+00
  0.64793913E+00  0.91347531E+00  0.70127063E+00
  0.83773629E+00  0.63301427E+00  0.94240529E+00
  0.35229782E+00  0.11706752E+00  0.44787735E+00
  0.84781986E+00  0.38074560E+00  0.55261948E+00
  0.37489215E+00  0.87551760E+00  0.57307249E-01
  0.15156533E+00  0.11462387E+00  0.55202927E+00
  0.63346510E+00  0.61001824E+00  0.48136608E-01
  0.17880210E+00  0.87437567E+00  0.94939893E+00
  0.64452263E+00  0.38350522E+00  0.44554787E+00