Na88 Sn16 P8 S96                        
   1.00000000000000     
    13.4813327813000008    0.0000000000000000    0.0000000000000000
     0.0000000000000000   13.4813327813000008    0.0000000000000000
     0.0000000000000000    0.0000000000000000   26.9626655626000016
   Na   Sn   P    S 
    88    16     8    96
Direct
  0.0374293396529885  0.9650269453142339  0.1388396195058713
  0.5101413441199411  0.5382729282501826  0.6300794593019453
  0.5266584908229591  0.4865149547693716  0.7475184822655477
  0.7872783788051154  0.0158467575259036  0.3823145865790207
  0.0002338573421354  0.0091820046580672  0.8764747134952440
  0.0060911874326530  0.5342153047841383  0.2247384394048643
  0.0270410890529992  0.4537118511058174  0.1137473113123885
  0.2680304457463112  0.2492782026165563  0.1066460464173178
  0.7517358325073905  0.9631334719407599  0.6381763052248350
  0.7537175294507167  0.2645544118166997  0.9951163169771036
  0.7643220931019705  0.4693665641821143  0.3784931997321678
  0.2751605105017488  0.2566445557112647  0.8681517237021302
  0.7423282160634962  0.0156851515147555  0.1245240040736237
  0.2527416526690021  0.7607990441299547  0.4861272118637255
  0.9981093218749659  0.0191092484961531  0.7612642823038649
  0.0216519050267545  0.5292681941140746  0.3669409696512700
  0.9941749434766608  0.9964980656550508  0.6358871787022645
  0.2270110938900554  0.4891773938737409  0.6258764417878752
  0.2709844523868216  0.0231557416326678  0.1259958078956230
  0.3067284639342661  0.5080086933758611  0.8653847226019976
  0.4720775252179134  0.0008493155026032  0.3802731255231883
  0.2679265422484743  0.2905789334185268  0.3664361565855758
  0.7873317937222591  0.7214466557819987  0.8711236707889316
  0.9915639702380109  0.4686400009981881  0.6098962160904640
  0.2476163727986482  0.7406152697740447  0.0123783752700795
  0.2141722690486187  0.2540393989989173  0.6242883689091273
  0.7576002969826451  0.4980781814440357  0.1238716576060048
  0.7020647751826048  0.2179066533551742  0.3867096167107636
  0.4907854262425533  0.4977959135761593  0.5007784136938765
  0.4856574731820382  0.2461416114899101  0.0057210866777260
  0.9792328817838761  0.4302601419732144  0.4842662089655652
  0.5163471368147106  0.9624261456793229  0.8046673625052863
  0.9776649319036783  0.7704286850141697  0.2567225053298512
  0.5231701655993977  0.2283138575834495  0.7631913873146917
  0.9959639476885968  0.0735565712374647  0.9906763942177667
  0.7295944877002141  0.2145068870215766  0.5127223773602768
  0.4918256966452892  0.9807595499603132  0.9838103693389421
  0.5146810751670627  0.2411217496791647  0.2451392582597608
  0.0984945096632078  0.7507293521028735  0.7598971596058125
  0.5025967331571709  0.5563918303895038  0.2577389204797105
  0.0262604425826305  0.0183866910351467  0.2771503303923469
  0.4795649095580409  0.7321798959939946  0.7406459971995418
  0.7284549866242549  0.0129626159512507  0.8872420149175178
  0.0204658040589503  0.2593430253331091  0.2184450074686085
  0.2334690238092345  0.2443272813233551  0.9792844006852326
  0.5111225705244419  0.7393666276511260  0.5085511560441716
  0.9277641523770700  0.7312429054476987  0.5066947719955721
  0.8003735617027539  0.2524934208304489  0.1285999901508948
  0.8166639007918158  0.2628942516872412  0.7566149982230084
  0.4940152764244130  0.5251244212666963  0.1291950925448275
  0.0312869051004239  0.4849132341120468  0.7479915035518016
  0.5196924283835885  0.9707181064179766  0.2570953342166544
  0.2497371836104068  0.2810203519634603  0.4909529253987028
  0.7500202909162048  0.7716175528168618  0.9961879970644131
  0.7380992000088741  0.4483402773993276  0.6263957912740522
  0.0190498153221833  0.7220875723512402  0.9959729955329416
  0.0197942359245844  0.4461963730681496  0.9861049502102458
  0.5044118585296585  0.2493425400244173  0.4916915217384751
  0.5138913228127989  0.7445790709163852  0.0266316297740653
  0.9862109468608473  0.9727711587173635  0.5220266468057136
  0.5265781165582691  0.9776480781610754  0.1163790214665954
  0.9888871448936467  0.2192938201909657  0.5224717774980304
  0.0508143553166522  0.4962187912102502  0.8591815595093565
  0.4846474591156555  0.0535939725887185  0.5213308681387451
  0.2666765818641169  0.2641236780995890  0.2324837787117565
  0.7718400939303681  0.7333332603009540  0.7609649770151289
  0.2868986530495392  0.7596202594022899  0.2546802189690976
  0.7673418778204896  0.2190241818841572  0.6489972613289113
  0.7128024153178056  0.7538122694360780  0.2504832475577670
  0.2485022808855748  0.2259292110595529  0.7454482071138807
  0.7526932420553540  0.2390275212186111  0.2694790158205563
  0.2532545198952399  0.7718002764092394  0.8519900701709376
  0.2431604768371050  0.5249899867341434  0.1247619315888352
  0.4972170914091094  0.9639599697460757  0.6314590708385321
  0.7799539563668565  0.2481622667359050  0.8836831086215798
  0.2828293580347412  0.5811735009311608  0.3698203496760328
  0.5359937199505181  0.4437109406389445  0.8725298567786992
  0.7819415022207210  0.7474615052221422  0.3899524227450709
  0.7320110860339260  0.7775994819518652  0.1228467268232325
  0.2536654290318608  0.7595159571675980  0.6290452778328044
  0.7608952467458328  0.4966221211207492  0.8714865609497415
  0.1798547801712687  0.0234139010235525  0.3829221426139925
  0.7461181804269825  0.7172590164178603  0.6247899669518691
  0.2811644139372230  0.7663509622734099  0.1299080499423836
  0.2398287539111998  0.9928025572262292  0.6327599054061905
  0.5173118410426881  0.5019131106663406  0.9954217951644362
  0.2704813091029497  0.9996392871305247  0.8857509610568792
  0.5063509593766110  0.5012900568189175  0.3816266797395266
  0.2751763953871567  0.0216341172935509  0.2533729065102377
  0.7681262606553959  0.4878460293729216  0.7465089560116672
  0.2454338156524368  0.9901361086175385  0.7479830285355787
  0.7391559786925167  0.4922287250268278  0.2481549366852580
  0.2532310051912143  0.9912286810428421  0.0028330057447853
  0.7505779203272034  0.4880476547820049  0.4967772331160801
  0.2267762903248364  0.0084863696809427  0.5016395180721355
  0.7614953185230111  0.5123088446739117  0.0037573152391629
  0.7329407210607221  0.0089916282455216  0.7616348251696975
  0.2530220826791521  0.5316970560040307  0.2372098701471930
  0.2808983429509224  0.4896643575144276  0.7478873600201227
  0.7618241343315114  0.9919573804804334  0.2570594914728807
  0.2248130838120595  0.5195018555310049  0.5029118042831199
  0.7525123446785230  0.0176932712421995  0.0037778579530772
  0.7256833600359544  0.9815557279440102  0.5107418454184726
  0.2782578535708851  0.4814271152988464  0.0082546164686640
  0.9964816246030943  0.2383434087603105  0.3708823903078700
  0.5301756538000835  0.7270525343862855  0.8722040430727129
  0.4923651936895646  0.2682364840611952  0.6244026006632147
  0.0199190400026154  0.7347872149730399  0.1235631938545148
  0.0354416346797537  0.2407631484082477  0.8711634805927435
  0.4957769195114378  0.7498391321456782  0.3733488231816982
  0.0042640737986977  0.7301214684843462  0.6327464904452046
  0.5094871755592133  0.2551144596637820  0.1267054519171676
  0.1742819205738516  0.3851719563239658  0.0542934270676394
  0.6355000862317455  0.8870038184428413  0.5728349444339350
  0.6372300910522140  0.1171547044628897  0.9614685949651743
  0.1115198457721766  0.6241443596026153  0.4565105268242359
  0.3757309879338551  0.3815973459851137  0.9486297307300041
  0.8436431017727879  0.8934535098208193  0.4596040808555466
  0.8368458281028849  0.1323072258263479  0.0540660746171091
  0.3425577446962637  0.6255532038773859  0.5444078845730163
  0.8634881288358148  0.0999114175646091  0.2037581174125588
  0.3484998682218530  0.5965811682769450  0.6882330551273125
  0.8825631091973746  0.8943733034594473  0.3122169127963593
  0.3821256709278560  0.3831535161345218  0.7934189089435463
  0.1359550205632878  0.6288210220440617  0.2876846759429280
  0.6637838299641292  0.1218793567535500  0.8213011950471949
  0.1493157882325462  0.4070063583942999  0.1911957546289589
  0.6042612494128595  0.9266539543421065  0.7170153187674855
  0.8563837618806935  0.6125331543770979  0.9456045088610886
  0.3155193814921602  0.1268381712505709  0.4452315219495188
  0.8379445486151550  0.3774294510839399  0.5472483816708892
  0.3577223123421772  0.8803261504148282  0.0547916796406116
  0.1324854002313378  0.1047741580988663  0.5564518339021758
  0.6613800229451372  0.6200197709253633  0.0597700148988465
  0.1513901415553220  0.8867628103794458  0.9464759448160857
  0.6415120371712904  0.3649827678886062  0.4451037147108801
  0.6197294880729246  0.4067812238947960  0.2999081308405103
  0.1345157180045643  0.9111095630321900  0.8073803643395163
  0.1475496701588220  0.0884126598978914  0.6975242076365420
  0.6439585651719619  0.5944560251981441  0.1940945117132072
  0.8797069168554218  0.3941352567273541  0.6931257742549741
  0.3900678225835119  0.9268593192086644  0.1967495862357082
  0.3732053506972969  0.1406968081955970  0.2967610092526715
  0.8908889333199361  0.5830150511918019  0.7907537915784989
  0.1433250709517169  0.0811260056649873  0.0581967240280876
  0.6445353809994722  0.5750315915705173  0.5531904644367573
  0.6798971264910155  0.4191077358855534  0.9445410693296658
  0.1262377019489346  0.8992374052847010  0.4507525858142013
  0.3638733950595483  0.0987297422770891  0.9550784391126692
  0.8706709973600895  0.5723038639995651  0.4483378665271631
  0.8572591517370227  0.4025168944824405  0.0515347951180778
  0.3543159080084696  0.9201424939828055  0.5539737291803473
  0.1603091134598676  0.1125841948530978  0.1950411069023335
  0.6446598423011358  0.6144212690357573  0.6995339423879356
  0.1881802573760821  0.9042675296987077  0.3048483206229789
  0.6846278858873304  0.3769226919513624  0.7931886123931419
  0.8337693737572686  0.5922971014583285  0.3040822428480409
  0.3564853659532995  0.0946464046634685  0.8022757436793717
  0.8452492088429087  0.3880046068116473  0.1966141263130564
  0.3402804641626991  0.8865661847615883  0.6945644098023372
  0.8508950915785624  0.9166091456824004  0.9474049304265210
  0.3442253447997187  0.4299905445657694  0.4410369252838247
  0.8322634608206788  0.0794191262022995  0.5590765542779187
  0.3827073087409740  0.5836150334819502  0.0547835620444961
  0.1447272232581538  0.3931417725101523  0.5502035186621933
  0.6508153676550269  0.8982736319700493  0.0529211526879639
  0.1799495668723627  0.5777438346538838  0.9552172877758126
  0.6275311972561655  0.0797924581007084  0.4568407867296678
  0.3374488535225201  0.4102164219143106  0.2899639329160095
  0.8358074874117372  0.9071872741978381  0.8086250075213496
  0.8490587513723956  0.0739499015907274  0.7023820916189367
  0.3618641905695245  0.6342270008759809  0.1899426112236114
  0.1615671123451457  0.3873275581173279  0.7020794820058716
  0.6615830490756265  0.9002512852700998  0.1940596269831238
  0.6584202504500756  0.0962753985578877  0.3117661976207756
  0.1865486421088156  0.5836751473629996  0.8053678800021697
  0.1026721319500681  0.1741693237881575  0.3281745319255857
  0.6249265495443742  0.6468586219962884  0.8276417621529454
  0.5775142897692774  0.3422310683629828  0.6785826086962775
  0.1004453711706856  0.8079412507513283  0.1749172272529375
  0.3859814872825117  0.1963591730688152  0.6651213502892833
  0.9213806827769840  0.6476047501141108  0.1604461382469179
  0.9035962485571821  0.3294602754918981  0.3357317541831075
  0.4285345645517269  0.7990287235896811  0.8299804692090070
  0.1233119204422130  0.1387807238462314  0.9165212945907977
  0.6053203020989260  0.6554409286394728  0.4049852241336691
  0.0777597488607970  0.8236771874160366  0.5861801997774465
  0.6004760698438084  0.3564814829346223  0.0841081362025943
  0.9242477389745433  0.6356733144714379  0.5850873299479670
  0.4224629216481212  0.1617278930218826  0.0829012605695320
  0.9649044254323059  0.3575658884482172  0.9052426768034976
  0.4145122216538292  0.8276096312875413  0.4300937967428819
  0.9182860526501200  0.8149010738641435  0.6761392768057392
  0.4287751152141619  0.3494600601793879  0.1696277714637854
  0.9335481050990747  0.1583516426381620  0.8327707384970359
  0.4232115290773020  0.6696232870184731  0.3212541079231023
  0.1210420979543434  0.3147873732582377  0.8228993200055743
  0.5855251752416908  0.8446491233831934  0.3331181880962917
  0.1050768964377722  0.6439180886049657  0.6705783812502172
  0.5873365297304981  0.1594084826413087  0.1665667440884611
  0.4196641032551909  0.3611368459018482  0.5784169412763547
  0.9376200412477099  0.8156705045430266  0.0722683139623620
  0.9229285487228940  0.1288551616734548  0.4160134476735157
  0.4453434179486718  0.6306179437843091  0.9092974884564720
  0.0875934025048047  0.3071952952879191  0.4243407139026304
  0.6051773010010907  0.8249886386374982  0.9135859656247868
  0.5841997635516436  0.1816003823714317  0.5904557893311038
  0.1134796717192907  0.6509342234705896  0.0788759358793473
 
  0.18663418E-02 -0.14918231E-03 -0.44904214E-02
  0.50796496E-02  0.47536259E-03 -0.85482066E-03
 -0.51478866E-02  0.75212347E-03  0.22180152E-02
 -0.12204742E-02  0.25192828E-03 -0.36508893E-02
  0.18773660E-02 -0.57404566E-02  0.48384414E-02
 -0.25342578E-02 -0.19630933E-02 -0.52397701E-02
 -0.14812801E-02 -0.43223092E-02 -0.96336398E-03
  0.28786322E-02  0.43734372E-02  0.45271199E-02
  0.68588482E-03 -0.63883479E-02 -0.10893326E-01
  0.39384599E-02  0.31532460E-02 -0.65865070E-03
 -0.52257487E-02  0.93956549E-02 -0.49028904E-03
  0.73587243E-02  0.27915690E-03  0.31734220E-02
  0.20682044E-02  0.43293849E-02 -0.19692772E-02
 -0.43502214E-02 -0.14248506E-02 -0.12513613E-02
  0.52414847E-02  0.63527054E-02  0.12189193E-02
  0.57175718E-02  0.32179604E-02  0.29289892E-02
 -0.69322414E-02  0.84446508E-02  0.40879057E-02
 -0.25582350E-02 -0.52858509E-02  0.51914418E-02
 -0.83801917E-02 -0.14912737E-02  0.60723393E-03
 -0.47188061E-02  0.99471782E-03 -0.82882698E-02
 -0.46666461E-02 -0.70825550E-02  0.31899370E-02
  0.44204689E-02 -0.49949603E-02 -0.60422928E-03
  0.27265779E-02  0.53991255E-03  0.81906669E-02
 -0.12678526E-02 -0.29017577E-02  0.43505949E-02
  0.39579348E-03 -0.62169479E-02 -0.22550627E-02
  0.23108687E-02  0.32089740E-03  0.47246654E-02
 -0.21290560E-02  0.12760815E-02  0.47359112E-02
  0.46647417E-02  0.11761448E-02  0.69406819E-03
  0.62769984E-03 -0.37586314E-02  0.10625216E-02
  0.39856967E-02 -0.16440952E-02 -0.49199076E-02
 -0.18952088E-02 -0.63925399E-03  0.52820670E-02
  0.33375776E-02  0.29482950E-02 -0.15226608E-02
 -0.68039382E-02  0.21181120E-02 -0.35914346E-02
  0.24808120E-02  0.89301001E-03  0.14674104E-02
 -0.10008638E-03  0.20589054E-03 -0.14236190E-02
 -0.27620510E-02 -0.11717111E-02  0.56492117E-03
  0.44721065E-02 -0.19043418E-02 -0.68856105E-02
 -0.53914653E-03  0.39333788E-02  0.23255765E-02
 -0.48683105E-02  0.48716315E-02 -0.27301754E-02
  0.59644420E-02 -0.32682210E-02 -0.37774090E-02
  0.62364623E-03 -0.47390814E-02 -0.35091299E-02
 -0.10442564E-02 -0.66512118E-02 -0.35389720E-02
  0.38498721E-02 -0.23211712E-02  0.68101856E-02
  0.76234817E-02  0.50207937E-02  0.81580518E-02
  0.33487334E-02  0.30433415E-02 -0.37692244E-03
 -0.24739932E-02  0.16311012E-02 -0.40187102E-02
 -0.62919533E-02 -0.20525794E-02 -0.10217916E-01
  0.10518322E-02 -0.14333973E-02 -0.23546251E-02
  0.20352264E-02 -0.55543684E-02 -0.35645806E-04
  0.48087186E-02 -0.27096917E-02 -0.10308430E-02
 -0.95870711E-03  0.65750598E-03 -0.49630307E-03
  0.47199815E-03 -0.31430576E-02  0.62204440E-02
  0.47717591E-02 -0.37931943E-02 -0.84760660E-03
  0.38768366E-02 -0.56552772E-02  0.40193576E-02
 -0.17822694E-02  0.25123431E-02 -0.44776271E-02
 -0.31359755E-03  0.11928769E-01 -0.59301559E-02
  0.23767511E-02 -0.87155497E-02 -0.66528130E-02
 -0.39575298E-02 -0.69228656E-02  0.99980179E-02
  0.46358241E-03  0.29343766E-02 -0.11362987E-03
 -0.51665843E-03 -0.53684006E-02  0.96527893E-02
  0.47103442E-03 -0.32426014E-02  0.68746011E-03
  0.26578647E-02  0.90537284E-02 -0.80561827E-03
 -0.14076590E-02  0.11161832E-01 -0.14187234E-02
  0.75191295E-03 -0.86272019E-02 -0.50522237E-02
  0.40463678E-02 -0.38941516E-03 -0.26658646E-02
 -0.19146279E-02 -0.10548510E-02  0.65747484E-02
  0.41039950E-02 -0.16205167E-02  0.46870627E-02
  0.41330954E-02 -0.11340959E-02  0.84790488E-02
  0.32516233E-02  0.25239451E-02 -0.13492685E-01
 -0.10778366E-01 -0.13330919E-02 -0.86009930E-02
  0.52458739E-02 -0.54645144E-03  0.53532228E-02
 -0.30704135E-03 -0.89279587E-03 -0.63440128E-02
 -0.26836386E-02 -0.41807718E-02  0.13380377E-02
  0.84190423E-03  0.10900657E-01 -0.74648992E-02
  0.27817207E-02  0.69424834E-03  0.30165999E-02
 -0.48409765E-02  0.82222564E-04 -0.47999383E-02
  0.42710468E-02  0.55917518E-03 -0.55256255E-02
  0.10635870E-02  0.21452041E-02 -0.78928037E-02
 -0.32797558E-02 -0.15349685E-03 -0.20968995E-02
  0.36051946E-02 -0.39204484E-02  0.49927855E-03
 -0.10091158E-01  0.44341736E-02  0.45556337E-02
 -0.25960147E-04  0.74324575E-02  0.81883352E-03
  0.48857435E-02 -0.47625333E-02  0.73043901E-02
 -0.55187165E-02  0.98995398E-03 -0.10655028E-01
  0.63607677E-03  0.26137681E-04  0.28681899E-04
  0.31719258E-02  0.25501008E-02  0.78503392E-02
  0.20738167E-02  0.28184653E-02  0.24625644E-03
  0.49065686E-03  0.12206888E-02  0.58544351E-02
  0.18552383E-02 -0.26463306E-02 -0.33241744E-03
 -0.37440541E-02  0.17417996E-03 -0.87906406E-04
  0.18193698E-02  0.20127313E-02  0.93885895E-03
 -0.23157037E-02 -0.11579535E-02  0.12466261E-02
  0.42691922E-03  0.15594990E-02 -0.12218489E-02
 -0.17931007E-02 -0.12905720E-02 -0.42386757E-02
  0.22010231E-02 -0.96300470E-03 -0.75989466E-03
  0.14538665E-02 -0.12754959E-02  0.18739714E-02
 -0.28925499E-02  0.14533140E-02  0.13311189E-02
 -0.21831232E-02 -0.41426822E-02  0.95032580E-03
  0.15854802E-02  0.49619825E-02 -0.43691444E-02
 -0.49196677E-03  0.58097093E-03  0.21774442E-03
 -0.35076372E-02  0.23824854E-02  0.47956472E-03
 -0.15611006E-02  0.29890990E-02 -0.19408707E-03
  0.64194429E-02 -0.17701586E-03  0.20212024E-02
  0.33751100E-02  0.14275280E-02 -0.18146490E-02
 -0.48911542E-03  0.16745534E-02 -0.12239468E-02
  0.43262851E-02  0.53827386E-02 -0.60003379E-02
 -0.26758369E-02 -0.83069785E-03  0.19939029E-03
 -0.39060324E-03  0.53216099E-02  0.56255680E-02
  0.50356145E-02 -0.33469897E-03 -0.46470098E-02
 -0.30395677E-02 -0.18480332E-02 -0.17435998E-03
 -0.24700364E-03  0.42769209E-02  0.73957256E-02
  0.24657317E-02 -0.12703325E-02  0.74792729E-03
 -0.40265305E-02  0.70780422E-03 -0.26294084E-02
 -0.44414550E-04  0.20413277E-02  0.99717818E-02
  0.96752335E-03  0.82873315E-04 -0.17118078E-02
 -0.21398850E-02 -0.16628121E-02  0.18793683E-02
 -0.22613937E-02 -0.18754437E-02 -0.69981808E-02
  0.46161450E-02 -0.46583602E-02  0.33831707E-02
 -0.28964566E-02 -0.46872897E-02  0.87630875E-03
 -0.35193505E-02 -0.22256136E-02  0.52474043E-02
 -0.10927577E-02 -0.20368268E-02  0.33726385E-02
 -0.40989649E-03 -0.30752984E-02  0.45740423E-02
  0.10865403E-02  0.11802292E-02  0.29876956E-02
  0.12832390E-02 -0.23634006E-02  0.51265098E-02
 -0.65309831E-02  0.82741814E-02 -0.15527353E-02
 -0.58579082E-02  0.18966960E-02 -0.31367710E-02
  0.26854935E-03 -0.67355143E-02  0.57361263E-02
  0.26840838E-02 -0.49304112E-02 -0.15595072E-02
  0.33808413E-02  0.24831086E-02 -0.89916590E-03
  0.66302427E-02  0.43638412E-02  0.20639114E-02
  0.12852296E-02  0.79534945E-03 -0.12729822E-02
 -0.89981887E-03 -0.54239920E-03  0.76507365E-02
  0.46952441E-02  0.20998881E-02  0.45659783E-03
  0.15879613E-02 -0.34778566E-04  0.15300405E-03
 -0.98658821E-03 -0.16148618E-02 -0.71079027E-03
 -0.36411192E-02 -0.91233777E-02 -0.41208275E-02
  0.11234899E-02  0.34742248E-02 -0.29419764E-02
  0.48034641E-02  0.99789773E-02  0.18399135E-03
  0.67197323E-02 -0.23819026E-02  0.38050733E-02
  0.34124040E-02 -0.87230884E-02 -0.67840957E-02
 -0.88080990E-02  0.73278227E-03  0.38777269E-02
  0.37221487E-02  0.74525219E-03 -0.24181716E-02
  0.18874245E-02 -0.21637488E-03 -0.23475764E-02
 -0.87925587E-03 -0.37167597E-02 -0.10465127E-03
  0.56690956E-02 -0.11201122E-03 -0.11661457E-02
 -0.19154544E-03  0.33798568E-02  0.22275789E-02
  0.16448762E-02 -0.26218630E-02  0.15401683E-02
 -0.24384864E-02 -0.18763932E-02 -0.45227130E-02
  0.51663441E-02 -0.51594265E-02  0.28714590E-02
  0.17478559E-02 -0.49135579E-02  0.19757540E-02
 -0.28522598E-02  0.10694555E-02  0.12471026E-02
 -0.47233545E-02  0.18018897E-02  0.20017649E-02
  0.37496017E-02 -0.53854674E-02  0.60712886E-02
 -0.57351975E-02 -0.61928491E-02 -0.25185275E-02
  0.75328416E-02  0.67236610E-02 -0.33801778E-02
 -0.15954914E-02  0.82741034E-03 -0.42910208E-02
  0.88953753E-03 -0.76724477E-06  0.73842101E-03
 -0.62350126E-02  0.10123678E-02 -0.55393689E-02
  0.38930656E-02  0.36333112E-02  0.13859856E-02
  0.54603069E-02  0.23356708E-02  0.10659776E-03
 -0.83717655E-03  0.24691150E-03  0.17748147E-02
  0.15775136E-02  0.38165309E-02  0.75905676E-02
  0.36121559E-03  0.56354750E-02 -0.82904316E-02
 -0.31531385E-02 -0.28041886E-02 -0.48555238E-02
 -0.28305496E-02 -0.71811173E-02  0.42534592E-02
 -0.12453242E-02 -0.16454219E-02  0.54806261E-02
  0.51343336E-03  0.51123525E-02  0.27695036E-02
 -0.21587855E-02 -0.12537890E-02 -0.50976362E-02
 -0.55100073E-03  0.39274869E-02 -0.50905268E-02
  0.31003893E-02 -0.40184156E-02  0.19695765E-03
  0.69234887E-02 -0.36402756E-02  0.43430642E-02
  0.17134070E-02  0.13591190E-02 -0.13891975E-02
 -0.10803732E-01  0.35413499E-02 -0.18461542E-02
 -0.58205978E-02  0.35230711E-02  0.39179199E-02
  0.31468082E-02  0.36337095E-02  0.21966620E-02
  0.16803334E-02  0.14845359E-03 -0.19919052E-02
 -0.16947162E-02 -0.30435361E-02  0.35880728E-02
  0.22447611E-02  0.68952770E-02  0.64033938E-02
 -0.19386818E-02 -0.56992973E-02 -0.13274818E-02
 -0.66642178E-02 -0.41497008E-03 -0.57106035E-02
 -0.10023699E-01  0.15342451E-02  0.37178933E-02
 -0.16958586E-02 -0.83963139E-02  0.43355876E-02
  0.14889807E-02  0.29153435E-02  0.23097315E-02
 -0.49128527E-03  0.50333542E-02 -0.44479169E-02
 -0.46648361E-02 -0.31031057E-02  0.40565186E-02
  0.13109445E-03  0.20593568E-02 -0.32566120E-02
 -0.40374168E-02  0.38949564E-02  0.25565810E-02
  0.58127024E-02  0.16084420E-02  0.42672610E-02
 -0.30621609E-02  0.48948237E-03  0.20614309E-02
 -0.43096160E-02  0.40883471E-03 -0.12513797E-02
 -0.12732870E-02 -0.17211504E-02  0.59828288E-02
 -0.10725566E-01  0.56297823E-02 -0.35902665E-03
 -0.33239731E-02  0.99584862E-03  0.12556361E-02
  0.64668231E-02  0.55984435E-02 -0.36645457E-02
  0.89895522E-03 -0.28856489E-02 -0.64561461E-03
 -0.42824597E-02 -0.57903377E-02  0.15281610E-02
  0.11968592E-02 -0.49264970E-02 -0.15074828E-02
  0.20697915E-02  0.33680505E-02  0.19931487E-02
  0.85020843E-02 -0.23087281E-02 -0.39564957E-02
 -0.19124070E-02 -0.31842471E-02  0.36967660E-02
 -0.60447189E-03 -0.69716898E-02 -0.16303853E-02
  0.53109836E-02 -0.33971609E-02 -0.24558030E-02
 -0.39222649E-02  0.95182757E-03  0.38702718E-02
 -0.83323059E-02  0.12293624E-03 -0.19328237E-02
 -0.35633768E-03  0.33194834E-02 -0.69971197E-02
 -0.15409716E-02 -0.58642762E-02 -0.12693133E-02
  0.55603192E-02  0.32130262E-03 -0.87590921E-02
 -0.33891071E-02  0.39565476E-03 -0.65076608E-03
 
           1
   2.00000000000000     
  0.11725380E+01 -0.21419763E-02  0.00000000E+00  0.00000000E+00
  0.37706218E-01  0.96500481E+00  0.13850654E+00
  0.51089493E+00  0.53834345E+00  0.63001605E+00
  0.52589478E+00  0.48662653E+00  0.74768301E+00
  0.78709732E+00  0.15884132E-01  0.38204378E+00
  0.51237075E-03  0.83303891E-02  0.87683361E+00
  0.57152220E-02  0.53392407E+00  0.22434977E+00
  0.26821336E-01  0.45307062E+00  0.11367585E+00
  0.26845750E+00  0.24992702E+00  0.10698185E+00
  0.75183759E+00  0.96218574E+00  0.63736827E+00
  0.75430181E+00  0.26502221E+00  0.99506746E+00
  0.76354684E+00  0.47076044E+00  0.37845683E+00
  0.27625220E+00  0.25668597E+00  0.86838712E+00
  0.74263504E+00  0.16327430E-01  0.12437793E+00
  0.25209628E+00  0.76058766E+00  0.48603439E+00
  0.99888691E+00  0.20051693E-01  0.76135470E+00
  0.22500126E-01  0.52974559E+00  0.36715823E+00
  0.99314652E+00  0.99775086E+00  0.63619041E+00
  0.22663157E+00  0.48839322E+00  0.62626153E+00
  0.26974122E+00  0.22934506E-01  0.12604085E+00
  0.30602841E+00  0.50815626E+00  0.86476993E+00
  0.47138521E+00  0.99979860E+00  0.38050974E+00
  0.26858233E+00  0.28983791E+00  0.36639134E+00
  0.78773629E+00  0.72152675E+00  0.87173123E+00
  0.99137588E+00  0.46820952E+00  0.61021893E+00
  0.24767509E+00  0.73969297E+00  0.12211102E-01
  0.21451509E+00  0.25408701E+00  0.62463883E+00
  0.75728444E+00  0.49826749E+00  0.12422295E+00
  0.70275680E+00  0.21808114E+00  0.38676110E+00
  0.49087855E+00  0.49723831E+00  0.50085723E+00
  0.48624876E+00  0.24589770E+00  0.53561444E-02
  0.97895172E+00  0.43016531E+00  0.48465801E+00
  0.51684228E+00  0.96286353E+00  0.80455442E+00
  0.97665555E+00  0.77074291E+00  0.25645610E+00
  0.52353820E+00  0.22844634E+00  0.76330023E+00
  0.99594910E+00  0.73587116E-01  0.99057079E+00
  0.72918473E+00  0.21433306E+00  0.51276428E+00
  0.49248915E+00  0.98047703E+00  0.98329962E+00
  0.51460109E+00  0.24170528E+00  0.24531176E+00
  0.97772280E-01  0.75145207E+00  0.75969464E+00
  0.50348158E+00  0.55590698E+00  0.25745872E+00
  0.26352963E-01  0.17683633E-01  0.27689003E+00
  0.47940999E+00  0.73119317E+00  0.74038349E+00
  0.72902613E+00  0.12618263E-01  0.88774717E+00
  0.21596773E-01  0.26008788E+00  0.21905014E+00
  0.23396582E+00  0.24477877E+00  0.97925644E+00
  0.51075555E+00  0.73960861E+00  0.50825306E+00
  0.92683072E+00  0.73093840E+00  0.50593684E+00
  0.80052960E+00  0.25228077E+00  0.12842533E+00
  0.81696583E+00  0.26207024E+00  0.75661235E+00
  0.49472867E+00  0.52472243E+00  0.12911863E+00
  0.31144678E-01  0.48501078E+00  0.74795469E+00
  0.51976245E+00  0.97025182E+00  0.25755675E+00
  0.25044509E+00  0.28045762E+00  0.49089005E+00
  0.75059543E+00  0.77077857E+00  0.99648614E+00
  0.73783479E+00  0.44871299E+00  0.62606366E+00
  0.19003292E-01  0.72385724E+00  0.99553312E+00
  0.20146835E-01  0.44490339E+00  0.98561147E+00
  0.50382475E+00  0.24831551E+00  0.49243314E+00
  0.51396010E+00  0.74501440E+00  0.26623201E-01
  0.98613430E+00  0.97197474E+00  0.52274266E+00
  0.52664800E+00  0.97716703E+00  0.11643001E+00
  0.98928145E+00  0.22063697E+00  0.52241202E+00
  0.50605524E-01  0.49787469E+00  0.85907632E+00
  0.48475901E+00  0.52314099E-01  0.52095611E+00
  0.26727687E+00  0.26406591E+00  0.23228603E+00
  0.77155605E+00  0.73317677E+00  0.76145267E+00
  0.28750749E+00  0.75937985E+00  0.25502789E+00
  0.76795504E+00  0.21885594E+00  0.64962621E+00
  0.71328480E+00  0.75418670E+00  0.24948241E+00
  0.24690327E+00  0.22573144E+00  0.74481021E+00
  0.75347148E+00  0.23894645E+00  0.26987610E+00
  0.25320897E+00  0.77166783E+00  0.85151949E+00
  0.24276235E+00  0.52436976E+00  0.12486118E+00
  0.49734199E+00  0.96557712E+00  0.63090535E+00
  0.78036663E+00  0.24826526E+00  0.88390687E+00
  0.28211118E+00  0.58118570E+00  0.36946431E+00
  0.53662734E+00  0.44379390E+00  0.87211998E+00
  0.78209929E+00  0.74777975E+00  0.38936696E+00
  0.73152452E+00  0.77757671E+00  0.12269119E+00
  0.25420027E+00  0.75893435E+00  0.62908231E+00
  0.75939819E+00  0.49727995E+00  0.87182448E+00
  0.17985093E+00  0.24516531E-01  0.38298288E+00
  0.74684300E+00  0.71655248E+00  0.62533178E+00
  0.28034569E+00  0.76649783E+00  0.12911770E+00
  0.23992312E+00  0.99280643E+00  0.63276203E+00
  0.51778241E+00  0.50229143E+00  0.99600411E+00
  0.27078897E+00  0.57415723E-04  0.88576923E+00
  0.50642375E+00  0.50147115E+00  0.38206094E+00
  0.27545163E+00  0.21241525E-01  0.25334825E+00
  0.76757082E+00  0.48787187E+00  0.74650244E+00
  0.24570373E+00  0.99043470E+00  0.74805267E+00
  0.73881244E+00  0.49205694E+00  0.24824741E+00
  0.25329434E+00  0.99146004E+00  0.27423731E-02
  0.75031191E+00  0.48785619E+00  0.49646282E+00
  0.22710282E+00  0.83435048E-02  0.50158315E+00
  0.76171100E+00  0.51211962E+00  0.38963201E-02
  0.73251160E+00  0.92072321E-02  0.76173356E+00
  0.25269821E+00  0.53108248E+00  0.23728036E+00
  0.28113355E+00  0.49040048E+00  0.74756327E+00
  0.76175115E+00  0.99204357E+00  0.25707564E+00
  0.22429271E+00  0.51985531E+00  0.50294738E+00
  0.75228075E+00  0.18136714E-01  0.37634612E-02
  0.72663571E+00  0.98152947E+00  0.51089177E+00
  0.27875856E+00  0.48163889E+00  0.81200119E-02
  0.99640906E+00  0.23859183E+00  0.37079160E+00
  0.53081747E+00  0.72785108E+00  0.87175896E+00
  0.49196822E+00  0.26811325E+00  0.62441739E+00
  0.19861093E-01  0.73557669E+00  0.12398048E+00
  0.36188685E-01  0.24071349E+00  0.87081878E+00
  0.49532599E+00  0.74956497E+00  0.37333589E+00
  0.42274300E-02  0.73075596E+00  0.63329508E+00
  0.50985297E+00  0.25492600E+00  0.12676093E+00
  0.17368457E+00  0.38527696E+00  0.54098386E-01
  0.63549350E+00  0.88730666E+00  0.57357462E+00
  0.63737363E+00  0.11716700E+00  0.96134162E+00
  0.11120239E+00  0.62389768E+00  0.45664993E+00
  0.37539550E+00  0.38131912E+00  0.94811063E+00
  0.84432792E+00  0.89276243E+00  0.45985503E+00
  0.83641613E+00  0.13161185E+00  0.54131076E-01
  0.34203564E+00  0.62522303E+00  0.54479712E+00
  0.86332601E+00  0.99609248E-01  0.20400829E+00
  0.34843906E+00  0.59612494E+00  0.68857234E+00
  0.88272430E+00  0.89454839E+00  0.31243853E+00
  0.38231604E+00  0.38280290E+00  0.79379918E+00
  0.13498613E+00  0.63004852E+00  0.28756950E+00
  0.66291479E+00  0.12216074E+00  0.82106852E+00
  0.14935563E+00  0.40600712E+00  0.19162124E+00
  0.60465944E+00  0.92592251E+00  0.71689964E+00
  0.85688532E+00  0.61290153E+00  0.94553781E+00
  0.31650300E+00  0.12748556E+00  0.44538462E+00
  0.83813522E+00  0.37754744E+00  0.54715396E+00
  0.35758882E+00  0.88024568E+00  0.55359186E-01
  0.13318196E+00  0.10508568E+00  0.55648570E+00
  0.66161560E+00  0.62001461E+00  0.59781364E-01
  0.15124378E+00  0.88652324E+00  0.94642322E+00
  0.64097187E+00  0.36362928E+00  0.44479805E+00