Na88 Ge16 P8 Se96                       
   1.00000000000000     
    13.9614333504000001    0.0000000000000000    0.0000000000000000
     0.0000000000000000   13.9614333504000001    0.0000000000000000
     0.0000000000000000    0.0000000000000000   27.9228667008000002
   Na   Ge   P    Se
    88    16     8    96
Direct
   0.48044506  0.77645482  0.01951949
   0.49896850  0.47817114  0.48999312
   0.31737431  0.57534144  0.87075785
   0.55650556  0.00402156  0.37065800
   0.51001749  0.00986571  0.90112183
   0.95518639  0.48459888  0.39491529
   0.29686435  0.71855371  0.10645472
   0.76197084  0.24422514  0.24126833
   0.48306162  0.00551621  0.62740110
   0.82476129  0.23023270  0.77389389
   0.79148192  0.70845433  0.50776428
   0.48654894  0.24336471  0.00255346
   0.17626222  0.46060359  0.35999983
   0.16439709  0.78688374  0.36400454
   0.01746032  0.92407744  0.87018060
   0.31770305  0.60343143  0.37078997
   0.23612461  0.22918053  0.63614906
   0.98287286  0.46908981  0.63270459
   0.72953505  0.77275737  0.12178680
   0.71771717  0.70799407  0.61032893
   0.80729059  0.03948599  0.38306417
   0.50506996  0.23073764  0.25359181
   0.77109023  0.47812213  0.64383456
   0.51234570  0.49423940  0.66012031
   0.27296064  0.44978034  0.13808911
   0.48358952  0.76740073  0.72799370
   0.86626250  0.74915949  0.01942380
   0.75734898  0.63692963  0.39448270
   0.52902731  0.76084597  0.49617954
   0.75053750  0.23953195  0.99965869
   0.04083953  0.62133157  0.52202411
   0.20802986  0.71947014  0.74773730
   0.23564745  0.76141633  0.23328716
   0.72176372  0.57156352  0.86941212
   0.03548966  0.00207107  0.13530901
   0.49827695  0.99680792  0.49071312
   0.71220047  0.76801074  0.74618539
   0.23079034  0.22418254  0.26264740
   0.95818882  0.77922335  0.76926043
   0.50419181  0.78230987  0.22680356
   0.01910995  0.08391739  0.25554975
   0.25781821  0.74953287  0.63074928
   0.50844958  0.03506324  0.75184265
   0.97214458  0.48191958  0.25172264
   0.21788522  0.20296942  0.10317499
   0.75734579  0.99802726  0.63035848
   0.05343434  0.31373869  0.52840975
   0.95271317  0.10807303  0.96836070
   0.01587661  0.99661826  0.39491834
   0.25848959  0.70150396  0.98186455
   0.00344741  0.07884970  0.76721313
   0.55802829  0.00700525  0.23013565
   0.27687529  0.31117526  0.51795950
   0.21018680  0.35420661  0.87418351
   0.72302326  0.22956282  0.49973788
   0.98920834  0.49945451  0.01550931
   0.00861774  0.87191550  0.01518537
   0.50272952  0.23437966  0.50833963
   0.49387458  0.49864583  0.97689369
   0.97535992  0.93140858  0.53738679
   0.48120466  0.96586711  0.02756995
   0.46446640  0.54551174  0.79257878
   0.98538839  0.49553126  0.87182238
   0.03768629  0.99084849  0.65454831
   0.48831967  0.46067539  0.18049237
   0.68771697  0.75250591  0.93395706
   0.25553302  0.02953016  0.39011886
   0.52573318  0.26422280  0.76415863
   0.95400461  0.75194325  0.24145374
   0.20393497  0.25323018  0.78104597
   0.76205606  0.28373578  0.12494311
   0.26123888  0.79256918  0.49464888
   0.64385021  0.49728831  0.12147690
   0.76835845  0.23213551  0.61653276
   0.71296923  0.00249889  0.88897447
   0.26013791  0.24125965  0.38576176
   0.18759502  0.18869491  0.98332901
   0.76554238  0.30182527  0.35018815
   0.73521421  0.01608700  0.13540575
   0.99378001  0.47807614  0.75130647
   0.78979846  0.38147368  0.87450555
   0.71410638  0.72957056  0.29865342
   0.28231957  0.49867456  0.62351685
   0.24853492  0.01334715  0.13022907
   0.27468960  0.01326536  0.63407693
   0.01593518  0.46331966  0.12903548
   0.25204966  0.95684648  0.88051447
   0.52547746  0.57787778  0.29697643
   0.28121284  0.00121318  0.25794700
   0.75606812  0.50273871  0.74661257
   0.26107171  0.00180170  0.76015927
   0.72982872  0.50397376  0.25435238
   0.22474017  0.96828709  0.99369685
   0.74994797  0.47435853  0.50432421
   0.24962638  0.01888688  0.50819754
   0.75788523  0.50897160  0.00123178
   0.72975850  0.00748527  0.74883963
   0.24930722  0.53299450  0.24616492
   0.26059548  0.48558903  0.74863491
   0.78261653  0.99089250  0.25682784
   0.25216732  0.55175744  0.48616510
   0.73982486  0.99826125  0.01936614
   0.73796068  0.97950208  0.49224581
   0.23749136  0.44645559  0.00028220
   0.00156603  0.23764162  0.38771545
   0.47536066  0.75471052  0.87669069
   0.51287135  0.24689542  0.63437107
   0.99170798  0.76519098  0.12742654
   0.99764564  0.21508208  0.87529676
   0.50638916  0.77073778  0.37668271
   0.97967494  0.73511618  0.63159446
   0.47842711  0.22183330  0.12476855
   0.17270728  0.38039166  0.06548260
   0.64053384  0.88419480  0.55567393
   0.63411536  0.07949046  0.97562035
   0.14765065  0.61811568  0.42632655
   0.33788840  0.36702828  0.94775600
   0.85732810  0.88518045  0.44837550
   0.83274576  0.09572772  0.06675938
   0.33200296  0.64205297  0.54608917
   0.86959266  0.10346493  0.19648935
   0.35319826  0.59912673  0.70040738
   0.89680449  0.91083495  0.30348703
   0.37206848  0.37066109  0.78972073
   0.13927752  0.63859914  0.29929373
   0.65006911  0.12818855  0.79382702
   0.13843904  0.42482603  0.21218773
   0.60241680  0.93254852  0.69379113
   0.84824522  0.58849583  0.94494631
   0.34807561  0.12291285  0.46075102
   0.84423775  0.37693075  0.56197858
   0.30950842  0.88845858  0.05406012
   0.14876786  0.09901422  0.56285923
   0.64046000  0.62206720  0.04443355
   0.14078344  0.85349457  0.94156066
   0.67055967  0.41375581  0.43842360
   0.62381012  0.39158866  0.29401616
   0.13420083  0.90041671  0.79247374
   0.16494325  0.10605408  0.70775876
   0.62223508  0.60884314  0.21011409
   0.83806165  0.38165664  0.71344615
   0.37696593  0.93927687  0.19349861
   0.38310503  0.09365908  0.31190055
   0.85145339  0.59619391  0.79227001
   0.11777087  0.05780603  0.04639914
   0.65151029  0.56630952  0.55104111
   0.66949478  0.40690948  0.95124422
   0.15155121  0.93514307  0.45004218
   0.34761782  0.07592219  0.96523960
   0.86688561  0.56860934  0.46551868
   0.84161762  0.38998372  0.04287717
   0.35852028  0.91912412  0.54525775
   0.17732358  0.10318389  0.20053659
   0.65507984  0.60000390  0.69849328
   0.17315134  0.91773122  0.29818512
   0.64374411  0.43583210  0.80017232
   0.84667923  0.59188993  0.29966269
   0.35733131  0.08400081  0.81299873
   0.82124815  0.41459415  0.19250600
   0.32427202  0.88662387  0.70154160
   0.84749182  0.93097893  0.95547608
   0.34655493  0.43330166  0.43927924
   0.83712995  0.10320423  0.54202543
   0.34231161  0.57328083  0.04556110
   0.15860839  0.45310406  0.55253058
   0.64626722  0.87245006  0.05157718
   0.16003273  0.55543478  0.94375198
   0.63806673  0.08908596  0.44284458
   0.35468638  0.45652735  0.29494923
   0.82361610  0.90251861  0.79851193
   0.84344535  0.11101304  0.69960301
   0.35614507  0.62249259  0.19423900
   0.16057309  0.38318785  0.70686224
   0.69887050  0.88838151  0.20591693
   0.67845100  0.08759275  0.30665626
   0.17203772  0.57423060  0.81031098
   0.10958427  0.14695514  0.34266626
   0.51039951  0.61436412  0.89657587
   0.60962475  0.34253147  0.67916622
   0.06350434  0.68431060  0.07054484
   0.40670595  0.17924303  0.68017664
   0.10308469  0.82780411  0.17495038
   0.07717147  0.34221128  0.43485218
   0.40152484  0.85173351  0.93891399
   0.14090167  0.15886919  0.88494604
   0.64810716  0.82089603  0.39940044
   0.88094508  0.84597037  0.65434751
   0.60824216  0.15856504  0.16478943
   0.89031068  0.64030192  0.58304981
   0.38630687  0.30645051  0.17831210
   0.96166216  0.28875682  0.94981385
   0.40461588  0.82566310  0.42724636
   0.08444439  0.64307384  0.67165717
   0.41489246  0.11470203  0.08290050
   0.90130183  0.10796818  0.85046666
   0.52778373  0.62034121  0.39138396
   0.01870426  0.32576194  0.82138393
   0.42304779  0.81575616  0.31037387
   0.09486869  0.81643831  0.58664672
   0.55997776  0.33448206  0.08810033
   0.44134483  0.34953815  0.58324245
   0.89484146  0.88342927  0.09809029
   0.94451156  0.32087808  0.32109769
   0.61354366  0.81961629  0.84383702
   0.89328737  0.17960942  0.43520628
   0.38368605  0.73727131  0.81240908
   0.60887137  0.14829813  0.58738648
   0.88992990  0.65163387  0.16259824
