Na88 Sn16 P8 S96                        
   1.00000000000000     
    13.4813327813000008    0.0000000000000000    0.0000000000000000
     0.0000000000000000   13.4813327813000008    0.0000000000000000
     0.0000000000000000    0.0000000000000000   26.9626655626000016
   Na   Sn   P    S 
    88    16     8    96
Direct
  0.0218709207543440  0.9701069261508670  0.1359997691785954
  0.2971605790201008  0.4724864530079681  0.6205846001842729
  0.2845952347634468  0.5348698079394512  0.8600846328336726
  0.9582857274291636  0.9772247700680420  0.3973407849766818
  0.0391706614146379  0.0051834876775432  0.9873687918463087
  0.7195831026714298  0.4860842339351871  0.3721033322611663
  0.0128399165389926  0.4708944064119272  0.1426254744632361
  0.3035737543761949  0.0308361978204535  0.1264546457210179
  0.7578840918473173  0.9289667341061636  0.6215828774897261
  0.7657379839410594  0.2773825445005892  0.8781428682637260
  0.7437665107819521  0.7295043421391277  0.3851293858225753
  0.2644638491273166  0.2581595912619683  0.8699964758281451
  0.7799698938046413  0.2404071225488216  0.1394697375653159
  0.2394010130977786  0.7684565519434531  0.5961465590229966
  0.0023949162719256  0.0061206808666108  0.7802040705981734
  0.2351358407557660  0.4725838485462512  0.3715681090289364
  0.9801033602314820  0.0077218894245595  0.6478709933256603
  0.0126244019843387  0.4825927247393346  0.6294340814337561
  0.5216288476574731  0.9984839370133765  0.2498163525650412
  0.9776582043245919  0.5294339386310845  0.8856364954239807
  0.5159393864335468  0.9864270648194939  0.3644990785663295
  0.2566427941750273  0.2285622080064114  0.3832725311806656
  0.7495008662926801  0.7670870045790682  0.9820314566925991
  0.7490948605749356  0.5055888248051488  0.6169028439884171
  0.2781818329780530  0.7279591830223094  0.9915246492926284
  0.2336020235015464  0.2468828872281651  0.7544345515037493
  0.7415432345806532  0.4883192587704264  0.1164580674322127
  0.7338985201154723  0.2217198524255616  0.3704407493931422
  0.4890219441182900  0.7367207769126732  0.4952266459657398
  0.4785974740367677  0.2573325983161807  0.9960809562047100
  0.9736252310688182  0.5255831534938153  0.3772357544081549
  0.5074481864795175  0.0240653544866713  0.7408997127494342
  0.9848207653937466  0.4654066445844792  0.2517481769208730
  0.5404125118226988  0.5342228451088201  0.7694850643828819
  0.0025184996644494  0.2731787685253790  0.0210177131457262
  0.4734742891070875  0.4650226201078318  0.4897962897553226
  0.5359651522568861  0.9479567804029699  0.9889876833403252
  0.2366055582823881  0.2466793091222302  0.1374396532887152
  0.0216473117479351  0.7452238631968796  0.7575506856042451
  0.7684755822895184  0.7217137302383312  0.2421281142901813
  0.0318049055509589  0.9885186428358120  0.2602614329867948
  0.4887734832318201  0.7708333035989202  0.7399530451552420
  0.4977679516819578  0.0231858213106501  0.8591865684737144
  0.2198129030689669  0.2321000796286626  0.2681089026995985
  0.2515247103428175  0.2357776273553868  0.9910722042333792
  0.0342077238252983  0.7455590999184343  0.4888471219478156
  0.9868391297850557  0.4756390404672985  0.4966606258023890
  0.7475952689709767  0.2712323598757433  0.0023875410944281
  0.8549806718770935  0.2529933689064691  0.7609079961324471
  0.4966948499650467  0.4535295098383799  0.2389242816128853
  0.0210519706121441  0.4572308445649538  0.7522739424021858
  0.5055531367963381  0.7435741932613109  0.2363828365598800
  0.4924487568679417  0.2284801671187918  0.4896585895435197
  0.7553577536288729  0.7297387711558276  0.1094693606200069
  0.7575374364317785  0.2221752167507754  0.4911777186559758
  0.0179637551176188  0.7642144580676026  0.9824725814455332
  0.0124533682935795  0.5096914886392974  0.0043543604945605
  0.5042635737363297  0.5114424990327674  0.6147355044687608
  0.5069410070868309  0.5384264051842691  0.9786918649212891
  0.9977252834857686  0.0485431613630629  0.4976418074306401
  0.5197629124669447  0.9650162683636830  0.1317786264330844
  0.2115905954754482  0.2583683353925920  0.5008198147748882
  0.7336067292988876  0.5509608600188015  0.8742470979202950
  0.5041772716956272  0.9955319269983640  0.4977809542564282
  0.9477382867671875  0.2383391848138064  0.2515101878782507
  0.7624450558800445  0.7435282393723875  0.7465845138925267
  0.2484648165677046  0.7127628317779071  0.2465065534641068
  0.7582189565806229  0.2306743727179242  0.6262031063207297
  0.9937693681421456  0.7214750641270345  0.2561551924881540
  0.5163647836075450  0.2893557208577310  0.7470620476040489
  0.5191975612648798  0.2116184793298523  0.2656661631697870
  0.2801948143888192  0.7580608796110732  0.7430142613336999
  0.2586285074935876  0.4862565542697467  0.1198143791329088
  0.4835998984753382  0.9967843152191550  0.6309007358094797
  0.7588022780776561  0.0134867567911902  0.8724847018243561
  0.2277709639160670  0.7336540366720997  0.3752861150955539
  0.2623000547931630  0.7512110931019300  0.8788622192508841
  0.7389502445187724  0.9688993820648146  0.3724652889426711
  0.7523766122045140  0.0134632927830370  0.1209978210629004
  0.2280413581970053  0.0032252495656266  0.6309022681784793
  0.7901347312550085  0.7687427459521752  0.8645720191083074
  0.2640689097642654  0.9690606024173436  0.3838196262445265
  0.7689894812293502  0.7114980167234818  0.5181995459242803
  0.2662180386199688  0.7424445775741040  0.1296980435971972
  0.2167475533223208  0.2473364423851001  0.6291897368594472
  0.5205925306879260  0.4951321666272193  0.1056572355450194
  0.2280959292629225  0.9884132788597415  0.8741024734279468
  0.4816426441900882  0.4828106875201972  0.3587399553335809
  0.2923751554952630  0.9768176325891216  0.2527328842236236
  0.7834688090727827  0.5014122052283234  0.7394158050915932
  0.2430636834959938  0.9799598458107980  0.7549178732271314
  0.7414091975668461  0.4724757675291822  0.2509661078544181
  0.2957668241470784  0.9878136415887731  0.0021665302308049
  0.7411303884601197  0.4762943396083694  0.4964759003749719
  0.2353950327677102  0.9997906147780951  0.5129586659616157
  0.7622942893372869  0.5145463277290251  0.9983705478782885
  0.7390442979903494  0.9943225292482970  0.7504907710787616
  0.2581032322986927  0.4815149478525056  0.2521658526965245
  0.2754684055145404  0.5050598459846879  0.7467774113922568
  0.7737815431918078  0.9640457178870633  0.2387654753895721
  0.2441551227246459  0.5178326611911195  0.4994227390812863
  0.7813376244446204  0.0175851403409563  0.0014694104715371
  0.7359818322968478  0.9564290017595791  0.4976440853594422
  0.2636220528660866  0.4815385319827262  0.9969852358525776
  0.9827645270845368  0.2570791416847114  0.3753509449024632
  0.5179924235102817  0.7587098051305836  0.8677916442922944
  0.4799334103357362  0.2359529931732773  0.6242648092745828
  0.0267096372796189  0.7298640953385273  0.1289599815969358
  0.0104830058225712  0.2646961863397989  0.8822912538831498
  0.4941493461047267  0.7332452879334109  0.3670194501870724
  0.9999259628201965  0.7532296367897968  0.6326493417130447
  0.5199884991460584  0.2330155488552225  0.1231370458907251
  0.1644658856359336  0.3748196741143945  0.0513564468418277
  0.6284330589942831  0.8510279009904541  0.5498722126572789
  0.6645375563476139  0.1117181960289430  0.9504930367128541
  0.1369315310411768  0.6122338719472629  0.4453131901345550
  0.3504545340182987  0.3670668887126359  0.9453727030921726
  0.8429608016293860  0.8564356417508839  0.4448430287387986
  0.8791738860180406  0.1156754727289901  0.0620248984957738
  0.3650063989321430  0.6093172680912158  0.5446543611058128
  0.8762190355364206  0.0713155202414175  0.1952897950335233
  0.3922448144200866  0.6056704164435825  0.6969469197964591
  0.8708921459698350  0.8651525888533524  0.2968127460150992
  0.3791564873879935  0.4046026094413575  0.8055633639942820
  0.1357110920403122  0.5776940801176186  0.3002371591804640
  0.6501103766982989  0.1150326219239616  0.8044689727200586
  0.1641171264160830  0.3812934679188892  0.1967312090539993
  0.6368237477714584  0.9088789223105103  0.6951986811946261
  0.8713363935846333  0.6233218296232709  0.9496309661109449
  0.3264191168308644  0.1025646404991164  0.4557713269525394
  0.8425139126945423  0.3798364604360262  0.5496875808974350
  0.3656591339005445  0.8712076516972636  0.0642545487087149
  0.1324560251717311  0.1145314092248905  0.5651825280718611
  0.6465527507362282  0.6148138067217652  0.0387608619572365
  0.1871479224689911  0.8814676210819806  0.9494829105275719
  0.6343492328123159  0.3387160655109870  0.4515516464234017
  0.6165251149992328  0.3834981873416333  0.2986457105200231
  0.1522364143280749  0.8673870760252800  0.8082072180019426
  0.1343607356911832  0.0958684961977317  0.7075316384247493
  0.6431515144357079  0.5699255580025477  0.1933699360340656
  0.8763053902663662  0.4032117058420129  0.6803768356358619
  0.3924062816643625  0.8805121280985229  0.2020206555936819
  0.3830832004224434  0.0911568686039423  0.3066474429178326
  0.8876796505496298  0.5963079455486509  0.7971313736499835
  0.1965040661522830  0.0884353140193317  0.0568345291522677
  0.6324306218580519  0.5779598375842648  0.5437717870419027
  0.6620834137370110  0.4151420396941266  0.9426960289059487
  0.1327089512639600  0.9200486544181722  0.4503492328271602
  0.3878326972027998  0.0828643604041107  0.9486116661887751
  0.8335502843266444  0.5774921652848841  0.4455206373322211
  0.8639641820175417  0.4110974139640483  0.0531341572496524
  0.3723648638339864  0.9022095409803298  0.5528091202266703
  0.1802943259316198  0.0989230858449017  0.2045884961936891
  0.6611571218426485  0.5875902921280336  0.6937947898876738
  0.1784338122179323  0.8956240354855236  0.3080359182972459
  0.7048760275173096  0.3957070957787939  0.7972939753950153
  0.8394370639961501  0.5810404510900352  0.3046524695180574
  0.3315709276412158  0.1025576031223850  0.8040612275391953
  0.8413772677249978  0.3732979873097797  0.1989150965753898
  0.3317217244294268  0.9020053483953778  0.6959762646494222
  0.8924521420553090  0.9141041079378999  0.9452632492525190
  0.3241193357343487  0.4045145196919338  0.4443404316353182
  0.8344284446145130  0.0653263064389032  0.5469379929110653
  0.3699876544371994  0.5894205399597789  0.0519079753558379
  0.1495821122893403  0.4230129770526041  0.5573351905777011
  0.6881503085768912  0.9049968090345621  0.0486141465089430
  0.1579949031674107  0.5869345734780343  0.9488435335693974
  0.6401486820036737  0.0692914480913642  0.4402834332547959
  0.3472128039870015  0.3687601495444010  0.3112676722258794
  0.8478252857136752  0.9011018422632496  0.8007120671716402
  0.8517418552427269  0.0888911126432654  0.6998139304605137
  0.3544178152965225  0.5685051414126434  0.1926096464141362
  0.1870341141604850  0.3884527106821156  0.6930379934265826
  0.6651528777000828  0.8739221564199910  0.1894892880583288
  0.6760284987864063  0.0831972750191729  0.2978683064829635
  0.1654753479275168  0.6016700147206178  0.7964739921229065
  0.0639348730248415  0.1630535117434634  0.3289692085605888
  0.6150605380596061  0.6821877816699788  0.8292662532080934
  0.5851224582242115  0.3262969676434653  0.6552112432508496
  0.1096246061013478  0.8190191167693066  0.1797751432728930
  0.3963524642311512  0.1709106951963738  0.6759657872698280
  0.9235489655598330  0.6568089031617146  0.1732495770994000
  0.8913654938510167  0.3321533953709364  0.3318904544606028
  0.4325546267811060  0.8376178207261471  0.8211772458614545
  0.1059812369703600  0.1723241880247926  0.9229491683828498
  0.5719292673475271  0.6394043332148880  0.4126372158541413
  0.0610128653503944  0.8495750438714821  0.5794304902859890
  0.6183328016480309  0.3255495345630303  0.0829845018895198
  0.9149293343999990  0.6522148852126206  0.5886277833813114
  0.4539498552103641  0.1537763368992212  0.0716315076023933
  0.9204284052786119  0.3481271303588187  0.9292615990280406
  0.4215341867006144  0.8329067322872306  0.4121918697922154
  0.9135462524216428  0.8313089666046694  0.6839444582377670
  0.4243689993642465  0.3056924945615121  0.1684257708110161
  0.9210947567544199  0.1739961879817982  0.8354894066470038
  0.3994167444453715  0.6563431154881606  0.3266092343898690
  0.0768433389227106  0.3637145556889390  0.8401736641637799
  0.5895774429244012  0.8117871703049758  0.3236678379214349
  0.1120552119811099  0.6672177724957823  0.6702966355365888
  0.5898243820039762  0.1340352326135141  0.1747199475035325
  0.3863208572897795  0.3167013614198303  0.5773021504731721
  0.9468276585516735  0.8148378075961874  0.0812798736089968
  0.8957452578875337  0.1728299212867171  0.4181819211973636
  0.4203975316621819  0.6605168015429086  0.9057888207528517
  0.0768119870446646  0.3420619904224034  0.4148231714256803
  0.5990521798555413  0.8459300753287492  0.9134744263388052
  0.5668834212752211  0.1425618122365409  0.5819680519707302
  0.1206484731457469  0.6399919079202452  0.0901818421425831
 
 -0.34675902E-02  0.45289304E-02  0.32072300E-02
 -0.42136585E-02  0.25771455E-02  0.54479083E-02
 -0.27790373E-02  0.54255287E-02 -0.51443785E-02
 -0.63926386E-03 -0.32638567E-02 -0.53872074E-02
  0.46934085E-02 -0.39192470E-02 -0.32758771E-02
  0.27240885E-02  0.11258020E-01  0.33550786E-02
 -0.33019626E-02  0.21950581E-02 -0.50885341E-04
 -0.50391939E-03 -0.10646487E-02  0.57611766E-03
  0.48622438E-02 -0.86337532E-02 -0.35975846E-03
 -0.50764925E-02 -0.96867613E-03  0.84415067E-03
 -0.69898294E-02 -0.53404696E-02 -0.25964116E-02
  0.91117678E-02  0.15778867E-02  0.82516405E-03
 -0.60103468E-02  0.35172446E-02 -0.34195391E-02
  0.71147401E-02  0.80960554E-02  0.65581727E-02
 -0.64827731E-03  0.40311892E-02 -0.18085444E-02
  0.10941382E-01  0.43367119E-02  0.44484093E-02
  0.23936666E-02 -0.14784844E-02 -0.30958976E-03
  0.31060001E-02  0.18992536E-02  0.16326013E-02
  0.13636351E-02 -0.16658103E-02  0.56321668E-03
 -0.15133878E-02 -0.79683620E-02 -0.39259303E-03
  0.33851458E-02  0.24748003E-02 -0.40407773E-02
 -0.10829755E-03  0.64937858E-03  0.11439875E-03
  0.57270310E-02  0.45627567E-02  0.82474578E-03
  0.23527313E-02  0.11138249E-02 -0.38474976E-02
 -0.55412934E-02  0.18867664E-02 -0.69362280E-02
  0.18595062E-02  0.31373560E-02  0.33589642E-02
 -0.47106125E-02 -0.31063890E-02  0.19471116E-02
 -0.22895942E-02  0.45619298E-03 -0.51239678E-02
  0.38536590E-02 -0.93969198E-04 -0.13427773E-02
  0.71873983E-03 -0.40543136E-02  0.34799708E-03
  0.18049341E-02 -0.22181344E-02 -0.69916230E-03
 -0.81844822E-03  0.80418381E-02 -0.22362850E-02
  0.63542761E-02 -0.98695672E-02  0.14323388E-03
 -0.76538434E-02 -0.11338926E-02  0.23332591E-02
 -0.19201397E-02  0.14809504E-02 -0.34546056E-03
 -0.35692091E-02 -0.34635871E-02  0.41094732E-02
 -0.36474268E-02 -0.59187824E-02  0.17682221E-02
 -0.37154775E-02  0.75072019E-02  0.29424948E-02
 -0.16625037E-02  0.15979961E-02 -0.61980326E-03
 -0.47415947E-02  0.42325964E-02 -0.33059401E-02
  0.60635043E-02  0.48889290E-02 -0.99548920E-02
  0.18773029E-02 -0.45553075E-02  0.35308478E-03
  0.31605396E-02 -0.37537832E-02  0.25854090E-02
  0.66642928E-02  0.58342166E-02 -0.37666941E-02
  0.32228003E-02 -0.95435394E-02 -0.22937729E-02
  0.60941799E-02  0.71493346E-03  0.12161655E-01
  0.74083920E-04 -0.39606870E-02  0.81514823E-03
 -0.37466599E-02  0.56403173E-02  0.20566933E-02
  0.40424002E-02 -0.69068725E-02 -0.23126157E-02
  0.37475239E-03 -0.34615203E-02  0.62976477E-03
 -0.22340886E-02 -0.39090322E-02  0.24265470E-02
  0.20238032E-02 -0.20683245E-02 -0.49105608E-02
 -0.72816493E-02 -0.28713898E-02  0.41312185E-02
  0.57814955E-02  0.32350662E-02  0.41249784E-03
 -0.70189295E-02  0.11178427E-02 -0.47386010E-02
  0.26283765E-02  0.27563831E-02 -0.21770045E-03
 -0.35404944E-02 -0.32402935E-03 -0.48691512E-02
  0.19647139E-02 -0.38784223E-02 -0.26471296E-03
  0.14385198E-02 -0.82499330E-03 -0.53190234E-02
  0.43800378E-02  0.38651129E-02 -0.38448709E-02
  0.31199178E-03  0.37622777E-02 -0.16142258E-02
  0.74453955E-02  0.33144003E-02 -0.18474284E-02
  0.22680795E-02  0.39216562E-02 -0.26224736E-02
  0.54778221E-02  0.67463665E-02  0.46235874E-03
 -0.29253171E-02  0.21943053E-02 -0.89781109E-03
  0.82743107E-02  0.33175443E-02 -0.47233752E-02
 -0.85770706E-02  0.47725122E-02  0.13627757E-01
  0.11173063E-02 -0.48692300E-02 -0.47207712E-02
  0.75029097E-02  0.40889662E-03 -0.91166945E-03
 -0.30848148E-02 -0.14555392E-03  0.28422587E-02
 -0.46514432E-02  0.75845450E-03  0.24228806E-02
  0.60264433E-02 -0.61642418E-02 -0.38825997E-02
  0.29222528E-02 -0.39582433E-03 -0.11327641E-02
 -0.37193565E-02 -0.31389381E-02  0.11938044E-02
 -0.29816652E-02  0.41689073E-02 -0.25834608E-02
 -0.33463966E-02 -0.36910795E-02  0.15523806E-02
  0.14097892E-02  0.65391517E-03 -0.23285936E-02
 -0.22520089E-02 -0.34484640E-02 -0.57323728E-02
  0.41202882E-02 -0.82038082E-02 -0.90504614E-02
  0.24254543E-02 -0.31714111E-02 -0.69551499E-03
 -0.32885923E-02 -0.32643337E-02  0.23601769E-02
 -0.37149670E-02 -0.12569651E-02  0.17702357E-02
  0.22254557E-02  0.66947850E-02 -0.16660630E-02
  0.29758715E-04  0.25345048E-02  0.91152054E-02
 -0.34911390E-02 -0.10641052E-01 -0.24638525E-02
 -0.37258285E-02 -0.55386637E-02  0.37722084E-02
  0.64480622E-02  0.29428884E-02  0.76291834E-02
  0.15062760E-02 -0.74479016E-03 -0.31776148E-02
 -0.10209544E-02  0.82186758E-03 -0.42024760E-02
  0.14175855E-02  0.43191977E-03  0.13090789E-02
 -0.36449064E-02 -0.99610859E-03  0.11843339E-02
  0.44569740E-03 -0.97371600E-03  0.36533948E-02
  0.15127476E-02  0.41724114E-03 -0.20174388E-04
 -0.15620054E-02 -0.61041380E-03  0.11589870E-03
 -0.10591644E-02  0.75180625E-03 -0.25313548E-02
  0.76514519E-03 -0.46954940E-03  0.24922480E-02
 -0.61088721E-03 -0.34336858E-04 -0.87112300E-03
  0.18223598E-02 -0.17746686E-02  0.14008579E-02
 -0.40072233E-02  0.10537986E-02  0.17904186E-02
  0.19885664E-02 -0.11761674E-02  0.32023851E-03
 -0.10713656E-02  0.24371751E-03  0.25999913E-02
  0.17656842E-02 -0.86470762E-03 -0.27533772E-03
  0.11858637E-03 -0.24475133E-02  0.11074838E-02
 -0.64756155E-03  0.29953989E-02 -0.14072756E-02
 -0.35297503E-02  0.14114707E-03  0.78363104E-03
  0.24927648E-02  0.12401060E-02 -0.36750577E-03
  0.78817620E-02 -0.27248423E-02  0.33017583E-03
  0.23239303E-02  0.56769821E-03  0.30699184E-02
 -0.42835546E-02  0.72802173E-03  0.21644603E-02
  0.19629449E-02  0.28333220E-02 -0.13192041E-02
  0.15633559E-02 -0.10330596E-02  0.41763499E-02
 -0.48364494E-04  0.51757829E-02 -0.34067688E-02
 -0.10989924E-02 -0.41307677E-02 -0.19621706E-02
 -0.80177912E-03  0.61727110E-03  0.31223721E-02
 -0.17172586E-02  0.15668248E-02  0.26362069E-02
 -0.47140691E-02 -0.66816480E-02  0.77569083E-03
 -0.95322877E-03 -0.63680959E-02  0.71218938E-03
  0.20812168E-02  0.29416426E-02  0.12927999E-03
 -0.20309997E-02 -0.14935494E-03  0.42724107E-03
 -0.39883431E-02 -0.29890636E-02  0.59759544E-02
 -0.22256481E-02  0.28768257E-03 -0.36171338E-02
 -0.18762973E-02  0.27769972E-02  0.38338556E-02
  0.47639866E-02 -0.29971576E-02 -0.34541552E-02
  0.65656172E-02 -0.12201296E-02 -0.86941141E-02
  0.16115874E-03  0.10401020E-02  0.22832849E-03
  0.61528956E-03  0.48558686E-02 -0.46608680E-02
 -0.13476898E-01  0.15329214E-02  0.31924414E-02
 -0.62014770E-03  0.43841160E-02  0.16755668E-02
 -0.74986957E-02 -0.39146422E-02  0.35294505E-02
  0.95655368E-03  0.48072018E-02  0.41132392E-02
 -0.71883445E-02 -0.43266829E-02 -0.83299915E-02
  0.34533119E-02  0.26106847E-02  0.56935861E-02
 -0.25062898E-02  0.22470550E-02 -0.17167137E-02
  0.11691129E-02 -0.10101657E-02 -0.22498190E-02
 -0.16209927E-02 -0.58674465E-03  0.27650008E-02
  0.36504576E-02 -0.94297395E-03 -0.23100895E-03
 -0.30365772E-03  0.11531609E-02  0.27921773E-04
 -0.73431594E-02  0.16419133E-02 -0.27324552E-02
  0.27393331E-02  0.93916771E-03  0.49415671E-02
  0.88085905E-03  0.37032429E-02  0.10522894E-02
 -0.33097588E-02 -0.48183769E-02 -0.23744681E-02
  0.10234334E-03 -0.37997791E-02  0.74275233E-03
  0.59886862E-03 -0.41482790E-02  0.50638996E-02
 -0.31287793E-03 -0.36946152E-02  0.35317699E-03
 -0.57555580E-02 -0.78764392E-03 -0.37799703E-03
 -0.34993467E-02  0.35702584E-03 -0.55262535E-02
  0.93228861E-02  0.44460181E-02  0.37374755E-02
 -0.38558414E-02  0.40081534E-02 -0.47319449E-02
 -0.11388934E-02  0.25118377E-02  0.26841782E-02
 -0.24753918E-02 -0.24875792E-02 -0.66392148E-02
 -0.15943678E-02  0.30240336E-03 -0.11663413E-02
 -0.52473496E-02  0.42384845E-02  0.62005937E-03
  0.63378553E-03 -0.66155806E-02  0.13983084E-02
 -0.67725029E-04 -0.56218086E-03 -0.21789154E-02
  0.10254221E-02  0.17197606E-02 -0.67498288E-02
  0.78117830E-03  0.12901762E-02  0.41316403E-03
  0.54129781E-02  0.11986000E-02  0.83617984E-02
  0.19690975E-02  0.13899796E-02 -0.65131381E-02
 -0.13969970E-02 -0.12981778E-01  0.36930957E-02
  0.29133503E-02  0.15899757E-03 -0.27859706E-02
 -0.35620005E-02  0.88655962E-02 -0.41091851E-02
  0.32971443E-02  0.26315102E-02  0.23228534E-02
 -0.48496895E-03  0.12896771E-02  0.34930096E-02
  0.45679356E-02 -0.31382296E-02  0.26863195E-02
  0.70379529E-02 -0.14564352E-02  0.96405615E-03
  0.31546496E-02  0.10560502E-02  0.80943096E-03
  0.19551430E-02 -0.92240530E-03  0.15252462E-02
  0.92675501E-02 -0.17799615E-02  0.12647030E-02
  0.28076461E-02 -0.33718626E-02 -0.28319218E-02
  0.15991362E-02 -0.63646949E-03 -0.32586811E-02
  0.87244409E-03  0.16337622E-02 -0.61282358E-02
 -0.25960549E-02 -0.23112696E-02 -0.11542284E-02
  0.35553463E-02 -0.47227435E-02  0.16471803E-02
 -0.34355744E-03  0.41304831E-02 -0.24231131E-02
  0.11403352E-02  0.13940480E-02 -0.21803562E-02
 -0.13616892E-02 -0.25404310E-02 -0.65050815E-03
 -0.21517819E-02  0.74261611E-02  0.27096683E-02
  0.28230247E-02 -0.23872215E-02  0.42283165E-02
 -0.51127497E-02  0.48261347E-02 -0.19084672E-02
  0.24136515E-02 -0.47774194E-02  0.47230555E-02
  0.15722074E-02 -0.97839578E-03  0.69669495E-02
  0.12231233E-02  0.19861695E-02 -0.58157501E-02
 -0.16505320E-02 -0.10102164E-02 -0.24814039E-02
  0.15917631E-02 -0.33515059E-02 -0.17230555E-02
  0.72605682E-03  0.50388728E-02 -0.41062288E-02
 -0.68327998E-04 -0.18381080E-02 -0.19540307E-02
  0.27688552E-02  0.73608854E-02  0.52067868E-03
 -0.32467007E-02  0.50393689E-02  0.39213261E-03
 -0.73196494E-03  0.49785872E-02 -0.32598257E-02
 -0.38003942E-02  0.21968423E-03  0.44871837E-02
  0.42989248E-02  0.23441179E-02 -0.71050838E-02
  0.13811761E-02 -0.88405693E-02  0.20531961E-02
  0.53884261E-02  0.40902887E-03  0.19933549E-02
  0.22657811E-02  0.19409385E-02 -0.33430309E-02
 -0.42682865E-03 -0.22257888E-03  0.20749319E-02
 -0.67836430E-02  0.55382090E-03  0.29360007E-02
  0.83170454E-02  0.75971633E-03  0.11905005E-02
 -0.86805647E-04 -0.25259059E-02 -0.41410541E-02
  0.23180000E-02 -0.12385338E-02  0.15901720E-02
  0.31753400E-02 -0.24194171E-03  0.94131888E-03
  0.28403811E-03  0.70902575E-02  0.73077646E-02
 -0.67932412E-02  0.29575685E-02  0.31537021E-03
 -0.50210019E-02 -0.80998090E-03  0.37009203E-02
 -0.33803922E-02 -0.90843573E-04 -0.26574465E-02
 -0.33610897E-02 -0.64803005E-02 -0.37624556E-02
 -0.38378345E-02  0.84067053E-03 -0.44847907E-03
 -0.71625204E-02  0.21821298E-02 -0.20329552E-02
  0.71060959E-03  0.11681530E-02 -0.17756716E-02
 
           1
   2.00000000000000     
  0.17304030E+01  0.19941541E-03  0.00000000E+00  0.00000000E+00
  0.21356492E-01  0.97077881E+00  0.13623767E+00
  0.29653547E+00  0.47286878E+00  0.62098871E+00
  0.28418296E+00  0.53567470E+00  0.85970304E+00
  0.95819089E+00  0.97674057E+00  0.39694118E+00
  0.39866944E-01  0.46020545E-02  0.98712580E+00
  0.71998723E+00  0.48775440E+00  0.37235220E+00
  0.12350060E-01  0.47122005E+00  0.14262170E+00
  0.30349900E+00  0.30678254E-01  0.12649738E+00
  0.75860542E+00  0.92768589E+00  0.62155619E+00
  0.76498487E+00  0.27723884E+00  0.87820548E+00
  0.74272955E+00  0.72871207E+00  0.38493679E+00
  0.26581561E+00  0.25839368E+00  0.87005768E+00
  0.77907824E+00  0.24092892E+00  0.13921609E+00
  0.24045651E+00  0.76965763E+00  0.59663302E+00
  0.22987422E-02  0.67187210E-02  0.78006992E+00
  0.23675903E+00  0.47322721E+00  0.37189808E+00
  0.98045847E+00  0.75025514E-02  0.64784803E+00
  0.13085187E-01  0.48287449E+00  0.62955518E+00
  0.52183115E+00  0.99823681E+00  0.24985813E+00
  0.97743369E+00  0.52825181E+00  0.88560737E+00
  0.51644158E+00  0.98679421E+00  0.36419935E+00
  0.25662673E+00  0.22865855E+00  0.38328102E+00
  0.75035049E+00  0.76776390E+00  0.98209263E+00
  0.74944390E+00  0.50575406E+00  0.61661745E+00
  0.27735976E+00  0.72823909E+00  0.99101014E+00
  0.23387789E+00  0.24734832E+00  0.75468371E+00
  0.74084440E+00  0.48785842E+00  0.11660250E+00
  0.73355885E+00  0.22178753E+00  0.37006067E+00
  0.48959365E+00  0.73670684E+00  0.49512704E+00
  0.47870410E+00  0.25673113E+00  0.99610677E+00
  0.97389300E+00  0.52525409E+00  0.37718389E+00
  0.50732677E+00  0.25258388E-01  0.74073383E+00
  0.98576344E+00  0.46394246E+00  0.25175880E+00
  0.53927704E+00  0.53405463E+00  0.76965814E+00
  0.22336406E-02  0.27339847E+00  0.20992088E-01
  0.47294479E+00  0.46450879E+00  0.49010112E+00
  0.53542404E+00  0.94707871E+00  0.98911884E+00
  0.23605435E+00  0.24779303E+00  0.13765792E+00
  0.21400674E-01  0.74546093E+00  0.75750471E+00
  0.76777215E+00  0.72234165E+00  0.24188289E+00
  0.32704446E-01  0.98924393E+00  0.25952301E+00
  0.48905199E+00  0.77015751E+00  0.73997924E+00
  0.49823683E+00  0.22628935E-01  0.85937835E+00
  0.22080157E+00  0.23296560E+00  0.26782950E+00
  0.25200282E+00  0.23436181E+00  0.99090206E+00
  0.35111815E-01  0.74566516E+00  0.48974923E+00
  0.98685012E+00  0.47505146E+00  0.49672109E+00
  0.74703944E+00  0.27206912E+00  0.25400997E-02
  0.85558038E+00  0.25196871E+00  0.76073645E+00
  0.49675045E+00  0.45301598E+00  0.23897100E+00
  0.20720536E-01  0.45665093E+00  0.75245394E+00
  0.50585337E+00  0.74326735E+00  0.23601859E+00
  0.49136850E+00  0.22805419E+00  0.48996503E+00
  0.75621546E+00  0.73021870E+00  0.10949996E+00
  0.75649616E+00  0.22234105E+00  0.49082623E+00
  0.18353683E-01  0.76462338E+00  0.98245643E+00
  0.11928124E-01  0.50964342E+00  0.39931832E-02
  0.50455505E+00  0.51086712E+00  0.61471587E+00
  0.50715442E+00  0.53830401E+00  0.97829732E+00
  0.99837508E+00  0.49116564E-01  0.49735661E+00
  0.51980920E+00  0.96557441E+00  0.13165889E+00
  0.21269514E+00  0.25886004E+00  0.50068278E+00
  0.73394321E+00  0.55154265E+00  0.87405257E+00
  0.50498992E+00  0.99653277E+00  0.49781525E+00
  0.94730431E+00  0.23866472E+00  0.25144359E+00
  0.76367258E+00  0.74402041E+00  0.74623415E+00
  0.24719238E+00  0.71347085E+00  0.24751741E+00
  0.75838471E+00  0.22995201E+00  0.62585294E+00
  0.99488245E+00  0.72153573E+00  0.25608757E+00
  0.51590714E+00  0.28933413E+00  0.74727288E+00
  0.51850750E+00  0.21173100E+00  0.26584588E+00
  0.28108886E+00  0.75714639E+00  0.74272626E+00
  0.25906203E+00  0.48619783E+00  0.11973035E+00
  0.48304812E+00  0.99631864E+00  0.63098929E+00
  0.75835994E+00  0.14105228E-01  0.87229307E+00
  0.22727451E+00  0.73310645E+00  0.37540127E+00
  0.26250920E+00  0.75130810E+00  0.87868949E+00
  0.73861615E+00  0.96838779E+00  0.37204008E+00
  0.75298787E+00  0.12246231E-01  0.12032649E+00
  0.22840118E+00  0.27547603E-02  0.63085068E+00
  0.78964686E+00  0.76825847E+00  0.86474709E+00
  0.26351778E+00  0.96887413E+00  0.38395094E+00
  0.76931963E+00  0.71249121E+00  0.51807596E+00
  0.26622245E+00  0.74282058E+00  0.13037418E+00
  0.21622963E+00  0.24575781E+00  0.62900698E+00
  0.52003979E+00  0.49431049E+00  0.10593705E+00
  0.22905252E+00  0.98884987E+00  0.87466838E+00
  0.48186611E+00  0.48270020E+00  0.35850425E+00
  0.29222369E+00  0.97693956E+00  0.25242116E+00
  0.78367911E+00  0.50147628E+00  0.73951291E+00
  0.24252295E+00  0.97981207E+00  0.75500572E+00
  0.74147532E+00  0.47233131E+00  0.25123710E+00
  0.29599125E+00  0.98787554E+00  0.21650338E-02
  0.74089866E+00  0.47620378E+00  0.49648450E+00
  0.23523790E+00  0.99990215E+00  0.51277090E+00
  0.76240780E+00  0.51447667E+00  0.99855541E+00
  0.73895367E+00  0.99431744E+00  0.75042615E+00
  0.25837359E+00  0.48125167E+00  0.25226976E+00
  0.27487392E+00  0.50521618E+00  0.74691022E+00
  0.77407655E+00  0.96387123E+00  0.23878923E+00
  0.24399618E+00  0.51786882E+00  0.49961560E+00
  0.78159957E+00  0.17456858E-01  0.14489868E-02
  0.73599942E+00  0.95606591E+00  0.49772623E+00
  0.26352598E+00  0.48198291E+00  0.99688085E+00
  0.98224088E+00  0.25710008E+00  0.37540907E+00
  0.51836223E+00  0.75889378E+00  0.86776438E+00
  0.48110270E+00  0.23554875E+00  0.62428930E+00
  0.27054400E-01  0.72994832E+00  0.12918770E+00
  0.98475264E-02  0.26480419E+00  0.88245181E+00
  0.49444056E+00  0.73366562E+00  0.36692160E+00
  0.15789180E-03  0.75307638E+00  0.63295913E+00
  0.51998132E+00  0.23378339E+00  0.12288434E+00
  0.16430285E+00  0.37420686E+00  0.51210900E-01
  0.62831411E+00  0.85111948E+00  0.55010382E+00
  0.66428280E+00  0.11195064E+00  0.95068858E+00
  0.13623218E+00  0.61124263E+00  0.44537073E+00
  0.35031312E+00  0.36612216E+00  0.94542553E+00
  0.84326956E+00  0.85687204E+00  0.44485262E+00
  0.87887258E+00  0.11565332E+00  0.62056590E-01
  0.36441472E+00  0.60887383E+00  0.54509764E+00
  0.87588885E+00  0.71358199E-01  0.19502149E+00
  0.39196646E+00  0.60608239E+00  0.69723130E+00
  0.87159890E+00  0.86470795E+00  0.29655653E+00
  0.38013052E+00  0.40442160E+00  0.80491846E+00
  0.13573500E+00  0.57784838E+00  0.30025410E+00
  0.65020166E+00  0.11575301E+00  0.80412325E+00
  0.16211778E+00  0.38152088E+00  0.19696801E+00
  0.63673175E+00  0.90952932E+00  0.69532297E+00
  0.87022394E+00  0.62274108E+00  0.94989277E+00
  0.32656102E+00  0.10327780E+00  0.45607643E+00
  0.84144750E+00  0.37919458E+00  0.54906969E+00
  0.36617144E+00  0.87159496E+00  0.64676880E-01
  0.13208421E+00  0.11486477E+00  0.56505519E+00
  0.64672619E+00  0.61466395E+00  0.38593978E-01
  0.18690744E+00  0.88138058E+00  0.94968801E+00
  0.63489079E+00  0.33857617E+00  0.45153451E+00