Na88 Ge16 P8 Se96                       
   1.00000000000000     
    13.9614333504000001    0.0000000000000000    0.0000000000000000
     0.0000000000000000   13.9614333504000001    0.0000000000000000
     0.0000000000000000    0.0000000000000000   27.9228667008000002
   Na   Ge   P    Se
    88    16     8    96
Direct
  0.7163595570155745  0.7641222167330448  0.9806402302226784
  0.4547861052032831  0.2710295973828804  0.4883144728441261
  0.4835355547307956  0.5692803072057503  0.9995870459849661
  0.0927387278325581  0.9485573712907239  0.1141478808559770
  0.2332935826506263  0.0318957704607229  0.8616645288706833
  0.7097342901520117  0.5281800863572086  0.3787349470300424
  0.1731027617051835  0.5300142689807544  0.1243508146585366
  0.2227992063070221  0.2445063343847236  0.2438377745652119
  0.7427722299822368  0.7353696928213440  0.6271411806445393
  0.7918329357355844  0.2534328418078012  0.9417474385136261
  0.7620619523661624  0.7436853823510232  0.3778585730100973
  0.4708678707004896  0.5111068540497180  0.8813454097129231
  0.7768205819191910  0.2747776253953514  0.1333172152774727
  0.5174486106161036  0.5319439194083889  0.6239618318735770
  0.9780949432548143  0.7939046141029379  0.0049287197794388
  0.0036724438487909  0.5339050333375718  0.3548122865106713
  0.0045437434794480  0.0183086543489952  0.6184580111453690
  0.9995249231904096  0.4801461155591180  0.6242761727811913
  0.5011174806929033  0.0095942491722880  0.3723048901490728
  0.0359137290524707  0.5223590136536338  0.8622707688524816
  0.4849579673615995  0.0237274710183825  0.5263902484276682
  0.2639660280998742  0.2807714700297290  0.3764460109276672
  0.7489075760774514  0.9984789253750138  0.8728971859812897
  0.2132975537116212  0.2801956554620390  0.4985126628926732
  0.3180111544797180  0.0430428297351178  0.1258479805891464
  0.2321954600832490  0.2532428805900372  0.6332094869123975
  0.7343513504839126  0.7573766063436080  0.1206812338954967
  0.4806901011175957  0.4460843817318781  0.3742407066115906
  0.7648532605194435  0.7315362571298205  0.5144548411118419
  0.4861721105136063  0.0740364254122521  0.0161839314034796
  0.9710533902859199  0.2416654767314518  0.4877059762395508
  0.7982716029683824  0.7626083455698985  0.7360960766207754
  0.9943570752594036  0.5123586770958858  0.2396458479184847
  0.5390197982311333  0.2630564149814347  0.7571123361773828
  0.9704350445504287  0.5307957836103153  0.0150954162288201
  0.5080566835435611  0.7365215031380326  0.5054516471158499
  0.5346208540346669  0.8530830405330976  0.9888258669102332
  0.4956014311334319  0.2954569560252797  0.2405680847474100
  0.2510364130785477  0.7515971589300733  0.7562953527999217
  0.4593855094987370  0.7804950824619507  0.2405976421221937
  0.9906682620965181  0.0219110650626256  0.0189262875547137
  0.5167883272610295  0.4979391513856485  0.7486352066407648
  0.4992041959027529  0.9879770070141141  0.7399360571071979
  0.0009538467317313  0.5060960751280067  0.5002821393555495
  0.2514441390565046  0.3068493033879190  0.8805301180570514
  0.9679705529036199  0.9295145758232922  0.2389874246103699
  0.2340457380500322  0.7695414338851889  0.4977054956040937
  0.6244525359342757  0.2957244527427919  0.0255971002774976
  0.0367491151152771  0.8460232094691336  0.7427099284981559
  0.5057691084431339  0.5346447554799090  0.2547215415626373
  0.0343902155823989  0.5446822482214767  0.7526191080794201
  0.2874438651200538  0.0011354528430366  0.3726648246540971
  0.2551169911172156  0.2543759088631723  0.7388844916029924
  0.4585155824497119  0.5251934763186361  0.1147584320297238
  0.7350698667065300  0.2828099763705836  0.3685563130840171
  0.2269997790573998  0.7442038014923260  0.0022298591459615
  0.9774089450215837  0.2549133277236885  0.0093852000521470
  0.7425996857954105  0.2194387801998807  0.5060737255019179
  0.2591300707675373  0.2649943157369071  0.0045794850747108
  0.9965396625376512  0.7240919978437312  0.5038736791739623
  0.5106672645752809  0.0171040451422095  0.8682903715601734
  0.0109010767824339  0.0121364034144500  0.4987283819756633
  0.3327481595385477  0.7774321974943963  0.1219890073412014
  0.3269449424759697  0.0412928498103077  0.6370127593419306
  0.0049476502412978  0.1984120443652142  0.2482333286294564
  0.7721285204695660  0.7390955373603625  0.8545348622869270
  0.1921899925436301  0.7283929506543789  0.2068692561543542
  0.7992035141643424  0.2374718458018767  0.7698638072870697
  0.7769293442069115  0.7778629395106590  0.2283113714029299
  0.0085435656853196  0.1716592021166310  0.7354793641977230
  0.7517802689610312  0.2407062979918832  0.2560150773043244
  0.2500675353780580  0.7436157963130547  0.6261165158749975
  0.2397803711220194  0.3114925352925499  0.1107180019563522
  0.6755554721881366  0.0141550064710715  0.6277512660578098
  0.9882108247583387  0.9921836290447722  0.8731907022587312
  0.2318366864177062  0.7273278403663691  0.3692391789160551
  0.2575295105225248  0.6830912563567374  0.8814703754982319
  0.7438566355415506  0.0187374861126656  0.3751132597050396
  0.7812818375840097  0.0238844479389669  0.1166029524747220
  0.7971976721848528  0.4817834075549468  0.6113862631800595
  0.7194394628878944  0.5150627564345217  0.8825156829034762
  0.0183129090748766  0.9711935396074106  0.3595715559702602
  0.7483892398306763  0.2345701233814819  0.6308759885169115
  0.4916500862519029  0.0429988897086604  0.2182926997326381
  0.3032455750417443  0.4865229467177657  0.6293134121063348
  0.7654356921984129  0.5173487599834650  0.1289729621778737
  0.5274593616239917  0.7396590771897904  0.7380126308313477
  0.4715216026265776  0.4813639192825890  0.5090677678498977
  0.2334882065611691  0.9789139106228836  0.2432875812521414
  0.7785035419853953  0.4823144432626199  0.7511566398331617
  0.2481169177564140  0.9886047908171220  0.7485329349169644
  0.7439286923965239  0.5102047057649592  0.2534313437646430
  0.2508759142232591  0.0052617227421205  0.0001007421461223
  0.7400697984665757  0.4781318434953482  0.4977997638510103
  0.2462786571074222  0.0463865256064223  0.5006138614873079
  0.7097367152000897  0.5154863842035095  0.9966004177342352
  0.7550361480950348  0.9940346169752601  0.7487536564159577
  0.2561506803274410  0.4886223465709477  0.2531341159256770
  0.2717043734609186  0.4862298025261693  0.7493952667638462
  0.7456223804460255  0.0251662310336004  0.2534724749049740
  0.2418259813684200  0.5355761513503601  0.5022298702911793
  0.7404144988995078  0.0249514973133715  0.9965021271614024
  0.7590062812121344  0.9543461754952896  0.4953354913827734
  0.2191711930656509  0.5107988022003809  0.9909155343724930
  0.0019684141630123  0.2582550821991160  0.3708720194941258
  0.5109756291089467  0.7548827302770347  0.8703076747527688
  0.4949449588332784  0.2687596724992759  0.6294956060396510
  0.9823585017783220  0.7523207293875811  0.1324328901179425
  0.0066948675386206  0.2740675402685933  0.8725617759356169
  0.4947330355313996  0.7531440952899842  0.3749820105022131
  0.0004178955093336  0.7518801890408814  0.6223327167215758
  0.5056088184851864  0.2744989858374450  0.1278235854297024
  0.1274689690719130  0.3973235373222221  0.0434124558210749
  0.6796661669171177  0.8832004683939013  0.5609205376656807
  0.6322450299975083  0.1160753095306240  0.9498354665593345
  0.1293005101732697  0.6044768479669916  0.4470702600781659
  0.3450076650182061  0.4327959573970197  0.9481857655214990
  0.8692750043588168  0.8540398284584253  0.4509056151883504
  0.8473201291794122  0.1420569374381408  0.0418888208475411
  0.3514672504798642  0.6248911203479374  0.5519382392237068
  0.8682369414216949  0.0941406627408487  0.1964149231408386
  0.3731320991198609  0.6014874630890980  0.7048715556100504
  0.8311680611238851  0.9201268835498948  0.3022518818181914
  0.3798790541984828  0.3795310385076121  0.7902060464825871
  0.1397615040156589  0.6089076073604084  0.2886195581408761
  0.6570547724621252  0.1013572810694705  0.7897534086537117
  0.1479672232319874  0.3999718450145139  0.2013998839339557
  0.6551964770610751  0.8825512897174121  0.7134050419941502
  0.8133812603790224  0.6031371886730201  0.9483084072143064
  0.3505535330105672  0.1391564105641755  0.4446808487540780
  0.8445042203715769  0.3680291617814704  0.5463156447743840
  0.3596103287415156  0.9053359227834045  0.0441311715106305
  0.1374768157072516  0.1303818007229029  0.5497465672309426
  0.6437362679575795  0.6263465113662562  0.0532615796861191
  0.1398768587307486  0.9145133385692542  0.9629077283847858
  0.6377201668365020  0.3847590794575075  0.4528891130679825
  0.6428032000732944  0.3985878671747738  0.3021502889248762
  0.1510979651094641  0.9096879400042190  0.8102246194122563
  0.1620800618063084  0.0822322030612616  0.6870057096264708
  0.6478230692065166  0.6141312367979932  0.2023508172646273
  0.8919845425843943  0.3999237739364862  0.7015316013616542
  0.3364113503770972  0.8988286166173742  0.1953550912830213
  0.3559902572385560  0.0647630077846393  0.2865959081589410
  0.8598712892987710  0.5957507085529971  0.8021098489778592
  0.1625289497850073  0.1083238382014186  0.0580645285790423
  0.6478079795660209  0.5764926674593310  0.5513389548305507
  0.6079909390993662  0.4146284236646474  0.9548029400602296
  0.1564908260619458  0.9417436959270555  0.4397433549314219
  0.3475903191857285  0.0995116133606104  0.9484560535402002
  0.8486929885375097  0.5600255315601151  0.4480968031518360
  0.8033505185610952  0.4138181733383753  0.0440923186390383
  0.3231165952606098  0.9399197933304353  0.5482088025054347
  0.1699634814216974  0.0814787930878601  0.1890626873207649
  0.6991433187996203  0.5892189830963643  0.6912721880450514
  0.1474928715809184  0.8945856755261390  0.2941531986436901
  0.6783545809490922  0.3878378423414184  0.7968108494011839
  0.8436130270574909  0.6140502157990991  0.3084968401958618
  0.3551488768591652  0.0898809275972766  0.7845819846598133
  0.8457763155955819  0.4014028989040948  0.2145789077448758
  0.3373620486346298  0.8832833179536745  0.6886403906078848
  0.8482820315989616  0.9240338010860479  0.9550862192453776
  0.3226040429090580  0.4256315629012909  0.4510530121092609
  0.8394750748847333  0.0574436210563222  0.5529009203972597
  0.2996757123707500  0.5989174979819702  0.0516841652137853
  0.1493746899989411  0.4451171634141984  0.5569662991902565
  0.6535916607928176  0.9097392937237723  0.0500376151473419
  0.1067834916218001  0.6026406798180513  0.9499127312177110
  0.6447434989108199  0.0387126349698351  0.4513020097455102
  0.3492157952078175  0.3885901695030535  0.3043797246108574
  0.8551585320468943  0.9147047553638242  0.8032949360547065
  0.8364839173892917  0.1081513508188357  0.6980702087392291
  0.3435851936820357  0.5837397870731225  0.2017145110392922
  0.1736888345613048  0.4073323562944036  0.6920199306568837
  0.6706120789513256  0.9364654572506743  0.1939483895483028
  0.6196928781042987  0.1064065763029254  0.2983995591895832
  0.1897765152043323  0.5847948324173168  0.8047863291838094
  0.1101521086230708  0.1581278214434133  0.3374687379252541
  0.5945113365411847  0.6535878959293820  0.8268385926785500
  0.5759909098508109  0.3699004209831389  0.6692808469619600
  0.9511518542714079  0.7167845661608776  0.2101295024435094
  0.4238261399009083  0.1791413352022594  0.6838546231810436
  0.9044113039432973  0.6558925901158017  0.0874496365565425
  0.9169242119552153  0.3434556854134778  0.3146219147922217
  0.3948022029193359  0.8243008208142528  0.8328908325521630
  0.1090650891726425  0.1940549353740253  0.9193047162567265
  0.5930801706980982  0.6652001650221050  0.4187138388772946
  0.1075583785608062  0.8429358526091637  0.5796717764320228
  0.4423814285938760  0.3480845762939417  0.0623197998378951
  0.9125888431258816  0.6491855898807471  0.5777644936529025
  0.3737528627822768  0.2081720264271431  0.1666679682261837
  0.9311783088191569  0.3910868970684517  0.9125135887801011
  0.3972570863321154  0.8442686446234007  0.4245299130602950
  0.8997637550633618  0.8429791640655649  0.6609301812020932
  0.5924923091072791  0.3782515506268004  0.1702747957888057
  0.9150121691895379  0.1679768654447625  0.8378651683813809
  0.4010920358605563  0.6356109339176448  0.3424439416291469
  0.0847647682849208  0.3405686964408248  0.8122383071552618
  0.6036156243048095  0.8231860580132716  0.3259173085515293
  0.0875911806838563  0.6836363761628038  0.6763390532520840
  0.5926408954290202  0.1526202060270292  0.0998183102363874
  0.3887616454378693  0.3312643368642887  0.5783931729632603
  0.9169831709146843  0.8857207048724587  0.1090028162946482
  0.8846390530921744  0.1660408402209946  0.4095720903755546
  0.4388874532161970  0.6999882178106293  0.9345264209925365
  0.0755971112192647  0.3640279538098593  0.4229536131032384
  0.6248565705845008  0.8452160563671707  0.8979264358113966
  0.5800948150168422  0.1828022068118317  0.5759623940550823
  0.1287729961529406  0.7715057643074159  0.1058192489282106
 
 -0.64625921E-02 -0.46424640E-02 -0.27005344E-03
  0.16600602E-02 -0.41729550E-02 -0.25461212E-02
 -0.42693022E-02  0.33481600E-03 -0.52744939E-02
 -0.89930205E-03 -0.58602849E-02  0.22767502E-02
 -0.41625677E-02  0.46155010E-02 -0.21455684E-02
  0.75423646E-02 -0.23171191E-02  0.26299343E-02
 -0.11371799E-01 -0.59768970E-02 -0.43731678E-02
  0.62566171E-02 -0.12478679E-02 -0.22702398E-02
  0.32996574E-03 -0.30090057E-02 -0.18847322E-02
 -0.32421700E-02 -0.14605419E-02  0.56218502E-03
 -0.92527842E-04  0.40579651E-02 -0.51433747E-02
  0.33852813E-02 -0.61696362E-02  0.87416278E-02
  0.69741107E-02  0.19931003E-02 -0.87577554E-03
  0.40627456E-02  0.56548725E-02 -0.93697299E-02
  0.86845478E-02 -0.18262023E-02 -0.33296625E-02
 -0.70102451E-03 -0.54929673E-03  0.32773143E-02
  0.66168629E-02  0.10549394E-02  0.76134419E-02
 -0.46803412E-02  0.31366425E-02  0.47731253E-02
  0.48039263E-02  0.17142174E-02  0.50552558E-02
 -0.32901715E-02 -0.48788554E-02 -0.27872844E-02
 -0.26222608E-02  0.14579454E-02 -0.63255032E-03
  0.24990254E-02  0.78431595E-02  0.56688164E-02
  0.17323591E-02 -0.37143131E-03  0.14047673E-02
  0.67720856E-02  0.95494814E-02 -0.57128551E-03
 -0.25066853E-03 -0.23744576E-02  0.22166315E-02
  0.44051216E-02 -0.48568792E-02 -0.29042837E-02
  0.35327448E-02  0.12254351E-02 -0.34251646E-02
 -0.48358789E-04  0.10560411E-01  0.14779947E-03
 -0.72572195E-02  0.76077910E-03  0.55859429E-03
 -0.18505001E-02  0.18188681E-03 -0.66259863E-03
  0.12909697E-03  0.29642016E-02  0.65750862E-03
  0.30103646E-02  0.51830182E-02 -0.33772711E-02
  0.45546055E-02  0.49521321E-02  0.33787399E-03
 -0.22602443E-03 -0.28317655E-02 -0.12450470E-01
  0.10388854E-03 -0.66669164E-02  0.53499074E-02
 -0.57183776E-02  0.84046379E-03 -0.74941237E-02
 -0.27276186E-02 -0.20199962E-02  0.71372379E-05
  0.93464737E-03  0.45895321E-02 -0.16288883E-02
  0.25817021E-02 -0.53162030E-02 -0.34574831E-02
 -0.43624289E-02 -0.27060503E-02 -0.21632181E-02
 -0.47503555E-02  0.64905266E-02 -0.13601794E-02
 -0.10572310E-02  0.35321049E-02  0.52808215E-02
  0.16657653E-02  0.12168379E-02  0.34816381E-03
 -0.54909008E-02  0.45533338E-02 -0.48128444E-02
 -0.67192400E-02 -0.84870824E-02  0.34080327E-02
  0.35847018E-02 -0.35680586E-02  0.11083238E-01
  0.45441539E-02  0.15304545E-02  0.63471247E-02
  0.53877396E-03 -0.96012049E-02  0.13966452E-02
 -0.12009056E-01  0.51383812E-02 -0.59335973E-02
  0.60213928E-02  0.41278523E-02  0.55099922E-02
 -0.62695565E-02 -0.54664234E-02  0.13996995E-02
 -0.48683193E-02  0.10281399E-03  0.12788190E-02
  0.23903567E-02 -0.60037260E-03 -0.23565718E-02
 -0.26817506E-02 -0.20387729E-02 -0.49138722E-02
  0.61268378E-03 -0.60831527E-03  0.51432508E-02
 -0.77775425E-02  0.91834138E-03  0.47782174E-02
  0.35955040E-02  0.40075389E-02 -0.75588005E-02
 -0.71365039E-02 -0.18559108E-02 -0.96291546E-03
  0.19866307E-02 -0.15818421E-02 -0.55971724E-02
  0.24474786E-02 -0.22373947E-02  0.26631998E-02
 -0.40108249E-02  0.69846150E-03 -0.51155681E-02
 -0.25575559E-02  0.41136758E-02 -0.47509648E-02
 -0.63044828E-02 -0.40729120E-03 -0.38723365E-02
 -0.33228172E-02 -0.72552375E-03  0.23420333E-02
  0.16258026E-02 -0.76150058E-02 -0.33252583E-02
 -0.18324658E-02  0.45167300E-02  0.47501515E-02
 -0.30663813E-02  0.46455653E-02 -0.16287628E-02
 -0.21850223E-02  0.43104309E-03 -0.35519651E-02
 -0.63343245E-02  0.48134038E-02  0.25597124E-02
 -0.57408143E-02 -0.38029561E-02  0.69797623E-02
  0.32291261E-02  0.35634179E-02 -0.28542470E-03
  0.43976343E-02  0.73936589E-03  0.41598948E-02
  0.19523600E-02  0.59807388E-02  0.12602584E-02
 -0.35948558E-02  0.20797797E-02  0.32455442E-02
  0.35930101E-02  0.66111542E-02 -0.12796522E-02
  0.12674088E-02 -0.38726611E-02  0.65014635E-02
 -0.74203355E-02  0.81805594E-03 -0.73799951E-03
 -0.17463958E-02 -0.16558617E-01 -0.24016438E-02
 -0.30662511E-03  0.44042831E-02  0.10384140E-02
 -0.50864105E-02  0.22234765E-02  0.72113313E-02
  0.15937664E-02 -0.19834804E-03 -0.60632082E-02
  0.29798798E-02  0.95990568E-02  0.22790873E-02
 -0.14690673E-02  0.11514134E-02  0.50008824E-03
 -0.23577341E-02  0.43643944E-03  0.27578324E-02
  0.56214498E-02 -0.13609820E-02 -0.17062813E-02
 -0.18294729E-02  0.95699213E-05  0.89355230E-02
 -0.61257327E-02  0.83277949E-02  0.31300863E-02
  0.29429293E-02 -0.29953516E-02  0.69877612E-02
 -0.34328737E-02  0.11724355E-02 -0.34536241E-02
 -0.30185731E-02 -0.15534352E-03  0.23042111E-02
  0.13950824E-02 -0.40949250E-02  0.11079149E-02
 -0.65520414E-02  0.62146867E-04  0.11876283E-02
  0.95049019E-04  0.12032658E-02  0.71263538E-03
 -0.68781917E-02 -0.36371268E-03 -0.34308111E-02
 -0.12817449E-02  0.47502758E-03 -0.67458834E-03
 -0.54140470E-03 -0.28924633E-02  0.24829996E-02
  0.47937895E-03  0.71481093E-02 -0.31768858E-02
  0.62920047E-03 -0.44718702E-02  0.31736303E-02
  0.35629189E-03 -0.21294302E-02 -0.45026617E-02
 -0.20292412E-03 -0.45599888E-02  0.39169206E-04
  0.93074384E-03 -0.39057957E-02  0.23715677E-02
 -0.61340458E-03  0.24991823E-02 -0.10616628E-02
 -0.16845580E-02  0.16125522E-02 -0.39368322E-02
 -0.10058993E-02 -0.27698275E-02 -0.46497838E-02
  0.62046026E-02 -0.94307553E-03  0.33069004E-03
  0.23611617E-02 -0.67630852E-02 -0.81583641E-02
 -0.25292371E-02 -0.83133183E-03 -0.30029147E-02
  0.31917713E-02 -0.31766649E-02  0.35294089E-02
  0.78142037E-02 -0.37149156E-02 -0.14189502E-02
  0.49241671E-02  0.54576254E-03 -0.51068224E-02
 -0.23460496E-02  0.58154092E-02 -0.17322066E-02
 -0.80260156E-02 -0.40994120E-02  0.42583558E-02
  0.30976524E-02  0.32492736E-02  0.30212861E-02
 -0.16989169E-02 -0.49943323E-02  0.24746221E-02
 -0.14975169E-03 -0.30154668E-03 -0.15512232E-02
  0.22572470E-02 -0.61903576E-02 -0.37246724E-02
 -0.21798236E-02 -0.93987302E-03  0.24368838E-02
  0.41067812E-02  0.87122296E-03 -0.27204909E-02
 -0.21834702E-02 -0.49211639E-02  0.41785394E-02
  0.38413789E-03  0.76472538E-03 -0.28866157E-02
  0.68232634E-03 -0.69134548E-03  0.30838821E-03
 -0.95289338E-03  0.16366401E-02 -0.85770070E-03
  0.15447029E-02  0.64670230E-02 -0.37402495E-02
  0.10096849E-03 -0.10323593E-02 -0.26500296E-02
 -0.92318898E-03  0.34960498E-03  0.68640834E-03
 -0.83333594E-03 -0.43143522E-02  0.10511260E-02
  0.21183829E-02 -0.51058952E-03 -0.19344073E-02
 -0.23296641E-03 -0.22836709E-03 -0.10514345E-02
  0.56465938E-02 -0.86602737E-03  0.11679683E-02
 -0.51132334E-02  0.24390228E-02  0.18008734E-03
 -0.17114530E-02  0.18853141E-02  0.43100584E-02
  0.33501295E-02 -0.11851917E-02 -0.10995274E-02
 -0.13635588E-02  0.34989036E-02 -0.46659476E-02
  0.20336394E-02 -0.29243085E-02 -0.35164258E-03
  0.10597174E-03  0.14783213E-03 -0.12659384E-02
 -0.66146463E-03 -0.97054511E-03 -0.44284494E-02
  0.74834659E-03  0.18878280E-02 -0.22745106E-02
  0.15806805E-02  0.81212046E-03 -0.20637094E-02
  0.50868928E-02 -0.41529544E-02  0.22809977E-02
 -0.74610021E-04  0.28867794E-02  0.46635971E-02
 -0.28995289E-02 -0.21071591E-02 -0.15723374E-02
  0.29217987E-02 -0.22513195E-02  0.44122161E-02
  0.76983964E-03  0.62734688E-03  0.21175850E-02
 -0.30111623E-02 -0.12006083E-02 -0.17501237E-03
 -0.19216635E-02  0.22760491E-02 -0.19189676E-03
  0.72134722E-03  0.28873724E-03  0.10961902E-02
 -0.40264949E-02  0.33164608E-02  0.59932168E-03
 -0.15192456E-03 -0.14702126E-02  0.37342368E-03
 -0.14146787E-02  0.28770131E-02  0.18725142E-02
 -0.76476328E-03 -0.10233518E-02 -0.28220061E-02
  0.23195506E-02  0.38055339E-02 -0.30741296E-02
 -0.22387381E-02  0.27058753E-02 -0.36513550E-03
  0.11761539E-02  0.12290167E-02  0.20393208E-03
  0.36382657E-04  0.71180310E-03  0.23904330E-02
 -0.45544371E-02  0.99326564E-03  0.77407746E-03
  0.38798987E-04 -0.10669300E-02  0.18899626E-02
 -0.81681223E-03 -0.29988615E-03  0.46952090E-02
  0.61574508E-02  0.19197798E-03 -0.20606942E-02
 -0.32003090E-02  0.41523373E-02 -0.38635018E-02
 -0.29861149E-03  0.61091827E-03 -0.29361328E-03
 -0.33308593E-02 -0.42797885E-03  0.46692200E-02
 -0.41452361E-03 -0.90629462E-03 -0.58443794E-02
  0.48322004E-02  0.27141034E-02 -0.18780686E-02
  0.50215817E-02  0.79985847E-03 -0.64187620E-03
 -0.10211209E-03  0.10476314E-02  0.79882486E-02
  0.45482250E-02 -0.50362717E-03 -0.20427791E-03
 -0.12211197E-03 -0.24606090E-02 -0.76510501E-03
 -0.27236333E-02  0.23568249E-02  0.17195598E-02
  0.62052011E-03  0.43015284E-03  0.31278995E-03
 -0.41696268E-02  0.89141828E-03 -0.10172250E-02
  0.80889127E-03  0.19706182E-02 -0.11282299E-02
 -0.13808001E-02  0.87608304E-04 -0.32229118E-02
  0.12711985E-02 -0.30293449E-02 -0.59545583E-04
  0.24402234E-02 -0.12394015E-02 -0.34761450E-02
 -0.28921800E-02  0.40934323E-02 -0.30419161E-03
 -0.81225849E-03 -0.19553555E-02  0.32153696E-02
  0.11745763E-02  0.22281461E-02  0.13561776E-02
 -0.25872878E-02 -0.36015278E-02 -0.51249681E-02
 -0.88431180E-03  0.42389043E-04  0.43229473E-02
  0.20079419E-02 -0.50900576E-03 -0.15736855E-02
 -0.22266326E-03  0.28801853E-02  0.10132260E-02
  0.50817744E-02 -0.10629000E-02  0.40592410E-02
  0.35627975E-02  0.37103384E-02  0.57095946E-02
  0.23265074E-02 -0.33309452E-02  0.28140755E-02
  0.25816544E-02 -0.44651541E-02  0.50468201E-03
 -0.31586404E-03  0.46518281E-02 -0.32081199E-02
  0.15249935E-02  0.10826301E-02  0.18354981E-02
  0.17850480E-02 -0.76580283E-03 -0.28884861E-02
 -0.92245369E-03  0.40840966E-02 -0.13695349E-03
  0.61065765E-02 -0.29520756E-02 -0.82457183E-03
  0.32856181E-02 -0.61459617E-02 -0.10608280E-03
  0.29876813E-02 -0.20446901E-02 -0.41743780E-03
  0.29212780E-02  0.63930208E-03  0.36481629E-02
  0.22674617E-02  0.19624996E-02  0.45798244E-02
 -0.17016760E-02  0.38748951E-02  0.59671582E-02
 -0.27302141E-02  0.17002294E-02 -0.33250224E-02
  0.25725321E-03  0.52283522E-03  0.10381054E-02
 -0.32442043E-02 -0.19235815E-02  0.20559662E-03
  0.10677347E-02  0.12078609E-02 -0.44584842E-02
 -0.27527849E-02  0.22533189E-02 -0.22134778E-02
  0.13018016E-02 -0.37509600E-02  0.59653128E-03
 -0.26579468E-02 -0.15216460E-02  0.10698342E-02
  0.21113499E-03  0.53131142E-02 -0.16912754E-02
 -0.26990699E-02 -0.21729103E-02 -0.29157313E-03
  0.40874580E-02  0.95132112E-03  0.35888326E-03
  0.20912571E-02 -0.54995760E-02 -0.80857783E-03
 -0.32476520E-02 -0.19361829E-02  0.53681540E-03
  0.80722969E-04  0.13572648E-02  0.25661565E-02
 
           1
   2.00000000000000     
  0.45130825E+00  0.58633679E-03  0.00000000E+00  0.00000000E+00
  0.71543378E+00  0.76345718E+00  0.98062089E+00
  0.45502391E+00  0.27043181E+00  0.48813210E+00
  0.48292397E+00  0.56932827E+00  0.99920926E+00
  0.92609901E-01  0.94771788E+00  0.11431096E+00
  0.23269729E+00  0.32556949E-01  0.86151085E+00
  0.71081475E+00  0.52784815E+00  0.37892332E+00
  0.17147373E+00  0.52915807E+00  0.12403758E+00
  0.22369548E+00  0.24432758E+00  0.24367517E+00
  0.74281950E+00  0.73493865E+00  0.62700619E+00
  0.79136849E+00  0.25322362E+00  0.94178771E+00
  0.76204870E+00  0.74426669E+00  0.37749017E+00
  0.47135282E+00  0.51022304E+00  0.88197154E+00
  0.77781964E+00  0.27506314E+00  0.13325449E+00
  0.51803061E+00  0.53275399E+00  0.62329072E+00
  0.97933902E+00  0.79364301E+00  0.46902298E-02
  0.35720208E-02  0.53382635E+00  0.35504703E+00
  0.54916208E-02  0.18459776E-01  0.61900333E+00
  0.99885446E+00  0.48059545E+00  0.62461805E+00
  0.50180565E+00  0.98398139E-02  0.37266698E+00
  0.35442406E-01  0.52166011E+00  0.86207113E+00
  0.48458232E+00  0.23936324E-01  0.52634494E+00
  0.26432402E+00  0.28189502E+00  0.37685204E+00
  0.74915574E+00  0.99842572E+00  0.87299780E+00
  0.21426767E+00  0.28156364E+00  0.49847174E+00
  0.31797525E+00  0.42702684E-01  0.12600675E+00
  0.23282650E+00  0.25254712E+00  0.63300147E+00
  0.73485742E+00  0.75755215E+00  0.12043590E+00
  0.48068317E+00  0.44759718E+00  0.37425129E+00
  0.76381365E+00  0.73164524E+00  0.51449485E+00
  0.48590702E+00  0.74062481E-01  0.16136472E-01
  0.97107188E+00  0.24209010E+00  0.48775307E+00
  0.79870284E+00  0.76335082E+00  0.73585418E+00
  0.99500953E+00  0.51306808E+00  0.23967005E+00
  0.53898742E+00  0.26265076E+00  0.75622056E+00
  0.97044993E+00  0.52984074E+00  0.15478608E-01
  0.50723752E+00  0.73664190E+00  0.50491487E+00
  0.53423012E+00  0.85279367E+00  0.98882638E+00
  0.49573532E+00  0.29611441E+00  0.24045141E+00
  0.25140625E+00  0.75083560E+00  0.75604771E+00
  0.45876058E+00  0.78010744E+00  0.24044270E+00
  0.98998777E+00  0.22840844E-01  0.18828864E-01
  0.51663688E+00  0.49844513E+00  0.74901345E+00
  0.49944282E+00  0.98815132E+00  0.73996099E+00
  0.16726549E-03  0.50674835E+00  0.49993742E+00
  0.25048160E+00  0.30563351E+00  0.88077422E+00
  0.96848407E+00  0.92900345E+00  0.23978127E+00
  0.23469670E+00  0.76976067E+00  0.49816011E+00
  0.62452972E+00  0.29434906E+00  0.25697136E-01
  0.35028797E-01  0.84675929E+00  0.74228493E+00
  0.50663168E+00  0.53523608E+00  0.25511620E+00
  0.33492091E-01  0.54389917E+00  0.75271936E+00
  0.28674647E+00  0.11501811E-02  0.37275642E+00
  0.25545941E+00  0.25428990E+00  0.73871570E+00
  0.45813142E+00  0.52490142E+00  0.11440647E+00
  0.73515763E+00  0.28272283E+00  0.36892470E+00
  0.22588563E+00  0.74433536E+00  0.25721032E-02
  0.97792401E+00  0.25548741E+00  0.88437943E-02
  0.74157737E+00  0.21917292E+00  0.50600476E+00
  0.25941466E+00  0.26476771E+00  0.41785827E-02
  0.99689027E+00  0.72377149E+00  0.50406443E+00
  0.51009271E+00  0.17204101E-01  0.86792396E+00
  0.10534702E-01  0.12725695E-01  0.49838809E+00
  0.33184503E+00  0.77737385E+00  0.12171165E+00
  0.32646894E+00  0.41188917E-01  0.63718051E+00
  0.51805493E-02  0.19732118E+00  0.24799515E+00
  0.77186602E+00  0.73974257E+00  0.85487510E+00
  0.19175073E+00  0.72905844E+00  0.20675259E+00
  0.79889051E+00  0.23753359E+00  0.76960939E+00
  0.77602194E+00  0.77855247E+00  0.22849471E+00
  0.77211839E-02  0.17111442E+00  0.73597930E+00
  0.75224285E+00  0.24121676E+00  0.25599463E+00
  0.25069750E+00  0.74372171E+00  0.62641447E+00
  0.24006005E+00  0.31234929E+00  0.11080827E+00
  0.67504050E+00  0.14452939E-01  0.62798373E+00
  0.98872553E+00  0.99313069E+00  0.87309905E+00
  0.23201824E+00  0.72677307E+00  0.36970485E+00
  0.25646653E+00  0.68320844E+00  0.88141752E+00
  0.74360646E+00  0.16365435E-01  0.37494124E+00
  0.78123791E+00  0.24515369E-01  0.11667733E+00
  0.79646903E+00  0.48210192E+00  0.61190278E+00
  0.71966777E+00  0.51503434E+00  0.88208140E+00
  0.18739782E-01  0.97256862E+00  0.35973480E+00
  0.74817879E+00  0.23473507E+00  0.63091181E+00
  0.49131234E+00  0.43061410E-01  0.21849023E+00
  0.30405086E+00  0.48632798E+00  0.62919120E+00
  0.76517362E+00  0.51735013E+00  0.12961298E+00
  0.52658184E+00  0.74085205E+00  0.73823683E+00
  0.47194318E+00  0.48093483E+00  0.50956827E+00
  0.23299644E+00  0.97908186E+00  0.24304021E+00
  0.77807113E+00  0.48229219E+00  0.75132168E+00
  0.24831677E+00  0.98801819E+00  0.74861229E+00
  0.74299010E+00  0.51021361E+00  0.25351641E+00
  0.25088953E+00  0.54340927E-02  0.15178528E-03
  0.73908449E+00  0.47807974E+00  0.49755403E+00
  0.24609504E+00  0.46454574E-01  0.50056554E+00
  0.70965916E+00  0.51507203E+00  0.99677826E+00
  0.75510482E+00  0.99505860E+00  0.74852611E+00
  0.25624081E+00  0.48798174E+00  0.25336143E+00
  0.27175541E+00  0.48592476E+00  0.74907276E+00
  0.74559331E+00  0.24513005E-01  0.25347528E+00
  0.24195931E+00  0.53501664E+00  0.50239974E+00
  0.74032663E+00  0.25309510E-01  0.99642608E+00
  0.75876497E+00  0.95457718E+00  0.49505351E+00
  0.21902710E+00  0.51040202E+00  0.99058249E+00
  0.28572345E-02  0.25811998E+00  0.37089571E+00
  0.51131387E+00  0.75391391E+00  0.86972332E+00
  0.49458264E+00  0.26864058E+00  0.62928052E+00
  0.98281573E+00  0.75186567E+00  0.13268569E+00
  0.78142660E-02  0.27353537E+00  0.87246014E+00
  0.49543843E+00  0.75322228E+00  0.37461623E+00
  0.81819755E-04  0.75271326E+00  0.62220865E+00
  0.50445908E+00  0.27391174E+00  0.12812859E+00
  0.12791271E+00  0.39778900E+00  0.43628858E-01
  0.67942279E+00  0.88248502E+00  0.56109778E+00
  0.63222358E+00  0.11603211E+00  0.94972436E+00
  0.12962386E+00  0.60359007E+00  0.44680348E+00
  0.34469540E+00  0.43266132E+00  0.94836031E+00
  0.86986331E+00  0.85416463E+00  0.45071076E+00
  0.84700734E+00  0.14135197E+00  0.42188112E-01
  0.35152228E+00  0.62500067E+00  0.55173148E+00
  0.86833469E+00  0.94041626E-01  0.19643701E+00
  0.37299560E+00  0.60172191E+00  0.70481012E+00
  0.83138934E+00  0.92105330E+00  0.30198398E+00
  0.37989352E+00  0.37938315E+00  0.79001624E+00
  0.13962926E+00  0.60895769E+00  0.28866872E+00
  0.65693540E+00  0.10073924E+00  0.78982870E+00
  0.14827069E+00  0.39989870E+00  0.20126133E+00
  0.65516310E+00  0.88251858E+00  0.71332973E+00
  0.81419014E+00  0.60301313E+00  0.94839206E+00
  0.34982105E+00  0.13950580E+00  0.44469375E+00
  0.84425905E+00  0.36829924E+00  0.54662436E+00
  0.36009024E+00  0.90516614E+00  0.44052417E-01
  0.13728148E+00  0.13088302E+00  0.54941236E+00
  0.64402759E+00  0.62592760E+00  0.53236393E-01
  0.13989204E+00  0.91453452E+00  0.96281705E+00
  0.63762541E+00  0.38462005E+00  0.45257192E+00