Na88 Ge16 P8 Se96                       
   1.00000000000000     
    13.9614333504000001    0.0000000000000000    0.0000000000000000
     0.0000000000000000   13.9614333504000001    0.0000000000000000
     0.0000000000000000    0.0000000000000000   27.9228667008000002
   Na   Ge   P    Se
    88    16     8    96
Direct
  0.0326122534525756  0.7310624205267633  0.0136625319535057
  0.4599979406327813  0.5081789639696208  0.5093514357233802
  0.5223852074065959  0.5014071780950243  0.8684746893473978
  0.9993938326116101  0.0211395165762669  0.3264812170659951
  0.2518494825597526  0.9842340059183292  0.8810143105384538
  0.9708733365743198  0.5105851585230119  0.3594504687699403
  0.2525966745175268  0.4885502931116100  0.1214282878166905
  0.3273137285892946  0.2681238212046513  0.2435365415818037
  0.7413533543815976  0.7365466214757990  0.6139144881585639
  0.7265163961122413  0.2465296946825012  0.8692997560164858
  0.7385995663452645  0.7416840571464617  0.3877980048199254
  0.2392002351397990  0.2735423939235517  0.8736195000405294
  0.6980627921734247  0.3292991801048950  0.1226938014607236
  0.3189079476507125  0.5048570249248814  0.6280758715976819
  0.9967200047203209  0.9628980145501403  0.0005334111042189
  0.2147178268008189  0.5247877993592623  0.3703821602519848
  0.2722541235124652  0.0193486409841902  0.6293688144259892
  0.9861194724375307  0.5286057106919229  0.6264311693784383
  0.5316039328539794  0.9607893513378379  0.1181548581977216
  0.9977126026191380  0.5187286946737706  0.8795803710587486
  0.4650914288619747  0.0257944939432047  0.4955925726277258
  0.2272131004629012  0.3138581440604425  0.3904958378983368
  0.8196288932757633  0.7737060276583445  0.8843430634707593
  0.7846938354301816  0.2607458584568140  0.4793604868108077
  0.2712476674999003  0.7110840086354876  0.1177596409635917
  0.2261250239272160  0.2603909600764935  0.7611637917065663
  0.7761372017706798  0.5924932574726434  0.1225929883704663
  0.7593750534335747  0.4742533687414783  0.3724181431630897
  0.7185771739952430  0.7346634298532947  0.5028025004569866
  0.5285238943920292  0.9091484865533945  0.9935285349986471
  0.9772870364696356  0.4590320060950460  0.4986712264156790
  0.5135399313050074  0.7732159373894480  0.7542178622905285
  0.0432559539269962  0.8000919131312664  0.2548385243931167
  0.4843172395471019  0.2330476383671929  0.7431941833949607
  0.9719781731319996  0.4584612560390040  0.0023073372380840
  0.4798500459897699  0.7729447498142549  0.4978095027813086
  0.4996710190801110  0.5362010437511090  0.9982258232602919
  0.5187947070814461  0.0346979647615123  0.2461392582045564
  0.2261925563436963  0.7703857333752219  0.7511661744376457
  0.5296815118587312  0.7782900194221714  0.2528485251240222
  0.0413585488291092  0.9907065335724532  0.1405275826538556
  0.5078027723947713  0.4953933338833922  0.7590711447025182
  0.4830210539259204  0.9911576276317861  0.7629205394253519
  0.9554993744720541  0.4794319834938452  0.2512565081437084
  0.2545645100194227  0.1971291943182444  0.0108865631266436
  0.9808888223196249  0.0343054008409465  0.4963705328526468
  0.2469714584473633  0.7865671247259779  0.4894203515273186
  0.7618496052804569  0.2808823179865050  0.9828832189430989
  0.9867321980994073  0.0431675264973784  0.7473198819909205
  0.4761035458717207  0.4826277194638581  0.2407303578841715
  0.0178454626202493  0.6005044861924617  0.7370994383647298
  0.4853893650312807  0.0354152517310474  0.3797870155257256
  0.2552449264981586  0.3022174462353273  0.5096886940496566
  0.7611130606179801  0.8030305506004096  0.0094216767356375
  0.7177258944399154  0.2242969909122168  0.3749310152947111
  0.2517419700448684  0.7053391091458131  0.0025667871676739
  0.0298981768818914  0.2054979796908098  0.0056117056008320
  0.4979910404362922  0.2511972721676504  0.4844915794308575
  0.5164088824038332  0.1745500086925664  0.0066568823695830
  0.9772711129852215  0.7431566316164135  0.4833330280349644
  0.6921775876912081  0.9710483836772460  0.8728452308156474
  0.9899976646065438  0.0487281790939421  0.6215701421377139
  0.9890716803032418  0.4762043319488121  0.1287195182818059
  0.5262123062536466  0.9776577222162658  0.6248364914450096
  0.0089746862937179  0.2219080054742065  0.2538970454375621
  0.8292701978137232  0.7441506649999990  0.7456410432613652
  0.2899906499889757  0.7547298386603418  0.2583854491422107
  0.7735517946853995  0.2670785431294471  0.7393564010013356
  0.7725462201277422  0.7500318971523353  0.2461370092514890
  0.0171523800868778  0.3259064729966996  0.7391045397821310
  0.7778817995787032  0.2697928771545300  0.2464172957214335
  0.2423854127996227  0.7753902837695374  0.6199112482280595
  0.2347977585044893  0.2557838637451983  0.1335662823251413
  0.7460289700341679  0.9643304896001365  0.6330718319530882
  0.9840670243820094  0.9891649014301053  0.8584725657380108
  0.1957928435696693  0.7914689196278674  0.3603607152454568
  0.2582348350844864  0.5209613141361527  0.8824346180135353
  0.7511398580600273  0.9709960463836945  0.3708555657072564
  0.7567605547770445  0.0421551115504785  0.1277041385373868
  0.6787872580002370  0.4791215043991818  0.6203833320825726
  0.7760418147729035  0.5149361767918252  0.8828556585250493
  0.2388840649357035  0.0434429467244876  0.3771162485421446
  0.7341206228711861  0.2272859056412438  0.6121384424510138
  0.2639809280632432  0.9762332456028607  0.1228361768216014
  0.2055318863032690  0.2551962406678180  0.6189786781853113
  0.5023672676096463  0.5081686106070753  0.1175650616516199
  0.2961673333980009  0.7351073749250022  0.8607887990006469
  0.4977309010304788  0.5190777155269168  0.3745140341985738
  0.2691178601553213  0.0323764542556414  0.2465921196473405
  0.7810785803152966  0.5182992000104191  0.7485014581649915
  0.2421394332366893  0.0071322441494320  0.7499959880658401
  0.7056229231285320  0.5142968228323632  0.2532079762557501
  0.2493220882170584  0.9480296100181158  0.0098185494983209
  0.7301442565770855  0.4950657606905240  0.5026808828722675
  0.2245090319166317  0.0423144559741229  0.4997642988920692
  0.7329620717226539  0.5300237692431298  0.0073804768999059
  0.7386229003946329  0.0153304029176319  0.7433393592497113
  0.2331759750395199  0.5169241136649495  0.2510000093571189
  0.2938320585845804  0.5154779205403429  0.7589351671512617
  0.7784425039265574  0.9966881146603335  0.2490630150042221
  0.2196658975475284  0.5423723459111800  0.4986955934464453
  0.7572706861484182  0.0340339427376648  0.9907636786080574
  0.7315422593541873  0.9847323757429394  0.5006216788363074
  0.2337552207188858  0.4600307699064993  0.9995862362699992
  0.9944601459542872  0.2557116114984873  0.3706633442060142
  0.5209904946315791  0.7474347199791647  0.8787696596018857
  0.4741417495350178  0.2680039630241058  0.6320675418705550
  0.0275331722121091  0.7301285562855645  0.1372942671610471
  0.0074553945867256  0.2476658739140908  0.8681349407405029
  0.4827608429878183  0.7592288773693803  0.3822259874710366
  0.9904226694552924  0.7839841941471613  0.6144065492696648
  0.4903723828659061  0.2509588949310874  0.1109142748588629
  0.1261959108904141  0.3667399278280613  0.0532969297365673
  0.6159366140824133  0.9002734827584262  0.5483560687641973
  0.6646616999049345  0.1285388761308388  0.9379866993328370
  0.1187040881912795  0.6299143432913671  0.4452621256231193
  0.3364500668858371  0.3704243486366412  0.9524199751837105
  0.8323781575235512  0.8859415938553861  0.4551728427353746
  0.8658435190735552  0.1329054131426528  0.0324680016725934
  0.3358092110745184  0.6381572448805364  0.5423523681297712
  0.8728249307301789  0.0979230673920802  0.2025396485442161
  0.3895013009187726  0.6208682731603546  0.7152320256135141
  0.8810689409699669  0.8830408279663641  0.2894534682085788
  0.3597067884770854  0.3706923654808964  0.7986688484961421
  0.1262767871589969  0.6258531983390084  0.2933435179087781
  0.6339590288845335  0.1272116785482261  0.7838969057012038
  0.1518130899475698  0.4024007688745180  0.2048442490514471
  0.6380132910404746  0.9052573371298693  0.7047567390603214
  0.8510896508076388  0.6182111018220801  0.9631475579946659
  0.3354555811077324  0.1446966811178902  0.4554400555597119
  0.8265693126921417  0.3903861032820248  0.5533574772405281
  0.3387850420513011  0.8464859275220870  0.0580346165350886
  0.1335311569275659  0.1386010796345372  0.5495779724203007
  0.6382695700548131  0.6379624654560830  0.0523983035958581
  0.1398854743625715  0.8599007685576717  0.9497253282914592
  0.6449443727416706  0.3992274949403646  0.4486081770525306
  0.6083015807412319  0.4177790254168592  0.3084542601701029
  0.1498434049107739  0.9180449153320771  0.7990495267702710
  0.1468335747352219  0.1089195818972778  0.6890569681413294
  0.6179983433746047  0.6110313832623901  0.2046260408104522
  0.8743623830969588  0.4260000880121635  0.7003439915022422
  0.3768259369221491  0.9037161378817015  0.2034895108610466
  0.3627205666597164  0.1012785111325377  0.3050692719650691
  0.8752186907955272  0.5995778493931738  0.8058925860463089
  0.1427680160694923  0.0639283590192811  0.0576084915650202
  0.6326160633502651  0.5907736543239086  0.5520334488846826
  0.6405593765896204  0.4534724569533276  0.9485244024587229
  0.1353879076581207  0.9446994061025697  0.4477717005040454
  0.3534915558813649  0.0322789831433593  0.9593619157764709
  0.8379706199940831  0.5679813264733738  0.4531212708725421
  0.8102682815210328  0.4220291874779047  0.0584287299899176
  0.3246830211825569  0.9362474088128691  0.5443133794333200
  0.1820241917654314  0.1145783428516393  0.1941492723172890
  0.6775051987762873  0.6078550837276733  0.7002661612566016
  0.1742639670651383  0.9302235730374296  0.2937747854154122
  0.6800706020169801  0.4187278677559629  0.8003271212397858
  0.8157004959291982  0.6075573183663711  0.3025475598188239
  0.3416747995172850  0.0947240532314686  0.7998577163175119
  0.8025081517725524  0.4154881766245827  0.1976653175710519
  0.3477703100403149  0.8973326909812005  0.7015878116026936
  0.8524154189606952  0.9200760392521999  0.9395160534704660
  0.3130553331921138  0.4384789596357336  0.4494339225218950
  0.8147216615172262  0.0966168768110671  0.5522103430396986
  0.3397622937459460  0.5580949144760086  0.0481763577199184
  0.1442896541265462  0.4605198254394015  0.5585254721331893
  0.6717737046690202  0.9486243602542349  0.0545471072569794
  0.1379173358137546  0.5639450031603026  0.9619387493536610
  0.6439228599312664  0.0889278817066254  0.4473596378643487
  0.3235369448705182  0.4312960759538891  0.3120906804439226
  0.8378349056088661  0.9335059571981890  0.7936143770011822
  0.8401408133172286  0.1126145090129587  0.6846645633735080
  0.3278333039744081  0.6009554951967878  0.1970514557328283
  0.1835178580305688  0.4344387696160306  0.7044501207659419
  0.6848745474478058  0.9168912446909382  0.1952657448188558
  0.7037035054160858  0.0977595295964563  0.3025549294218137
  0.1834054069120372  0.6170375903716508  0.8078365173579516
  0.1196555184973731  0.1921289879992057  0.3359265681963978
  0.5965446285367002  0.6699848483331557  0.8247182373700388
  0.5989915562091032  0.3341436575221607  0.6721965473412018
  0.1508014956949246  0.8062763388298969  0.1699218666463255
  0.3778731757656077  0.1783960447290078  0.6736173280920923
  0.9667851363307457  0.6380290926506207  0.1869826265740710
  0.9082668901413458  0.3398431340988394  0.3165027826772532
  0.4361971306785230  0.8699945583678788  0.8506892055491846
  0.0966367880751633  0.1485420525950799  0.9047816205813670
  0.5673975323754976  0.6620017663247231  0.4257277873348209
  0.0797103078403060  0.8875330654296938  0.5760440147844000
  0.5653413405809320  0.3471689406214004  0.0564429831231416
  0.9275046642063276  0.6698313226904207  0.5703809596947702
  0.4002964354909565  0.1291414755585036  0.0828644577444709
  0.8981682312468198  0.3167910164880181  0.9124927017017820
  0.3909961194161270  0.8593854279308928  0.4176518404088653
  0.8920293546034758  0.8650976467674715  0.6636214720948884
  0.4043940272440892  0.3576452148902369  0.1570051029344507
  0.9286823067518909  0.1739367782265534  0.8108092290133820
  0.3821236442079909  0.6698117010640274  0.3425189514227332
  0.0955761239516571  0.3596583541896841  0.8314410460139088
  0.5864972101184526  0.8351146367092112  0.3375583818312949
  0.0901898199789763  0.6865867585387647  0.6585605184820269
  0.5872823317183060  0.1846362283770676  0.1620339557695038
  0.3958175937984733  0.3559822563654941  0.5736229110477952
  0.9240618414827795  0.8293973372771174  0.1052234180729973
  0.8874877740605986  0.1600618668069735  0.4093868897251465
  0.4259950466114809  0.6423036015129581  0.9163299390223918
  0.0517208805459709  0.3549685722987636  0.4220357525721941
  0.6327067810707422  0.8031561631946842  0.9258240669637663
  0.5368663591858094  0.1625152655400268  0.5863280872223522
  0.0951185391647167  0.6313215967334629  0.0841329075071375
 
 -0.98058504E-03  0.23741313E-02 -0.23479513E-02
  0.46696944E-02  0.67925842E-02  0.74390172E-02
  0.31106916E-02  0.19879772E-02 -0.43109340E-02
 -0.22931776E-02 -0.31012840E-02 -0.84755448E-02
  0.18312192E-02  0.24494914E-02 -0.58539850E-02
 -0.69825411E-02 -0.11291995E-02 -0.67177673E-02
  0.60456754E-02 -0.28107914E-02 -0.22081256E-02
 -0.28034930E-02 -0.54499480E-02  0.47886244E-02
  0.37628279E-03 -0.69986772E-02 -0.88231004E-02
  0.79026376E-02 -0.36191247E-02 -0.93335115E-03
  0.17832673E-02  0.64948238E-02  0.62443245E-03
 -0.48353609E-03  0.55043364E-02 -0.72205244E-02
 -0.32218869E-02  0.19863243E-02  0.18130842E-02
 -0.12630510E-02  0.41626506E-02  0.29205664E-02
 -0.83233983E-03  0.32635302E-02 -0.37424139E-02
  0.15566449E-03  0.60988698E-02  0.25732377E-02
  0.47352055E-03 -0.51810389E-02  0.17496463E-02
  0.88687803E-02  0.55755327E-02  0.27095068E-02
 -0.25305374E-02 -0.78507588E-02 -0.31086826E-02
  0.31757782E-03 -0.19236301E-02  0.59215792E-02
  0.46939919E-03 -0.21898010E-02  0.59062039E-02
  0.14079621E-02 -0.56604392E-02 -0.40013282E-02
  0.94586230E-03 -0.28145790E-02  0.73809783E-02
 -0.16683051E-03 -0.96568801E-03  0.67353968E-03
  0.24142241E-02 -0.95398912E-03 -0.71476044E-02
  0.13708330E-03  0.47643566E-02 -0.43320051E-02
 -0.97260089E-02 -0.20423143E-02  0.46920219E-03
  0.24020770E-02  0.25263469E-02  0.28745858E-02
  0.99950989E-02 -0.17509007E-02 -0.48913311E-02
 -0.63278552E-02  0.94165141E-03 -0.23812351E-04
  0.16681064E-02  0.56891561E-02  0.63117685E-04
  0.88637610E-03 -0.10842962E-01  0.10200815E-02
 -0.63855017E-02 -0.19261036E-03 -0.59510225E-02
  0.12545050E-02  0.44683795E-02 -0.80042868E-02
 -0.11417522E-01  0.44138166E-02 -0.58210178E-03
 -0.44249242E-02 -0.79660246E-02  0.30229284E-02
  0.18815849E-02 -0.49726610E-02 -0.41795360E-02
  0.48132886E-02 -0.94619580E-02  0.26075468E-02
  0.25602942E-03 -0.12608412E-03 -0.33890834E-02
 -0.67174684E-02 -0.63425217E-03  0.33757819E-02
  0.25684679E-02  0.28801230E-02  0.79015169E-02
 -0.20985782E-02  0.10684204E-02 -0.19431422E-02
 -0.94816694E-02 -0.58121043E-02 -0.23920315E-02
  0.86319224E-03  0.38790042E-02 -0.14638076E-02
  0.40888311E-02 -0.51436440E-02 -0.72473005E-02
 -0.29018908E-02  0.16864618E-02  0.22523059E-02
  0.30050910E-02 -0.19409339E-02  0.34371887E-03
 -0.29610362E-02 -0.10254733E-02  0.27304284E-02
 -0.10364137E-02 -0.72723160E-03  0.36335141E-02
  0.46345715E-02  0.31964480E-02 -0.67887170E-02
  0.36741377E-02 -0.10769734E-03 -0.18608560E-02
 -0.11518760E-01 -0.58823382E-02  0.41315629E-02
  0.85943138E-02 -0.22214532E-02 -0.30431000E-02
 -0.38597782E-02 -0.13957306E-02 -0.59898214E-02
 -0.44629137E-02  0.38081956E-02 -0.10851910E-02
  0.14103907E-01  0.28625063E-02  0.42799250E-02
 -0.13763978E-02  0.76769830E-02 -0.26922594E-02
  0.53693458E-03 -0.30075541E-02  0.19164512E-02
 -0.82438593E-03  0.31658985E-02  0.76691014E-03
 -0.23857616E-02 -0.68006077E-02  0.17431461E-02
 -0.30368061E-02 -0.79238858E-02 -0.25110042E-02
  0.38892280E-02 -0.47721355E-02 -0.16933207E-02
 -0.28147116E-03  0.13227512E-02 -0.12581331E-02
  0.52876344E-02 -0.41309020E-04 -0.22414639E-02
 -0.10057304E-02  0.39400426E-02  0.21049191E-02
 -0.57362854E-02  0.96234134E-02 -0.46836668E-02
  0.79507618E-02  0.18115781E-02  0.46975449E-02
  0.11457351E-02 -0.19305069E-02 -0.57041038E-04
 -0.66646974E-02  0.10085250E-02  0.23890286E-02
 -0.43555454E-02 -0.48068391E-02  0.36682755E-03
  0.51044032E-02 -0.12212396E-02 -0.13955383E-02
 -0.28140570E-02 -0.56558682E-02 -0.86843404E-02
 -0.38454131E-03  0.16375453E-02  0.57172727E-02
 -0.11932673E-02  0.24719879E-02 -0.75799638E-03
  0.55503022E-02  0.64534805E-02 -0.42452929E-02
  0.17603413E-03 -0.32861094E-02  0.25842119E-02
 -0.66858940E-03 -0.75480653E-03  0.20079052E-02
 -0.80974783E-02  0.53995201E-02  0.10581859E-01
  0.11408389E-02 -0.25309467E-02  0.79387658E-02
 -0.47335246E-02 -0.30249143E-02  0.66104226E-02
  0.77846429E-02 -0.36339002E-02  0.64022867E-02
  0.32694531E-02  0.74764699E-02  0.57009400E-04
 -0.36753384E-02  0.71393928E-02  0.55479199E-03
 -0.21917801E-02 -0.44708616E-02 -0.17685023E-02
 -0.14093904E-02  0.78048005E-02  0.39264385E-02
  0.42691925E-02  0.10343788E-02  0.11289710E-02
 -0.36184505E-03 -0.63595052E-02  0.50551023E-02
 -0.94931499E-04 -0.33619073E-02  0.71078582E-02
  0.13843063E-02  0.48759621E-02  0.36412561E-02
 -0.14736509E-02  0.64764582E-02  0.12616534E-02
 -0.24052650E-03  0.15723665E-03 -0.19384585E-02
  0.57631305E-02 -0.76838442E-03  0.92149622E-03
  0.11129650E-02  0.33094485E-02 -0.22893215E-02
 -0.29626877E-02 -0.16851763E-02  0.11112650E-02
 -0.16345045E-02  0.55577882E-04  0.44876612E-02
 -0.51811856E-02  0.30867000E-02 -0.57962553E-03
 -0.12079162E-02  0.54352690E-03  0.34824669E-02
 -0.27133972E-02  0.12255419E-02  0.46309496E-02
 -0.63107394E-02  0.47532798E-03  0.33880909E-02
  0.23441600E-02  0.48725861E-02  0.37220339E-02
 -0.21781057E-02 -0.11187376E-02  0.55494762E-03
  0.28151542E-02  0.11683351E-02 -0.19376580E-02
  0.59268451E-03 -0.29922095E-02  0.22128623E-03
  0.15387483E-02 -0.11059571E-03  0.38127524E-02
  0.27176861E-02 -0.73212690E-02 -0.18441452E-02
  0.48785513E-02  0.47372657E-02  0.52974238E-02
 -0.12831630E-02  0.26858701E-03  0.15317519E-02
  0.28088164E-02  0.27665092E-02 -0.23342846E-02
  0.15555749E-02 -0.22154834E-02 -0.65607019E-03
  0.43937559E-02  0.40120423E-02 -0.74423034E-02
 -0.10893470E-02  0.17319600E-03  0.25561325E-02
  0.34125626E-03 -0.42428324E-02 -0.32988153E-02
  0.10259234E-02  0.20239490E-03 -0.40785163E-02
  0.27732242E-02 -0.82102033E-03 -0.56505507E-02
 -0.70118654E-03  0.59746468E-02  0.46305356E-03
  0.12925846E-02 -0.47328757E-02  0.32414943E-02
  0.10356184E-02  0.80771735E-03 -0.21717492E-03
  0.91399203E-03  0.49444545E-02 -0.18356560E-02
 -0.34480719E-02 -0.14127548E-02 -0.34841491E-02
  0.57707853E-02 -0.31619109E-02 -0.27002866E-02
 -0.20755794E-02 -0.15577865E-02  0.14161172E-02
 -0.13905955E-02 -0.18394203E-02 -0.35945987E-02
  0.32717282E-02 -0.30704714E-02 -0.16865477E-02
 -0.14876357E-02 -0.94059775E-03  0.89857547E-03
 -0.17898338E-02 -0.22905000E-04 -0.54266175E-03
 -0.14614936E-03 -0.38563910E-03  0.42857994E-02
  0.33545685E-02 -0.40196918E-02 -0.74529622E-03
  0.37658304E-02  0.17953860E-02  0.15935126E-02
  0.13537234E-02 -0.50382463E-03  0.72110411E-02
  0.35488089E-02  0.11175888E-02 -0.22518140E-03
 -0.24540930E-02  0.15845896E-02 -0.62464199E-03
 -0.22676490E-02 -0.25820282E-03 -0.73026424E-03
 -0.21904657E-02  0.96944171E-03  0.41133756E-03
  0.13541103E-02  0.66782602E-04  0.42940016E-02
  0.26723017E-02 -0.68678024E-03 -0.49943033E-02
 -0.33774439E-03 -0.36202551E-02 -0.26142706E-02
  0.27525832E-02 -0.18335729E-02 -0.27414138E-02
  0.25136010E-02 -0.10742623E-02  0.12999260E-02
 -0.33560664E-02  0.35448107E-02  0.99443070E-03
 -0.18508987E-02 -0.40608819E-02  0.38895514E-03
  0.15211411E-02  0.16130640E-02 -0.25269549E-02
  0.80964761E-03  0.53124664E-02  0.12415394E-02
 -0.11898268E-02 -0.16288229E-02 -0.27073734E-02
 -0.15071296E-02  0.18783967E-02 -0.39262910E-02
 -0.32989233E-03  0.21536459E-02 -0.34942325E-02
  0.17303923E-02  0.11751553E-02  0.27186993E-02
  0.44344778E-02 -0.49133962E-02 -0.24820349E-03
 -0.24531619E-02  0.67124855E-03  0.27457665E-02
 -0.90975692E-03 -0.18628553E-02 -0.15975733E-02
  0.32356014E-02  0.52009249E-02  0.26185949E-02
  0.39067902E-02 -0.10604184E-02  0.17784656E-02
 -0.57784695E-03  0.55286408E-02 -0.22476314E-03
 -0.16451707E-02  0.48479106E-02 -0.83154745E-03
  0.41185106E-03 -0.87147347E-03  0.12987805E-02
 -0.71510394E-03 -0.14603737E-06  0.34354563E-02
  0.42295223E-02 -0.73222182E-03 -0.24110178E-02
  0.10550259E-02 -0.14606662E-02  0.65201600E-03
 -0.88066532E-02  0.17931657E-02  0.30180601E-02
  0.42223247E-03  0.17214549E-02 -0.47063326E-02
 -0.20756515E-02  0.20005845E-03 -0.98666968E-03
  0.51228188E-02 -0.18423990E-02  0.18579947E-02
 -0.30121473E-02 -0.17819179E-02 -0.10974331E-02
  0.23456066E-02 -0.10710522E-02 -0.23914962E-02
  0.26296970E-02  0.34919151E-03 -0.20557227E-03
 -0.40983534E-02  0.35437738E-02  0.15892842E-02
 -0.78775404E-02 -0.11900240E-02 -0.36299111E-02
 -0.12639991E-02 -0.51104052E-03 -0.66305856E-02
  0.16270611E-02  0.46938268E-02 -0.38314336E-02
 -0.76466071E-03  0.18802149E-02  0.30355730E-02
 -0.68653945E-03 -0.16418442E-02  0.26677234E-02
  0.10009046E-02 -0.29455518E-02 -0.13356457E-02
 -0.16141616E-02  0.18249481E-02 -0.17934806E-02
  0.30410097E-02 -0.32578605E-03 -0.41439137E-02
  0.75238435E-03 -0.57090155E-03  0.10695037E-02
 -0.11710975E-02  0.17604496E-02 -0.38898782E-02
 -0.31189029E-02  0.24964704E-02 -0.43589012E-03
 -0.28814023E-03  0.88793772E-04  0.44492429E-02
 -0.18019366E-02 -0.23330655E-02  0.19870816E-02
 -0.43453655E-03 -0.19121755E-02 -0.90458880E-03
  0.35702817E-03  0.54153149E-03 -0.49651388E-03
  0.35011202E-02  0.25954681E-03  0.33169859E-02
  0.32642327E-02 -0.32114605E-03  0.22749339E-02
  0.66370363E-03 -0.10835922E-02 -0.50758577E-03
 -0.14073265E-02  0.15863795E-03  0.27998065E-02
 -0.42309934E-02 -0.21429286E-02 -0.30337724E-02
 -0.14519269E-02 -0.56229403E-03  0.14619704E-02
 -0.15988836E-02  0.65054924E-05  0.10051005E-03
  0.28217888E-03 -0.12949036E-02 -0.31750288E-02
  0.43844806E-02 -0.65804895E-03  0.34924282E-02
 -0.19287068E-02 -0.31807068E-02  0.18945178E-02
 -0.13822867E-02  0.14006304E-02  0.25521948E-02
 -0.13601600E-02  0.64006602E-03  0.21594932E-02
 -0.45071651E-02  0.76873041E-03 -0.41708011E-02
  0.24179910E-02 -0.26840964E-02 -0.81703317E-04
 -0.33173727E-02  0.33262409E-02  0.26247843E-03
 -0.84030497E-03 -0.28123630E-02  0.96430180E-03
 -0.62682745E-03  0.35067142E-02  0.21345534E-02
 -0.42780430E-03  0.16057632E-02  0.32768875E-02
  0.11222801E-02 -0.44157418E-02 -0.19921438E-02
  0.16201099E-02 -0.57597749E-03  0.48397806E-03
  0.76425188E-02 -0.11869652E-02 -0.14160917E-02
  0.17848280E-02  0.58927969E-03 -0.10081748E-02
 -0.21804885E-02 -0.16998451E-02  0.13704682E-02
 -0.12295088E-02 -0.73191784E-03  0.44090383E-03
 -0.45759013E-02 -0.26544734E-02 -0.17384201E-03
 -0.47181138E-03 -0.22250397E-02 -0.15945791E-02
  0.20823749E-02 -0.90947996E-03 -0.60670595E-03
 -0.61142750E-04 -0.23127344E-02 -0.21414634E-02
 
           1
   2.00000000000000     
  0.67702154E+00  0.18654128E-03  0.00000000E+00  0.00000000E+00
  0.32471783E-01  0.73140252E+00  0.13494358E-01
  0.46066688E+00  0.50915201E+00  0.50988426E+00
  0.52283082E+00  0.50169196E+00  0.86816591E+00
  0.99906533E+00  0.20695252E-01  0.32587415E+00
  0.25211181E+00  0.98458490E+00  0.88059501E+00
  0.96987308E+00  0.51042340E+00  0.35896930E+00
  0.25346273E+00  0.48814764E+00  0.12127013E+00
  0.32691212E+00  0.26734311E+00  0.24387953E+00
  0.74140726E+00  0.73554405E+00  0.61328253E+00
  0.72764846E+00  0.24601125E+00  0.86923290E+00
  0.73885502E+00  0.74261445E+00  0.38784273E+00
  0.23913097E+00  0.27433090E+00  0.87310232E+00
  0.69760125E+00  0.32958372E+00  0.12282367E+00
  0.31872701E+00  0.50545333E+00  0.62828506E+00
  0.99660077E+00  0.96336552E+00  0.26535740E-03
  0.21474013E+00  0.52566147E+00  0.37056647E+00
  0.27232196E+00  0.18606448E-01  0.62949413E+00
  0.98738994E+00  0.52940442E+00  0.62662524E+00
  0.53124143E+00  0.95966472E+00  0.11793220E+00
  0.99775810E+00  0.51845313E+00  0.88000451E+00
  0.46515867E+00  0.25480801E-01  0.49601561E+00
  0.22741479E+00  0.31304728E+00  0.39020924E+00
  0.81976439E+00  0.77330283E+00  0.88487173E+00
  0.78466994E+00  0.26060752E+00  0.47940873E+00
  0.27159351E+00  0.71094735E+00  0.11724769E+00
  0.22614466E+00  0.26107346E+00  0.76085351E+00
  0.77474393E+00  0.59220069E+00  0.12262660E+00
  0.75971916E+00  0.47461527E+00  0.37262404E+00
  0.72000899E+00  0.73441261E+00  0.50245215E+00
  0.52761742E+00  0.90928338E+00  0.99352683E+00
  0.97752600E+00  0.45984699E+00  0.49867575E+00
  0.51366691E+00  0.77166266E+00  0.75429093E+00
  0.42341220E-01  0.80006432E+00  0.25441228E+00
  0.48449695E+00  0.23368774E+00  0.74262087E+00
  0.97034259E+00  0.45909354E+00  0.22656437E-02
  0.47921617E+00  0.77180360E+00  0.49802602E+00
  0.49994056E+00  0.53548870E+00  0.99792646E+00
  0.51948422E+00  0.33342523E-01  0.24632603E+00
  0.22622923E+00  0.77036767E+00  0.75092343E+00
  0.52871922E+00  0.77819916E+00  0.25309032E+00
  0.41726486E-01  0.99111912E+00  0.14109354E+00
  0.50750215E+00  0.49554639E+00  0.75893197E+00
  0.48166279E+00  0.99032503E+00  0.76274921E+00
  0.95562303E+00  0.47998766E+00  0.25115166E+00
  0.25515024E+00  0.19639236E+00  0.10367469E-01
  0.98047312E+00  0.34546989E-01  0.49653186E+00
  0.24740194E+00  0.78628908E+00  0.48944497E+00
  0.76142543E+00  0.28073542E+00  0.98307879E+00
  0.98658373E+00  0.43063349E-01  0.74758014E+00
  0.47676746E+00  0.48308562E+00  0.24024411E+00
  0.18371789E-01  0.60048906E+00  0.73696615E+00
  0.48373928E+00  0.34572596E-01  0.38008294E+00
  0.25647608E+00  0.30189922E+00  0.50947073E+00
  0.76056014E+00  0.80283061E+00  0.89926505E-02
  0.71708657E+00  0.22484252E+00  0.37485329E+00
  0.25376238E+00  0.70574917E+00  0.28733406E-02
  0.29701005E-01  0.20659772E+00  0.54188701E-02
  0.49806796E+00  0.25076643E+00  0.48462885E+00
  0.51629079E+00  0.17500353E+00  0.67118130E-02
  0.97692935E+00  0.74218243E+00  0.48345788E+00
  0.69174256E+00  0.96991327E+00  0.87266538E+00
  0.99055480E+00  0.48044562E-01  0.62144886E+00
  0.98903136E+00  0.47639382E+00  0.12862940E+00
  0.52696977E+00  0.97765180E+00  0.62467594E+00
  0.88306136E-02  0.22247242E+00  0.25404781E+00
  0.82844846E+00  0.74552924E+00  0.74530557E+00
  0.29112961E+00  0.75498935E+00  0.25872191E+00
  0.77371592E+00  0.26680199E+00  0.73935232E+00
  0.77159149E+00  0.75017637E+00  0.24630813E+00
  0.16528441E-01  0.32521788E+00  0.73913081E+00
  0.77861301E+00  0.26961793E+00  0.24631734E+00
  0.24198229E+00  0.77458007E+00  0.61928922E+00
  0.23474267E+00  0.25601844E+00  0.13397579E+00
  0.74585803E+00  0.96468461E+00  0.63301754E+00
  0.98486211E+00  0.99008937E+00  0.85816849E+00
  0.19581806E+00  0.79099818E+00  0.36054581E+00
  0.25813906E+00  0.52085319E+00  0.88257844E+00
  0.74997988E+00  0.97176954E+00  0.37161350E+00
  0.75692398E+00  0.41792549E-01  0.12827276E+00
  0.67810917E+00  0.47868818E+00  0.62085681E+00
  0.77715698E+00  0.51441561E+00  0.88331423E+00
  0.23935242E+00  0.44513964E-01  0.37712033E+00
  0.73359412E+00  0.22830864E+00  0.61217818E+00
  0.26366695E+00  0.97559279E+00  0.12270951E+00
  0.20532999E+00  0.25631429E+00  0.61925991E+00
  0.50297884E+00  0.50831679E+00  0.11764593E+00
  0.29611550E+00  0.73419636E+00  0.86115088E+00
  0.49771730E+00  0.51859612E+00  0.37502314E+00
  0.26931616E+00  0.33074944E-01  0.24685293E+00
  0.78086748E+00  0.51922696E+00  0.74859183E+00
  0.24210498E+00  0.71547686E-02  0.74985714E+00
  0.70644850E+00  0.51418675E+00  0.25327398E+00
  0.24948152E+00  0.94850369E+00  0.96545748E-02
  0.72971985E+00  0.49482436E+00  0.50276048E+00
  0.22427489E+00  0.42322418E-01  0.50008573E+00
  0.73221986E+00  0.53046594E+00  0.73389607E-02
  0.73844986E+00  0.15408264E-01  0.74358879E+00
  0.23278728E+00  0.51709967E+00  0.25133171E+00
  0.29292803E+00  0.51554601E+00  0.75917784E+00
  0.77877831E+00  0.99738612E+00  0.24932961E+00
  0.21935388E+00  0.54221208E+00  0.49873534E+00
  0.75767396E+00  0.34201309E-01  0.99062489E+00
  0.73162716E+00  0.98430374E+00  0.50063753E+00
  0.23397565E+00  0.46001493E+00  0.99985933E+00
  0.99484946E+00  0.25466283E+00  0.37053126E+00
  0.52168936E+00  0.74811334E+00  0.87914909E+00
  0.47395793E+00  0.26804244E+00  0.63217725E+00
  0.27935540E-01  0.73052486E+00  0.13712707E+00
  0.76782334E-02  0.24734850E+00  0.86808795E+00
  0.48339026E+00  0.75980361E+00  0.38169293E+00
  0.99026662E+00  0.78400900E+00  0.61458963E+00
  0.49042127E+00  0.25035110E+00  0.11067799E+00
  0.12634288E+00  0.36676892E+00  0.53004802E-01
  0.61633388E+00  0.90015587E+00  0.54795134E+00
  0.66456125E+00  0.12939475E+00  0.93801987E+00
  0.11888925E+00  0.62923635E+00  0.44549430E+00
  0.33659842E+00  0.37054006E+00  0.95240442E+00
  0.83250909E+00  0.88664990E+00  0.45504136E+00
  0.86534958E+00  0.13270303E+00  0.32218446E-01
  0.33663589E+00  0.63770430E+00  0.54215896E+00
  0.87252760E+00  0.97699912E-01  0.20264108E+00
  0.38930210E+00  0.62060477E+00  0.71497456E+00
  0.88153762E+00  0.88260098E+00  0.28933267E+00
  0.35949368E+00  0.37055762E+00  0.79873321E+00
  0.12602039E+00  0.62584992E+00  0.29330465E+00
  0.63393809E+00  0.12715644E+00  0.78420388E+00
  0.15229364E+00  0.40182494E+00  0.20479087E+00
  0.63855275E+00  0.90551453E+00  0.70487088E+00
  0.85128357E+00  0.61813893E+00  0.96366406E+00
  0.33596395E+00  0.14485678E+00  0.45542393E+00
  0.82621776E+00  0.39061310E+00  0.55331274E+00
  0.33846020E+00  0.84644894E+00  0.57982311E-01
  0.13321737E+00  0.13873995E+00  0.54960743E+00
  0.63846355E+00  0.63797203E+00  0.52705865E-01
  0.14026829E+00  0.85980239E+00  0.94936761E+00
  0.64489599E+00  0.39870889E+00  0.44842093E+00