Na88 Sn16 P8 Se96                       
   1.00000000000000     
    14.0793397336999995    0.0000000000000000    0.0000000000000000
     0.0000000000000000   14.0793397336999995    0.0000000000000000
     0.0000000000000000    0.0000000000000000   28.1586794673000007
   Na   Sn   P    Se
    88    16     8    96
Direct
  0.9222138896088665  0.9797079929867052  0.9883917571822803
  0.9498695814879552  0.2905678438517602  0.7180987384108632
  0.7458593799208665  0.4676260263357321  0.8421480986508261
  0.7247355031647376  0.2572121903632992  0.6028974996989922
  0.4065152818760635  0.9657064592314619  0.8981663040798191
  0.1993444846352929  0.2525196650385487  0.6079021979033596
  0.7258724477505629  0.2180549093092591  0.1096020240613406
  0.2638758542682234  0.7425900253936574  0.3843193390716490
  0.7702485774083718  0.2341685447066315  0.4622781216269728
  0.7442509055899506  0.5080880260021491  0.0892678721570442
  0.0107779200202431  0.8776023775692974  0.3607338063622182
  0.4936692607372201  0.4847262113420276  0.7223820160847302
  0.8235326048471697  0.2714612667314015  0.2627336280350905
  0.2068953251007417  0.7204186504587849  0.8602123295186196
  0.9817131372075175  0.9518943953277673  0.8623739850387124
  0.2224079831533718  0.4823500830066909  0.1312916180713273
  0.6691906420455502  0.4776697986716994  0.3563156769380040
  0.7130141853673690  0.5310114274735718  0.6015888933303434
  0.9661477994358805  0.4997074321049869  0.1238675213063908
  0.4810678573380526  0.7071544769990239  0.7462169052269632
  0.7041969552115557  0.7735081672812325  0.6177434541877231
  0.9890248767242446  0.2523275342446044  0.5078564731547072
  0.4928162471446166  0.9767589984068383  0.1303268167858104
  0.9130311847176363  0.4812516288027454  0.4045874835424316
  0.2301739463074953  0.7044975209213329  0.1217725815042190
  0.2938182950388144  0.7581353841106176  0.7743517201527761
  0.0102462236443452  0.0379396933061736  0.2613720991294403
  0.1810719541028762  0.0798422333840726  0.3927014612750482
  0.5096937810959485  0.2127848904966817  0.4815331785972783
  0.2311408668833555  0.2624544760600040  0.2486328537309722
  0.0283616170853375  0.0198510867012543  0.7392357914567985
  0.9629260435217940  0.5893683435852973  0.7039643508859186
  0.2441961772879417  0.2362156766184469  0.1168693962392362
  0.4922554634769284  0.5210030841725442  0.6035513129035367
  0.7591314112388194  0.7465635138793345  0.9702742264401627
  0.9679281468339097  0.5281773130519568  0.5171309821786274
  0.5178119049836991  0.5666157807382070  0.9678909761710088
  0.4623797391120060  0.9649786528410456  0.3715290093074744
  0.2023643097537157  0.4920239712034961  0.8632724299402319
  0.9310179785326544  0.7337196621179731  0.4878727957141819
  0.7805077933223806  0.9829173035393844  0.3730728533241318
  0.4636176182495530  0.2699630538418102  0.7560142777111818
  0.7423115743108378  0.7656601248636188  0.8655207192597845
  0.7832601252188978  0.7256961921081539  0.2399562235348154
  0.4819242567283545  0.4952312293432655  0.0990674091513645
  0.1662291083972997  0.7507341953777619  0.5343545300943487
  0.7415613716041376  0.7660232870798144  0.7242049879387640
  0.2350492541625457  0.2771178009515357  0.7377186110593313
  0.2518546279203594  0.2682372082570599  0.9936320778547699
  0.2336625237611279  0.7819568200343141  0.2433437347747413
  0.5160816691822772  0.0441545250282675  0.7324136018151203
  0.4870055332601212  0.9594633333582812  0.2748349283774876
  0.4322288207749967  0.5020005859382514  0.4848069281307869
  0.5041259150514994  0.7770092064757514  0.0145793694908766
  0.2640115362866313  0.2665670895555837  0.8618113092221427
  0.6477001609926559  0.0103495846083010  0.8718865329247354
  0.5116457513560791  0.2126743497283549  0.2273558224304649
  0.1843380575563726  0.9864363324532592  0.6074351813087951
  0.7273532684887389  0.0122077479583804  0.1174297758177383
  0.2127987118664490  0.5027004247952179  0.6155170554547842
  0.4830115208209841  0.2731222259263375  0.9826804108287582
  0.4650346624884921  0.9196935201779473  0.4881431736929474
  0.9866826935699257  0.5121717208272363  0.9748763716279418
  0.5054002638605254  0.9584184253032604  0.6309539221802044
  0.0032644478315101  0.0371516191196773  0.4608064458347059
  0.1760807789040631  0.7491240282933677  0.6759927716867918
  0.1786496957708728  0.4439226708686502  0.3647872150550250
  0.9644341412028268  0.5181083293833058  0.8516412010668060
  0.6092617630890593  0.2898842377166216  0.3490209370034713
  0.7402341078394403  0.2426186200550636  0.9672577276976357
  0.0330426837839779  0.7240144408295843  0.2210350665288836
  0.0896413449242663  0.7423554253043305  0.9866145478860519
  0.4479522238355513  0.7348911980142760  0.2029562553373474
  0.7480191746617565  0.2599079235379385  0.7055945333285977
  0.9879019047926982  0.4653721447490221  0.2531244742174863
  0.4394164909650766  0.4749679441182135  0.3659773555228587
  0.4749574567141875  0.5089349232896688  0.2387441742185789
  0.7320437859084775  0.7635390367670229  0.4737132268584693
  0.9825020749792854  0.0167283698282178  0.1251382635453498
  0.7288152730698365  0.2344093678963386  0.8377944064983054
  0.0028107464373623  0.1957329194484049  0.0012079373488007
  0.7609813340953007  0.7585808424605783  0.3547207259355448
  0.4976919407701122  0.4371727503506627  0.8464496523036191
  0.6990584217943492  0.7322964433339726  0.1019484177525654
  0.1285928343295536  0.0517588501055896  0.8822468390474283
  0.8563335743264978  0.9633225789862945  0.6185399036701905
  0.2390858449007770  0.2172288792232312  0.4926966115692257
  0.2456697429164030  0.9971840647343967  0.1102847259940124
  0.2770224934468104  0.0139930256764283  0.2458340845583506
  0.7331695504457760  0.5034617047196347  0.7192565294929157
  0.2716014301879849  0.0157119530378526  0.7492860992743914
  0.7085489178121318  0.4901500991709801  0.2197671578259610
  0.2274540073745034  0.0127875968417165  0.9920684196829405
  0.7087987055415746  0.4929738993901744  0.4820847558938156
  0.2383478890222755  0.9786483976264497  0.4931015978084353
  0.7555674272143604  0.4818281380313956  0.9707095915628563
  0.7745015916875062  0.0255918389741043  0.7326613213043932
  0.2238405972727442  0.5258023915258018  0.2508478294263868
  0.2088254846938501  0.5101152015172824  0.7394720747884179
  0.7368989706859930  0.9769710066448316  0.2457072892350065
  0.2191145894224885  0.4866745504782695  0.4949361993410467
  0.6939776024588923  0.0257851586544374  0.9911776045400916
  0.7321535752673612  0.9866745330468165  0.4906545278173722
  0.2668785508908985  0.5070517713652195  0.9941569853084634
  0.9467885794556690  0.2547562690971832  0.3585700309327662
  0.5065116068338651  0.7390812622822032  0.8588099483625349
  0.4611663679893375  0.2464313823545585  0.6144754831488720
  0.9609722166376329  0.7569397438812951  0.1014190360914980
  0.9603215505518904  0.2574431849402511  0.8743366055554554
  0.5086063032870354  0.7270511432862324  0.3723112814192027
  0.9582633307870524  0.7346004762852096  0.6072655037838419
  0.4861293772902296  0.2461540046730554  0.1044617449091646
  0.1420424857172162  0.4095688932515626  0.0441533584083386
  0.6375108284628239  0.8729778096230101  0.5360778794288100
  0.5726686025235501  0.1264692754005632  0.9441991931653450
  0.1179627872821732  0.6158178141519899  0.4419704298403418
  0.3561621351980990  0.4048833602571389  0.9343029687098332
  0.8750337228886826  0.9070633105661240  0.4517273114198836
  0.8211230661162265  0.1226632602286807  0.0364236722989234
  0.3157685516296083  0.5997737724861751  0.5521994910264809
  0.8489948468541173  0.0946493978750487  0.1955540771650960
  0.3312315067961334  0.6113372412639441  0.6921826292306423
  0.8599126896838660  0.8715232228151311  0.2883918636519062
  0.3119895916785106  0.3982393881921264  0.7989992680313074
  0.1224872783951490  0.6291134517888182  0.2968018646448493
  0.6631087501225925  0.1243268821384090  0.7714118343337508
  0.1370993821243204  0.4082381367527374  0.2017792149873352
  0.6579306303602341  0.9227696895408031  0.6783776355873147
  0.8519428500900668  0.6183307708215660  0.9188796041022504
  0.3363662492022580  0.0979565422184696  0.4361261866574878
  0.8295906038301176  0.3997555922581885  0.5238883834013043
  0.3520371890304468  0.8906542542272500  0.0305212990026900
  0.1190086552661394  0.0872371480335672  0.5402117514610656
  0.6947850652556229  0.6130638280513896  0.0259036586897415
  0.0924733759547720  0.9274023097030861  0.9484135474865244
  0.5983346622609111  0.3908704200214114  0.4297897637452949
  0.5912844027780761  0.3821982331824249  0.2703754703069471
  0.1665627454828885  0.9138712125919883  0.8089728235368291
  0.1697387097531442  0.1303630978408500  0.6953213911048463
  0.6326130889743105  0.6173422593901039  0.1720168512394732
  0.8236872406696600  0.4123871175792219  0.6524807477944776
  0.3652214158605042  0.8855190882070528  0.1892714981657942
  0.3743312881325829  0.1196951824143318  0.3003148136756058
  0.8395357496150927  0.6153748332734456  0.7731510006494144
  0.1363511776704784  0.1128481886496533  0.0534633416163652
  0.6147050720348584  0.6162923210082483  0.5302193911986034
  0.6434209833246496  0.3702135328616766  0.9086426814999828
  0.1337139855213376  0.8931468445580270  0.4322957663372144
  0.2810628867153317  0.1149982643104913  0.9209596083003138
  0.7870070497757075  0.6140845106046184  0.4235699906402879
  0.8580382745820956  0.3901874503157305  0.0340634893334274
  0.3285043706563621  0.8514814589055715  0.5352525333057977
  0.1645026078366282  0.0956607438832343  0.1863971189422695
  0.6310765259303291  0.6161703548933078  0.6843132199757737
  0.1716316501763356  0.9171166215882172  0.3008540424441434
  0.6378296089760763  0.3866989855175098  0.7707343096618261
  0.8267765598596944  0.5528376223005435  0.2840099991542853
  0.3781219861604468  0.1117611314254764  0.8055490048823524
  0.8009155557731144  0.3828176271636403  0.1679318535223386
  0.3549690752558868  0.8877653874057684  0.7061118480461832
  0.7914814276541294  0.9408675468970250  0.9249314728180940
  0.3219010491611539  0.3650824290739970  0.4504801250899291
  0.8295996609331328  0.1078840070951844  0.5442447706954304
  0.3450249179793875  0.6328845087321011  0.0433741078916536
  0.1059438563223184  0.4020355507703191  0.5492272705747545
  0.6194196771052141  0.9021957465287880  0.0445735155763071
  0.1503819691701155  0.5971340887637110  0.9405226984806707
  0.6245446718268168  0.0724129064255172  0.4319004277672037
  0.3174157354864798  0.3969025636302750  0.2943456334523269
  0.8853713160566018  0.9099974714239417  0.7800229870755674
  0.8753729539459099  0.1154386891670065  0.6771065961508030
  0.3352429794057606  0.5887167179199919  0.1847198927198542
  0.0925665153103839  0.4011384295198960  0.7022809514081324
  0.6340749130567289  0.8685598408306615  0.1943975071556053
  0.6438955195055822  0.0500182306691215  0.3083311918215630
  0.1125933795125569  0.6167172298749725  0.7920737174718251
  0.9451358450057169  0.0937535209112179  0.3548314035039602
  0.4151713389548917  0.6037545420948768  0.8219480703091684
  0.5502885194567283  0.1527397722046592  0.6641267818256376
  0.8719123766196963  0.7018101909661482  0.1565651878879063
  0.3937451946918172  0.1384725707989772  0.5698701877199642
  0.0551014708945812  0.6450540271343477  0.0764236960778113
  0.8031953003351603  0.3019239164797675  0.3832844057180612
  0.6225978297438164  0.6414980848846584  0.8750762027781114
  0.0624186385173353  0.1968523523570059  0.8138588532422848
  0.4153879108599128  0.8024944877169619  0.3133014873378845
  0.0541559151354676  0.6038579603934676  0.6076797460753910
  0.5658920393211804  0.3483231968203743  0.0652308611667069
  0.0033233845171243  0.8562508190522099  0.5717988299709165
  0.4059121265582851  0.1339181217954535  0.0573738853404001
  0.8797224887354926  0.3652245480286151  0.8207226073071060
  0.4258770227447656  0.6470312591845359  0.4268407280585978
  0.9357018960239053  0.7780611532618912  0.6796566309269243
  0.4043023644687838  0.3542046269476942  0.1560369562662048
  0.0383401839521044  0.3171645188364969  0.9273968528698681
  0.5939115150114727  0.8351507588997793  0.4006422636134535
  0.8827458450440497  0.1382345343378833  0.9039131129776763
  0.5766726319518525  0.6335955856190080  0.3164996288339107
  0.8344377741309558  0.6837752688025764  0.5616828458091254
  0.5825570992756681  0.1539505386314555  0.1480964120028102
  0.3819096625050509  0.3544366863514342  0.6579072266173066
  0.8891824889315968  0.8283060358284280  0.0492521816061975
  0.0436928012628671  0.3094960168153283  0.4162946246761323
  0.5301243390527643  0.8627923939864626  0.8172223758311000
  0.0234319961360808  0.2952968501090602  0.2968539587611397
  0.3898017590107247  0.7610708443010465  0.9154865254985691
  0.5570635389485072  0.3421491957436860  0.5735041479501390
  0.0718039163749050  0.8516114192963364  0.1432844271141346
 
  0.13521439E-02 -0.26988668E-02  0.14129100E-02
 -0.35445314E-02 -0.69477895E-02  0.26514143E-02
  0.76215403E-03 -0.64760531E-02  0.69554393E-02
  0.59989186E-03 -0.60585257E-02 -0.44866350E-02
  0.22408974E-02 -0.12002747E-02  0.51113318E-02
  0.78957279E-02  0.50488047E-02  0.46955431E-02
  0.33443599E-02 -0.40799522E-03 -0.54628887E-02
  0.60045217E-02 -0.73199338E-02  0.10202628E-02
  0.18744513E-03  0.65269665E-02  0.50625152E-02
  0.17685879E-01 -0.30672138E-02  0.32739474E-02
  0.13299694E-02  0.61845510E-02 -0.35996403E-02
 -0.43207520E-02 -0.21398309E-02 -0.27803618E-02
  0.31478839E-03 -0.11911406E-02 -0.23851560E-02
  0.18164662E-02 -0.34650346E-02  0.89668140E-03
 -0.88331056E-03 -0.15048229E-02  0.18051278E-01
 -0.74456135E-02  0.91150628E-02  0.11431521E-01
 -0.12820286E-02  0.24093471E-02  0.11162959E-02
 -0.40698691E-02 -0.57282330E-02 -0.63521359E-03
 -0.29552462E-02 -0.50851416E-02 -0.57886790E-02
  0.87635905E-05  0.61298950E-02  0.73500500E-02
  0.87417456E-02  0.14405279E-01  0.65878362E-02
  0.47243029E-02  0.20994857E-02 -0.24040334E-02
 -0.72297994E-03  0.78368135E-02 -0.30051206E-02
  0.43395352E-02 -0.98245209E-02 -0.35739295E-02
  0.70729359E-02  0.49903795E-02 -0.11233667E-01
 -0.16993567E-02  0.34676605E-02 -0.31804503E-02
  0.25825249E-02 -0.29407819E-03 -0.32735778E-02
  0.86317034E-02  0.13719116E-02 -0.49412573E-03
 -0.72052543E-02 -0.53801907E-02  0.55287132E-02
 -0.32655212E-02  0.72418218E-02  0.63825880E-02
 -0.85035463E-02 -0.28796974E-02  0.26045979E-02
  0.16457096E-02  0.34365757E-03  0.82986991E-02
 -0.41264347E-05  0.10656356E-01  0.73899367E-02
  0.14739907E-02  0.64602293E-02  0.15045147E-01
  0.39477919E-02  0.63759526E-02 -0.14167545E-02
  0.78680369E-02  0.84273233E-02 -0.40724682E-03
  0.54306277E-02  0.89439777E-03  0.31200591E-02
 -0.49755354E-02  0.23112198E-02 -0.70905525E-02
  0.18741234E-02 -0.36698334E-02 -0.54987913E-02
 -0.25511573E-02  0.48308531E-03 -0.37570076E-03
  0.12154493E-03 -0.10891844E-03  0.93435656E-02
  0.11586197E-03  0.10006687E-01  0.25171041E-02
  0.15176795E-02 -0.54114479E-02 -0.51820520E-02
  0.44012610E-02  0.71813459E-02  0.87849771E-02
  0.14432504E-03 -0.56640981E-02  0.18808934E-02
 -0.81904209E-03 -0.74651728E-02  0.28050740E-02
 -0.37461756E-02  0.15334059E-02 -0.51088552E-02
 -0.62656892E-02 -0.21588225E-03 -0.40222072E-02
  0.36463041E-02  0.64945190E-02 -0.35456735E-02
  0.57051852E-02 -0.17939882E-02 -0.68626452E-03
  0.42229508E-03  0.90022309E-02  0.43179967E-02
 -0.11346563E-01 -0.12361789E-02 -0.63704424E-02
  0.66323039E-02  0.66749678E-03 -0.38348439E-03
  0.75223402E-03 -0.52616547E-03  0.10270603E-01
 -0.71297367E-02  0.33678897E-02  0.18819066E-02
  0.37279250E-02  0.41506790E-02  0.50855300E-02
  0.47048189E-02 -0.55913645E-02 -0.66984421E-02
 -0.53009660E-02  0.16212850E-01  0.11859908E-02
  0.57046285E-02  0.10849178E-02 -0.77430348E-02
 -0.54130564E-02 -0.33188635E-02 -0.37898246E-02
  0.95146013E-02 -0.40267310E-02  0.32591658E-02
  0.30603939E-02  0.42012116E-02 -0.16188984E-02
  0.57765051E-02  0.36739066E-02  0.55078353E-02
 -0.49976397E-02  0.43908919E-02 -0.19807006E-02
 -0.66710767E-02  0.10456584E-02  0.62722841E-03
  0.19658357E-02  0.38096636E-03  0.66007533E-02
 -0.49598494E-02 -0.71453076E-02 -0.17311505E-02
 -0.56631569E-03 -0.35492180E-03  0.41435096E-02
 -0.38610023E-02 -0.29303493E-02  0.60420371E-02
 -0.35482381E-02  0.29957314E-02  0.16536273E-02
 -0.51156233E-02  0.39240259E-02  0.75609497E-02
 -0.55006256E-02  0.51981870E-02 -0.11809998E-01
 -0.75537270E-02  0.17079915E-02 -0.55910390E-02
  0.63193314E-03 -0.73147120E-02  0.45420929E-02
  0.10948015E-02  0.18740444E-02 -0.72209558E-02
  0.16365424E-01 -0.10738919E-01  0.14834275E-02
  0.26519267E-02 -0.56500753E-02  0.51750307E-03
  0.36297491E-02 -0.10457997E-01 -0.13440357E-02
 -0.61428721E-02 -0.91145090E-02 -0.28439131E-02
  0.18881576E-02  0.11551309E-01 -0.42735957E-03
  0.91384107E-03  0.26800342E-02 -0.60853397E-02
  0.91268351E-02  0.94700261E-04  0.31073718E-02
  0.12937622E-02 -0.82267652E-02  0.17422882E-01
 -0.71401760E-02 -0.58537430E-02  0.40000001E-03
 -0.25261790E-02  0.58728469E-02  0.34315925E-02
 -0.13162731E-01  0.65391370E-02  0.18230276E-01
  0.13572769E-02 -0.77258081E-02 -0.17545721E-02
  0.68124177E-02 -0.25874571E-02  0.73333492E-02
 -0.14702866E-02  0.32613491E-03 -0.50470023E-02
 -0.28515814E-02 -0.41045777E-03 -0.51023290E-02
  0.21266328E-02 -0.36677283E-03 -0.17254894E-02
 -0.17727786E-02  0.16741317E-02  0.16366174E-02
  0.18555272E-04 -0.26843339E-02  0.11891866E-02
  0.20898890E-02 -0.17562617E-02 -0.26726130E-02
 -0.52791585E-03  0.57628048E-03 -0.13459785E-02
 -0.61617359E-02 -0.43376971E-02 -0.33348396E-02
  0.14668111E-02  0.60599594E-03  0.74704884E-04
  0.30219088E-02  0.32738700E-02  0.26058620E-02
 -0.17765548E-02 -0.39878807E-03  0.13569439E-02
  0.84245778E-03 -0.39247856E-02  0.42267779E-02
 -0.22751166E-02 -0.12486873E-02 -0.62429517E-03
 -0.24528749E-02 -0.77693772E-03 -0.97076629E-04
  0.94870537E-04  0.35738408E-02 -0.18143009E-02
 -0.39885182E-03  0.16024237E-02 -0.25936308E-03
  0.31890404E-02  0.30833345E-02 -0.42470178E-03
 -0.37779643E-02  0.27509317E-02  0.22446807E-02
 -0.29014341E-02 -0.19378178E-03 -0.48382959E-02
 -0.29858076E-02  0.88840098E-02 -0.19564470E-02
 -0.52004646E-02 -0.13931378E-01 -0.69604973E-03
  0.31073308E-02  0.43885746E-02 -0.61171576E-03
 -0.30669724E-02 -0.14820191E-01 -0.71634915E-02
 -0.47799001E-02 -0.10592495E-02 -0.64686156E-03
 -0.37744188E-03  0.28540167E-02  0.29387370E-02
  0.52134150E-02 -0.23780861E-03  0.45875839E-02
  0.27194111E-02 -0.12173769E-02 -0.51646743E-02
 -0.39890010E-02 -0.98442440E-02  0.35007299E-02
  0.51103861E-02  0.43850060E-03 -0.12947485E-02
 -0.34224001E-02  0.11208412E-02 -0.11194743E-02
  0.26562979E-02  0.43466764E-02  0.29811829E-02
  0.41724166E-02  0.69488038E-03  0.14983816E-02
 -0.44337456E-02 -0.22980812E-02 -0.13980750E-02
  0.76419785E-03 -0.60156316E-02 -0.16770038E-02
 -0.32835840E-02  0.21198299E-02 -0.44817649E-02
  0.69780790E-02 -0.65120913E-03 -0.49338548E-03
 -0.11098390E-02  0.12420479E-02  0.35426882E-03
  0.27865443E-02 -0.21065076E-02 -0.23370112E-02
  0.15784572E-02  0.14056573E-02 -0.14551950E-02
  0.54870813E-02 -0.35144448E-02  0.23524643E-02
  0.53984082E-03 -0.28290412E-02 -0.28240054E-03
 -0.22016600E-03  0.22000740E-02 -0.18702511E-02
 -0.22205762E-02 -0.20530877E-02 -0.52011146E-02
 -0.23926730E-02 -0.73093039E-03  0.45682167E-02
  0.34854085E-02 -0.99953342E-03  0.10269067E-02
 -0.32446716E-02 -0.35585415E-02  0.92250206E-03
  0.25212484E-02 -0.15867798E-02  0.38400926E-02
 -0.30768018E-02 -0.14521885E-02 -0.34785510E-03
 -0.21244478E-02 -0.64311636E-03 -0.35455476E-02
  0.35402138E-02  0.28264688E-02  0.55778981E-03
 -0.10639515E-02 -0.49435005E-02 -0.36369461E-02
 -0.39169234E-03  0.14365840E-02  0.36522997E-02
  0.31652154E-02  0.14084884E-03  0.18223871E-02
  0.14038151E-02  0.45727180E-02 -0.65109954E-03
 -0.30957277E-02 -0.12797348E-02 -0.35142002E-02
  0.11499360E-02 -0.30064511E-03 -0.38469145E-03
 -0.30973598E-02 -0.15351170E-02 -0.17759050E-02
  0.23062880E-03  0.14937166E-02 -0.97464023E-04
 -0.36373718E-02 -0.38576115E-02  0.29832503E-02
 -0.31641180E-02  0.47479107E-02 -0.29754414E-02
  0.28724210E-02  0.78229791E-02  0.79509599E-03
  0.57449900E-03  0.11372439E-02  0.41078046E-02
 -0.28695670E-02  0.53701312E-02  0.42020278E-02
  0.52807366E-02 -0.32921796E-02 -0.34538140E-02
 -0.43353350E-03  0.26963432E-02  0.11153916E-02
  0.48804886E-02  0.59509111E-03  0.38669319E-03
  0.20341119E-02 -0.72100188E-03  0.27429576E-02
  0.26360004E-02  0.29150128E-02 -0.46933169E-02
  0.21034676E-03  0.37451880E-03  0.12877425E-02
 -0.46739514E-02 -0.61231298E-02 -0.29565815E-02
  0.14729636E-02  0.16174528E-02 -0.41479564E-02
 -0.25333804E-04 -0.15111214E-03 -0.36934391E-02
 -0.45660537E-02 -0.88685546E-03 -0.62299524E-02
 -0.58961703E-03  0.20412843E-04  0.10024201E-02
 -0.11911229E-03  0.57324407E-02 -0.19901510E-02
  0.23427365E-02  0.12288212E-02 -0.25460199E-02
  0.23638622E-03 -0.10989130E-02  0.26486473E-02
  0.16701060E-02 -0.56186454E-02 -0.61184153E-02
 -0.37853612E-02  0.62216067E-02 -0.36812920E-02
 -0.34430521E-03  0.15637585E-02 -0.43301659E-02
  0.11921318E-03 -0.12624023E-02  0.64802045E-02
  0.19498503E-04  0.85412333E-02 -0.14002341E-02
 -0.34646341E-02  0.91883593E-03  0.30688270E-02
  0.26064732E-02 -0.25978082E-02  0.65510872E-03
 -0.64212250E-03 -0.23944058E-02  0.81618401E-03
 -0.22308864E-02 -0.33374441E-02  0.48378557E-02
 -0.19863918E-02 -0.27564533E-03  0.28954428E-02
  0.41107263E-03 -0.11938892E-02  0.19011263E-02
  0.11495734E-02 -0.30410673E-02  0.12010435E-02
  0.27089605E-02  0.36225840E-02 -0.37709887E-02
  0.38134665E-03 -0.23204766E-02  0.52323556E-04
 -0.19714452E-02  0.51877207E-02 -0.18547429E-02
  0.38918088E-02 -0.67294634E-02  0.55688746E-03
  0.27539067E-03 -0.37274715E-02  0.12082107E-02
  0.37350573E-02  0.18297148E-02 -0.34401043E-02
  0.45590738E-02  0.66616626E-03 -0.13954885E-02
 -0.42464540E-02 -0.54456891E-02  0.54029207E-02
 -0.48736747E-03 -0.60640313E-03  0.37026585E-02
 -0.24486367E-02 -0.94694658E-03 -0.34073877E-03
 -0.13215611E-02  0.67526435E-02 -0.43033434E-03
  0.28700170E-02 -0.33087638E-02 -0.26534124E-02
  0.40918563E-02  0.83634102E-03  0.28608119E-04
  0.24467593E-02 -0.29246058E-02  0.98673328E-04
  0.41648562E-02  0.24776596E-02 -0.21690324E-02
  0.15059833E-03  0.98680255E-03  0.26731166E-02
 -0.46032949E-02  0.72412971E-04 -0.17237709E-02
 -0.24541467E-02 -0.74900726E-03  0.16581019E-02
 -0.13741769E-02 -0.18514706E-03  0.43782165E-02
  0.12659187E-02  0.48719945E-03 -0.31819446E-02
  0.18941705E-03 -0.16229392E-03  0.27090173E-02
 -0.19995849E-02  0.39050139E-02 -0.51042416E-03
 -0.18467451E-02  0.12722654E-02 -0.14627926E-02
  0.93698121E-04  0.32832669E-04  0.21813006E-02
 -0.11967111E-02 -0.33962273E-02 -0.16434137E-02
 -0.27357545E-02  0.18227516E-02  0.56845201E-03
  0.35050851E-02  0.18267331E-02 -0.10358478E-02
 -0.18206980E-03  0.32054076E-02  0.22261643E-02
 -0.71981573E-02 -0.17893550E-02 -0.57744594E-02
 -0.33402089E-02  0.38222365E-02 -0.79903419E-03
  0.89632998E-03 -0.21564092E-02  0.56338721E-02
 
           1
   2.00000000000000     
  0.99505063E+00  0.15531599E-03 -0.20750954E-17  0.00000000E+00
  0.92240596E+00  0.97932461E+00  0.98849211E+00
  0.94936607E+00  0.28958090E+00  0.71828706E+00
  0.74596765E+00  0.46670609E+00  0.84264212E+00
  0.72482072E+00  0.25635156E+00  0.60257883E+00
  0.40683361E+00  0.96553596E+00  0.89852934E+00
  0.20046609E+00  0.25323686E+00  0.60823570E+00
  0.72634752E+00  0.21799695E+00  0.10921402E+00
  0.26472881E+00  0.74155021E+00  0.38439180E+00
  0.77027520E+00  0.23509571E+00  0.46263769E+00
  0.74676322E+00  0.50765232E+00  0.89500408E-01
  0.10966845E-01  0.87848091E+00  0.36047814E+00
  0.49305549E+00  0.48442224E+00  0.72218454E+00
  0.82357732E+00  0.27129206E+00  0.26256422E+00
  0.20715336E+00  0.71992643E+00  0.86027602E+00
  0.98158766E+00  0.95168063E+00  0.86365610E+00
  0.22135032E+00  0.48364490E+00  0.13210355E+00
  0.66900853E+00  0.47801205E+00  0.35639496E+00
  0.71243605E+00  0.53019772E+00  0.60154378E+00
  0.96572800E+00  0.49898508E+00  0.12345637E+00
  0.48106910E+00  0.70802524E+00  0.74673895E+00
  0.70543874E+00  0.77555447E+00  0.61821136E+00
  0.98969597E+00  0.25262577E+00  0.50768572E+00
  0.49271355E+00  0.97787223E+00  0.13011337E+00
  0.91364762E+00  0.47985603E+00  0.40433364E+00
  0.23117867E+00  0.70520641E+00  0.12097470E+00
  0.29357690E+00  0.75862797E+00  0.77412583E+00
  0.10613077E-01  0.37897919E-01  0.26113959E+00
  0.18229811E+00  0.80037116E-01  0.39266637E+00
  0.50867026E+00  0.21202062E+00  0.48192586E+00
  0.23067699E+00  0.26348319E+00  0.24908618E+00
  0.27153670E-01  0.19442020E-01  0.73942079E+00
  0.96315982E+00  0.58941716E+00  0.70455377E+00
  0.24419559E+00  0.23772943E+00  0.11739427E+00
  0.49246485E+00  0.52192077E+00  0.60461991E+00
  0.75969220E+00  0.74746923E+00  0.97017360E+00
  0.96904582E+00  0.52937443E+00  0.51710206E+00
  0.51858334E+00  0.56674283E+00  0.96811258E+00
  0.46167295E+00  0.96530697E+00  0.37102540E+00
  0.20263053E+00  0.49150266E+00  0.86288187E+00
  0.93065558E+00  0.73378829E+00  0.48784611E+00
  0.78052506E+00  0.98290183E+00  0.37373649E+00
  0.46363408E+00  0.27138452E+00  0.75619306E+00
  0.74252716E+00  0.76489142E+00  0.86515266E+00
  0.78388533E+00  0.72671632E+00  0.24058019E+00
  0.48194476E+00  0.49442663E+00  0.99201002E-01
  0.16611276E+00  0.74967375E+00  0.53455376E+00
  0.74102922E+00  0.76624111E+00  0.72384213E+00
  0.23415920E+00  0.27708713E+00  0.73743293E+00
  0.25237259E+00  0.26915977E+00  0.99338024E+00
  0.23447296E+00  0.78170198E+00  0.24329499E+00
  0.51614166E+00  0.45433311E-01  0.73272029E+00
  0.48539373E+00  0.95928773E+00  0.27438246E+00
  0.43317095E+00  0.50209541E+00  0.48477969E+00
  0.50423277E+00  0.77693446E+00  0.15308850E-01
  0.26299874E+00  0.26704551E+00  0.86194497E+00
  0.64822972E+00  0.10939197E-01  0.87224774E+00
  0.51231408E+00  0.21188008E+00  0.22688006E+00
  0.18358504E+00  0.98873940E+00  0.60751942E+00
  0.72816362E+00  0.12361863E-01  0.11687982E+00
  0.21202978E+00  0.50222897E+00  0.61524788E+00
  0.48436309E+00  0.27255022E+00  0.98291190E+00
  0.46546940E+00  0.92029031E+00  0.48802819E+00
  0.98750326E+00  0.51269361E+00  0.97526757E+00
  0.50469034E+00  0.95904216E+00  0.63081324E+00
  0.23168073E-02  0.37300157E-01  0.46085100E+00
  0.17636003E+00  0.74917815E+00  0.67646160E+00
  0.17794514E+00  0.44290766E+00  0.36466426E+00
  0.96435369E+00  0.51805791E+00  0.85193550E+00
  0.60871330E+00  0.28946798E+00  0.34945008E+00
  0.73973007E+00  0.24304417E+00  0.96737518E+00
  0.32315999E-01  0.72457186E+00  0.22157209E+00
  0.88859969E-01  0.74309384E+00  0.98577573E+00
  0.44687920E+00  0.73513382E+00  0.20255915E+00
  0.74810894E+00  0.25886885E+00  0.70591714E+00
  0.98805742E+00  0.46563836E+00  0.25261160E+00
  0.44174123E+00  0.47344246E+00  0.36608272E+00
  0.47533417E+00  0.50813232E+00  0.23878093E+00
  0.73255940E+00  0.76205346E+00  0.47361777E+00
  0.98162947E+00  0.15433635E-01  0.12493627E+00
  0.72908349E+00  0.23605026E+00  0.83776405E+00
  0.29405595E-02  0.19611362E+00  0.77571966E-03
  0.76227782E+00  0.75859429E+00  0.35494143E+00
  0.49787572E+00  0.43600412E+00  0.84768713E+00
  0.69804414E+00  0.73146491E+00  0.10197683E+00
  0.12823399E+00  0.52593100E-01  0.88249057E+00
  0.85446378E+00  0.96425148E+00  0.61983473E+00
  0.23927865E+00  0.21613141E+00  0.49257199E+00
  0.24663746E+00  0.99681651E+00  0.11080558E+00
  0.27681364E+00  0.14039354E-01  0.24547562E+00
  0.73276448E+00  0.50340340E+00  0.71889413E+00
  0.27190352E+00  0.15659852E-01  0.74916354E+00
  0.70829709E+00  0.49038791E+00  0.21988340E+00
  0.22745664E+00  0.12406282E-01  0.99215288E+00
  0.70909558E+00  0.49272442E+00  0.48189493E+00
  0.23827290E+00  0.97873026E+00  0.49300600E+00
  0.75469214E+00  0.48121196E+00  0.97047273E+00
  0.77470996E+00  0.25677922E-01  0.73266663E+00
  0.22426987E+00  0.52626745E+00  0.25103291E+00
  0.20857312E+00  0.51005855E+00  0.73956845E+00
  0.73701864E+00  0.97641348E+00  0.24600750E+00
  0.21879140E+00  0.48649717E+00  0.49489186E+00
  0.69362917E+00  0.25674793E-01  0.99117071E+00
  0.73216705E+00  0.98718220E+00  0.49052567E+00
  0.26682189E+00  0.50727940E+00  0.99413856E+00
  0.94724159E+00  0.25519426E+00  0.35853987E+00
  0.50597494E+00  0.73947204E+00  0.85896938E+00
  0.46075421E+00  0.24640386E+00  0.61413184E+00
  0.96054808E+00  0.75820174E+00  0.10128008E+00
  0.95958281E+00  0.25546420E+00  0.87428717E+00
  0.50904771E+00  0.72767455E+00  0.37226783E+00
  0.95782766E+00  0.73249524E+00  0.60675671E+00
  0.48545038E+00  0.24600354E+00  0.10441580E+00
  0.14198887E+00  0.40997431E+00  0.44362085E-01
  0.63825141E+00  0.87294403E+00  0.53640372E+00
  0.57305490E+00  0.12629634E+00  0.94383237E+00
  0.11739614E+00  0.61441942E+00  0.44221907E+00
  0.35688808E+00  0.40494565E+00  0.93421101E+00
  0.87454756E+00  0.90722253E+00  0.45164780E+00
  0.82150040E+00  0.12328071E+00  0.36635414E-01
  0.31636125E+00  0.59987248E+00  0.55230592E+00
  0.84836502E+00  0.94322951E-01  0.19545478E+00
  0.33134006E+00  0.61048271E+00  0.69206352E+00
  0.85944625E+00  0.87182435E+00  0.28807354E+00
  0.31298084E+00  0.39814688E+00  0.79896422E+00
  0.12232962E+00  0.62928989E+00  0.29682703E+00
  0.66350458E+00  0.12402765E+00  0.77124585E+00
  0.13732361E+00  0.40843781E+00  0.20167586E+00
  0.65871008E+00  0.92227046E+00  0.67854472E+00
  0.85201954E+00  0.61792890E+00  0.91885955E+00
  0.33633497E+00  0.98269067E-01  0.43599335E+00
  0.82927517E+00  0.39946395E+00  0.52351897E+00
  0.35169730E+00  0.89055042E+00  0.30845761E-01
  0.11950376E+00  0.87095162E-01  0.54028469E+00
  0.69432415E+00  0.61255833E+00  0.25969180E-01
  0.92831525E-01  0.92717690E+00  0.94868629E+00
  0.59789760E+00  0.39066413E+00  0.42976506E+00