Na88 Ge16 P8 S96                        
   1.00000000000000     
    13.3422163233000006    0.0000000000000000    0.0000000000000000
     0.0000000000000000   13.3422163233000006    0.0000000000000000
     0.0000000000000000    0.0000000000000000   26.6844326466999995
   Na   Ge   P    S 
    88    16     8    96
Direct
  0.0152349483776922  0.9949788167956469  0.1343763574249550
  0.5199215440431307  0.5509701077026802  0.7610600592512421
  0.2634573803132192  0.5046851821665999  0.8747128217419545
  0.9411277432025589  0.0376474173775439  0.4381416286395882
  0.7383494597157267  0.0288659600031474  0.8731683229729643
  0.1677070063260663  0.5023980788840535  0.3731986681978451
  0.0039705715951787  0.4774075703339834  0.0884295636190343
  0.2211998908902953  0.2334534578271394  0.1350067418290936
  0.7690348515330000  0.9808333341015436  0.6240400125767795
  0.7286566615681266  0.2617187710051663  0.7341781162987784
  0.7621650105751300  0.7186696763104785  0.3603096512497748
  0.2392700449586621  0.2483309513750959  0.8830509476183255
  0.7440925575693466  0.2415302937490477  0.1342929126716019
  0.2567140924000799  0.5149497771829696  0.6344366417142961
  0.9642378676936354  0.9829830778392635  0.8613947703623938
  0.5482347159472599  0.5202766114553626  0.3748789458205709
  0.0126292397442197  0.9660939984054733  0.5505300540977253
  0.0049809371618216  0.4800038378810835  0.6398227884574010
  0.4975612035430571  0.9602694370230709  0.1279411109983750
  0.9983430003394427  0.4770471692940942  0.8784990720858655
  0.5007219293503538  0.0593005944528315  0.3798210948945138
  0.2563509372385219  0.9994899526982370  0.3852106010773050
  0.7353407141121709  0.5359781090227819  0.8801269688074845
  0.7553260915393192  0.4854638068450393  0.6149899773729341
  0.3020134627734222  0.7231934703414586  0.1082987031386497
  0.2408884908718152  0.2538693420835860  0.6227267382355958
  0.7424665603730920  0.7596549660586377  0.1094548372300226
  0.7234442770028169  0.2218873904983797  0.4844993920191502
  0.5103307077808092  0.7151187563119800  0.5107012545908027
  0.4937679843704743  0.9881414648218585  0.9961433311921204
  0.0038298143975896  0.2499573265438454  0.5046189757591268
  0.7745808820217243  0.7484709118700399  0.7491588160292451
  0.0418746456929492  0.7866620667192843  0.2675906551511548
  0.5023411211092699  0.2646029328804040  0.7436901347901458
  0.9848298816089067  0.0066437861327828  0.9826286682530117
  0.4692098199554435  0.2344525203782714  0.4883054423742786
  0.5187248567122050  0.7234369348667298  0.0121823400185694
  0.7680320075640931  0.2499588906923200  0.2631264079165228
  0.1804824694831307  0.7590619861048188  0.7181660363470583
  0.4896575314476949  0.7519682110235173  0.2406265163390896
  0.0054975418622579  0.0275269787039346  0.2692713998979320
  0.4918048918689407  0.4839363016551275  0.8874147372068278
  0.4481217352873716  0.0418260494512263  0.7454879931900339
  0.9754568929273059  0.5039048734476783  0.2454142922000843
  0.2897761802417394  0.2074900373025158  0.0238469774921006
  0.7372795944761511  0.7118006166491121  0.4834878950517691
  0.2162208356810143  0.7665833473459474  0.5261310745874124
  0.7118943221406585  0.2652835598257902  0.9920476895366050
  0.0036367911951316  0.9610713382548719  0.7359824980652864
  0.4692711792013883  0.5370122437677097  0.2650284881840805
  0.0149060933865508  0.4709393542190760  0.7631413513004943
  0.5224448137926985  0.9990360922446331  0.2509524561401932
  0.2533655308381505  0.2862580940232641  0.5133131390377873
  0.7328524521743300  0.7677979728490278  0.9929994059584694
  0.7504897489126786  0.2409355290725127  0.6222400504983505
  0.2530279559797151  0.7071259612886908  0.9842487946475007
  0.9818115663370622  0.2656763263267260  0.0017879965144101
  0.4709599850425491  0.4877293627783674  0.5041223951391974
  0.5655934483928093  0.4448523438971544  0.1480995190515778
  0.9757063068865514  0.4854617595784478  0.4991797806935480
  0.5019193986497312  0.0083905358322500  0.8903137690032772
  0.9897157902501393  0.7574538004662030  0.4950914285883214
  0.0061629020493405  0.7430201855082502  0.9906476591039479
  0.4682516693282305  0.9901787613946034  0.4993528704097937
  0.4312725308733764  0.2589568190273298  0.2465474361596905
  0.7639843899334191  0.7652448733554428  0.8721288202436921
  0.2487146681321514  0.7504957458126128  0.2264604052122841
  0.0017020772123037  0.2352561994696775  0.7366190515590262
  0.8107472700474970  0.7414063616740247  0.2215311646314013
  0.2645947794839424  0.2501227971444788  0.7352732986380456
  0.1439659241366275  0.2495134019491896  0.2501691098981896
  0.4937446820791676  0.8048491684014888  0.7605725488274080
  0.2525086898930646  0.4972967371081579  0.1040829322026096
  0.4838385164708675  0.9958150808182697  0.6137775986140902
  0.6813053229892668  0.2759741179422928  0.8674400781667854
  0.2171804200835367  0.2717445618535809  0.3699267663046675
  0.2288164124000612  0.7316057958417128  0.8686739704200073
  0.7569068804489467  0.9696933610801015  0.3719327307587859
  0.7442247867160477  0.9988975177343805  0.1192227699410124
  0.5154422022807685  0.5140974611133811  0.6349172257597095
  0.4870928736396604  0.4289689139175883  0.0235636250357081
  0.2370198926783508  0.7481588530149678  0.3784974521326417
  0.7306790332530422  0.7262211584050849  0.6085697472735817
  0.2714872432181897  0.9506534392362750  0.1240542055228992
  0.2016229100106049  0.9955540857867418  0.6280333858229947
  0.7787489320067877  0.5270622262249156  0.1111854866085130
  0.2292773887538233  0.9920266507912695  0.8778068132492679
  0.8229564073364717  0.4042188356713016  0.3734535215848971
  0.2693950265004114  0.9947668236616227  0.2529836053182780
  0.7752053273509072  0.4952051164291327  0.7575296545727651
  0.2269296659514627  0.0036721000268229  0.7585218067163715
  0.7188692043895759  0.4840436095547584  0.2487854932398730
  0.2479859599520532  0.9620533632775397  0.9944957399369185
  0.7271790372017773  0.4656793394303242  0.4988736878696745
  0.2209494940929429  0.0350597746801816  0.4992936227135652
  0.7628437497993839  0.5131173636085514  0.9925576055252181
  0.7283140785274728  0.0072252417970320  0.7436588237331456
  0.2261135597256759  0.5218412121461186  0.2338891786531258
  0.2725812380907559  0.4887596681734591  0.7454328820331965
  0.7639978867631211  0.9659293007703411  0.2409187883059143
  0.2331364921929845  0.5107429874586457  0.4982016824858170
  0.7286707430806443  0.0027566026429698  0.9938347644509421
  0.7223709027090226  0.9712334972990497  0.4954008077223578
  0.2453820962908309  0.4554533631689788  0.9861943414748660
  0.9794550680243435  0.1974946068614809  0.3662623494296574
  0.4988447995081823  0.7485017329209541  0.8779871264012805
  0.4936689977501810  0.2468115395682811  0.6115522573501798
  0.0241717551936263  0.7390524166833911  0.1173756205678146
  0.9691098497693312  0.2404404566742009  0.8639714573184946
  0.4954814056359940  0.7747824811392751  0.3823418390772380
  0.9636647044549032  0.7325085462255202  0.6351872909194859
  0.4858312161133312  0.2244179930736664  0.1324470892050208
  0.1620908681661520  0.3710129569823484  0.0456571221041183
  0.6335570373014994  0.8843326073660498  0.5474388077214444
  0.6238912459611864  0.1147770892329102  0.9500190954578216
  0.1293952321945273  0.6151649008818335  0.4500090085903456
  0.3551765337383076  0.3744990263396517  0.9378524128034940
  0.8175610305530333  0.8622478172374554  0.4459546101748368
  0.8270788035246334  0.0935604021250563  0.0404261193633832
  0.3256945914140378  0.5992525023687758  0.5553817318821652
  0.8607618462651279  0.0685937343557989  0.2000664441298653
  0.3700971352749723  0.5966750506447420  0.7011036009213953
  0.8653439514083167  0.8699888394908303  0.2822031094795037
  0.3592996240383470  0.3908951611102255  0.7951821885281343
  0.1452859496054847  0.6223665936426007  0.2843393046416132
  0.6285282594493478  0.1094833320304345  0.7859762409619809
  0.1465184792971471  0.4253852127179286  0.1800849950974352
  0.6461732881855965  0.8942510833780134  0.6998531367301681
  0.8387958324533688  0.6305499965953469  0.9546420642690708
  0.3042546879665741  0.1410901676729275  0.4497689022617326
  0.8334053640636928  0.3677963139951093  0.5404389077711026
  0.3643911667961567  0.8574802122851451  0.0353515446908621
  0.1424347415952223  0.1339245287455746  0.5595824509846686
  0.6570567996609937  0.6127426041330272  0.0491133637360824
  0.1614532897170653  0.8662637971713441  0.9424044200059127
  0.6126762822663055  0.3949879399348024  0.4554003057051783
  0.6177266047162606  0.3911513073908018  0.2957701095816976
  0.1341774950131459  0.8996704963638787  0.7962711633396592
  0.1548578347633630  0.1051035157268438  0.7073340312652591
  0.6468638521345329  0.6061911984428237  0.2004566398406727
  0.8665022436825408  0.3851954558139958  0.7137695985464535
  0.3758549219389232  0.8915024220660377  0.2000780919040525
  0.3510770638480363  0.0921417616281433  0.3087616282489291
  0.8685480897865712  0.5999633980330443  0.8086068337524055
  0.1417404346323486  0.0331403257374129  0.0494551135839626
  0.6352379545682534  0.5693721769576316  0.5485594682548499
  0.6483474585305851  0.4267166019629804  0.9515864171424845
  0.1077844877703618  0.9190337688933201  0.4658903375913024
  0.3329099350298266  0.0595984124536977  0.9424779575254325
  0.8381740414867624  0.5480745612581922  0.4482957494574960
  0.8572947313544848  0.4215913246306879  0.0383311254741822
  0.3118253422235961  0.9436322075875112  0.5505876159037262
  0.1870959188219251  0.0890456895766801  0.1979778196818691
  0.6919826407187032  0.5851751377786834  0.6987067389868710
  0.1929454216456448  0.8967066860560048  0.3035314789862320
  0.6549416573403631  0.4243476713690658  0.8026962598778962
  0.8114239396664581  0.5721835463261032  0.3001178020847359
  0.3197667885522376  0.1054993115650892  0.8132243290793509
  0.8095251441523222  0.3867063124984301  0.1981703485432577
  0.3236802667088554  0.9140959917423647  0.7051526803142630
  0.8283393890691174  0.9125920060279951  0.9396251187507560
  0.3351843351108911  0.4287929237741970  0.4421841906146917
  0.8354923172942574  0.0557414133885014  0.5407817065208612
  0.3378717421874524  0.5687378163878162  0.0284749143804830
  0.1363218213722715  0.4150262563261262  0.5481619906311749
  0.6376499686917968  0.9136483756661598  0.0478787601948012
  0.1383993031525702  0.5478792810262582  0.9474999758047759
  0.6378651916376741  0.0664135715172233  0.4412717599306243
  0.2879986091351885  0.4043723540866997  0.2807319265567859
  0.8228154778482870  0.9201703801492125  0.8015919324953987
  0.8304427023823208  0.0919533912169364  0.6966228330254675
  0.3508621944008647  0.6010356076107431  0.1935797918228207
  0.1747783723094816  0.3968959372527228  0.6950909122219514
  0.6500415628188858  0.8918313693590048  0.1897446531990283
  0.6855270276585911  0.0831650706926412  0.2933124225848171
  0.1644255868712473  0.5873636451890958  0.7908995518581243
  0.0662709968201778  0.0675316481864198  0.3619266298730355
  0.5870183320643569  0.6701814343035152  0.8290247164180504
  0.6075100300164075  0.3304204055400750  0.6511531476085888
  0.1172166991449500  0.8148718850513136  0.1636175856096004
  0.4151286502638756  0.1594557503022772  0.6632561250731812
  0.9360964981947532  0.6307040247956003  0.1535918527565210
  0.9600667675124795  0.2819778058851141  0.3006136748331170
  0.3980108224056407  0.8454775514188271  0.8437744683365141
  0.0645359547640336  0.1515480960783480  0.9087402722809308
  0.5939736762637527  0.6830987437344204  0.4245028886822076
  0.0802729302792402  0.8220252618483669  0.6102218237485157
  0.5857039070600011  0.2975992011115667  0.0821789811475254
  0.8984899704398753  0.6567572078923807  0.5715701251487313
  0.4073676034434400  0.1163280635471276  0.0968274549066558
  0.8815712895064243  0.3209670852726266  0.9134882483890069
  0.4058803209805076  0.8627689010562015  0.4211308613089600
  0.8551937155896000  0.8221743898756593  0.6653736516407950
  0.4006053209029465  0.3354610245869694  0.1546725406180201
  0.8793714095529269  0.1537323663239788  0.8202796899592112
  0.4111188293709490  0.6839879174149968  0.3379447370234396
  0.0769125610416125  0.3226411352221640  0.8280386992877059
  0.5698214932687737  0.8637369875181915  0.3336450055300371
  0.0092480463531359  0.6459487433589323  0.6902206539305714
  0.5779702926523551  0.1519235782361747  0.1887461050008473
  0.4013668692923879  0.3496186348735264  0.5822542670398593
  0.9260866909676386  0.8387658502892004  0.0826484419352977
  0.8427357962280693  0.1882670994586854  0.4014248249840476
  0.4135701129184231  0.6535692773321248  0.9149243878335843
  0.0497704265961681  0.3091080225732402  0.4085824136146503
  0.5874468772069534  0.8377017018884879  0.9237561743917763
  0.5890954120207422  0.1580476172706513  0.5719287092389583
  0.1124956487371193  0.6584432992038110  0.0688526270503262
 
  0.14402213E-02 -0.69145665E-02 -0.16125507E-03
  0.29135282E-02 -0.31935237E-02 -0.13087345E-03
 -0.19373523E-02 -0.33988277E-02 -0.22308295E-02
  0.29533337E-02 -0.45408078E-02 -0.57428352E-03
 -0.24654087E-02  0.71282548E-02  0.17627049E-02
 -0.31680198E-02  0.33937588E-02  0.51275396E-03
  0.40673828E-03  0.19266838E-02 -0.74324852E-03
  0.12945258E-02  0.78054150E-02 -0.81364630E-02
 -0.40632123E-02  0.26522687E-02 -0.50264306E-02
 -0.11704615E-02  0.43022490E-03 -0.16249517E-02
 -0.33439826E-02 -0.89035203E-03  0.33657536E-02
  0.80046948E-03 -0.51336170E-02  0.20080138E-02
 -0.21196097E-02  0.91107903E-03 -0.45155885E-02
  0.80316237E-02 -0.69051856E-02  0.10698795E-02
  0.44199561E-02  0.68355306E-02  0.75755154E-05
 -0.42928659E-02  0.49018440E-02  0.46306877E-02
 -0.90420901E-03 -0.86501910E-02 -0.26008764E-03
  0.89123024E-03  0.71449481E-02  0.10038159E-01
 -0.15590369E-02 -0.53319239E-02  0.38697558E-02
  0.71308444E-02  0.87079293E-02  0.12739633E-02
 -0.60609674E-02  0.78811717E-02 -0.32949056E-02
  0.78564842E-02 -0.93553402E-02  0.40761839E-03
  0.24368115E-02 -0.18478645E-02  0.36293266E-02
  0.52805950E-02  0.10037556E-02 -0.30493730E-02
 -0.54631466E-02  0.19815130E-02  0.82015206E-04
  0.19710857E-02  0.21653778E-02  0.19458487E-02
  0.94701935E-03  0.46035579E-02  0.11580115E-01
  0.33888915E-02 -0.71948377E-02  0.25206404E-02
 -0.24892120E-02 -0.32032393E-02  0.10219428E-01
  0.50063291E-02  0.35432756E-02  0.62593665E-02
 -0.99378069E-02 -0.91733345E-02  0.10038129E-02
 -0.20579090E-02 -0.52922623E-02  0.34241391E-02
  0.57954658E-02  0.17512258E-02 -0.13815551E-02
  0.12421216E-02  0.33307695E-02 -0.67922571E-02
 -0.18387276E-02  0.43115105E-02  0.63516039E-02
 -0.42793420E-02  0.14848192E-01  0.45355377E-02
  0.27189592E-03 -0.60151809E-02 -0.33947945E-02
 -0.65187259E-02  0.75285452E-02 -0.48630727E-03
  0.34248764E-02  0.35324115E-02 -0.11644465E-02
 -0.39727308E-02 -0.25321105E-02 -0.58666857E-02
 -0.47282534E-02  0.32794605E-02 -0.45580536E-02
  0.19315669E-02 -0.38821223E-02  0.33315970E-02
 -0.44750921E-02  0.10406330E-01 -0.21204966E-02
 -0.92552622E-03  0.58864458E-02 -0.37588583E-02
  0.40871487E-02 -0.50683852E-02  0.82579935E-03
 -0.80113023E-02  0.13911737E-02  0.78826366E-02
 -0.14294576E-01 -0.24147005E-02  0.73076446E-02
  0.11229201E-02  0.18969677E-03 -0.65846286E-02
  0.28085315E-02 -0.23703530E-02 -0.10782632E-01
  0.30074924E-02  0.60332574E-02 -0.53136937E-02
 -0.40516796E-02  0.45685035E-02 -0.72134820E-02
 -0.68513217E-03  0.15981101E-02  0.70048494E-02
 -0.28045096E-02  0.10527864E-02  0.71524672E-02
  0.23422577E-02  0.60166409E-02 -0.11003411E-02
  0.26428182E-02  0.60285664E-02 -0.15450580E-01
 -0.74598995E-02 -0.71833259E-02 -0.62668955E-02
 -0.30220782E-03  0.25750799E-02  0.21336514E-02
  0.45751212E-02  0.53354249E-02  0.42667309E-02
  0.43450875E-03  0.28343011E-02 -0.16017191E-02
 -0.38705994E-02  0.84130495E-02  0.16729514E-02
 -0.60037866E-02  0.16391312E-02  0.83459462E-02
  0.15404036E-02  0.49417613E-04 -0.82951704E-02
  0.17498655E-02 -0.68145710E-03  0.71783556E-02
 -0.32837605E-02  0.70393220E-03 -0.37167016E-02
 -0.17786188E-02  0.27185311E-03 -0.14347149E-03
  0.79569107E-03 -0.41662143E-02  0.73288281E-02
  0.68354011E-02  0.80833668E-02 -0.10580543E-01
  0.26634059E-02 -0.29578588E-02 -0.72634397E-03
 -0.53095046E-02  0.79565022E-02 -0.16629429E-02
  0.29858256E-02  0.63474299E-02 -0.16901640E-02
  0.11478334E-02 -0.19157718E-02  0.12918734E-02
 -0.10609812E-01  0.98252409E-02  0.12274883E-01
 -0.51848692E-02  0.10415056E-03  0.98219809E-03
  0.11017720E-01 -0.92761031E-02  0.28577461E-02
 -0.28063321E-02 -0.11281068E-01  0.81112365E-02
 -0.91044124E-02 -0.21554869E-02  0.54430576E-03
  0.74313712E-02  0.34628331E-02  0.49678729E-02
  0.59231762E-04  0.13949087E-02  0.53458830E-02
  0.64484598E-02  0.50324217E-02 -0.11614463E-02
  0.21738942E-03  0.15314571E-03  0.37971208E-02
  0.22282148E-02  0.24615207E-02 -0.18547525E-02
 -0.41099853E-02  0.38479554E-03 -0.50222869E-02
  0.64352838E-02 -0.51369896E-02 -0.14032631E-01
  0.71769688E-02 -0.23058801E-02 -0.17112116E-02
  0.90445026E-03 -0.37227523E-02 -0.21485826E-02
  0.40838830E-02 -0.54250155E-02 -0.23649372E-02
  0.36803812E-02 -0.56522783E-02  0.24103423E-02
  0.31612390E-02 -0.30653807E-02  0.33029094E-02
  0.48202409E-03 -0.47645109E-02  0.36072652E-02
 -0.35390661E-02  0.25914067E-03  0.21264267E-02
  0.58828201E-03  0.29788514E-02 -0.70117183E-03
 -0.13380469E-02  0.87667926E-02  0.12793041E-02
 -0.20725227E-02  0.36435451E-02 -0.22895602E-02
  0.30811602E-02  0.10448738E-02  0.52059101E-03
  0.17583740E-02 -0.23969566E-02  0.14784221E-02
  0.13121732E-02  0.16726107E-02 -0.26859917E-02
  0.10301513E-02 -0.19458602E-02  0.57227948E-03
  0.37038419E-02  0.17695007E-02  0.31652338E-02
  0.32456033E-03 -0.26799722E-02  0.81015880E-03
  0.17713283E-02 -0.34574026E-02 -0.35954298E-02
 -0.48863175E-02 -0.30288963E-02  0.14958462E-02
  0.13469655E-03  0.34328007E-02  0.49506454E-02
  0.19616896E-02  0.49164950E-03  0.66562497E-02
 -0.24726473E-03 -0.20431136E-02 -0.43005400E-02
 -0.25658636E-02 -0.89682580E-02 -0.57943998E-02
  0.87103182E-02 -0.31730594E-02 -0.81660279E-03
 -0.42250405E-02 -0.20697785E-02  0.37400065E-02
  0.95637799E-04 -0.58492064E-02  0.64269819E-02
  0.84076865E-03 -0.11946968E-02  0.10955621E-02
  0.83166970E-02 -0.23365190E-02 -0.26988658E-02
 -0.37726975E-02  0.29069208E-02 -0.52804971E-02
 -0.31693867E-03  0.76051109E-02  0.10072037E-01
 -0.36325363E-02 -0.43307054E-02 -0.13796904E-02
 -0.16147790E-02  0.52565566E-02  0.17419236E-02
  0.99978192E-02 -0.31556556E-02  0.66474611E-02
 -0.41211493E-02  0.61208399E-02  0.24148181E-02
  0.26479076E-02  0.20208926E-02 -0.43357659E-02
  0.40003579E-02 -0.70599306E-02  0.43535540E-02
  0.30835072E-02  0.34368589E-02 -0.33695612E-02
  0.55481040E-02  0.23786849E-02  0.72205523E-02
  0.85487516E-02  0.23972933E-02 -0.29748710E-02
 -0.99323207E-02 -0.47556500E-02  0.43633839E-02
 -0.16261130E-02  0.21783860E-02  0.31148221E-02
 -0.11530511E-01 -0.65005153E-02 -0.11204329E-02
  0.20881153E-03 -0.38539806E-05 -0.18659638E-02
  0.50269084E-03  0.83891793E-03  0.70215306E-03
 -0.56880272E-03  0.62653326E-02 -0.39323127E-02
 -0.63504259E-03 -0.43035020E-02 -0.24157050E-03
  0.35728807E-02  0.97220196E-03 -0.37525211E-02
  0.13098027E-01 -0.25290978E-02 -0.34776655E-03
  0.16837488E-02 -0.39057125E-02  0.20895679E-03
 -0.37723334E-03 -0.49970070E-02 -0.19031689E-02
  0.60606812E-02  0.31802975E-02 -0.16307472E-02
  0.13402511E-02  0.24404135E-02 -0.70073815E-02
 -0.58640954E-02  0.10465792E-04  0.23351589E-03
 -0.24967033E-02 -0.11563136E-01 -0.41527269E-02
 -0.88301450E-02 -0.23645588E-02 -0.91935324E-02
 -0.55462658E-03  0.15604905E-02  0.18457152E-03
  0.96934837E-03  0.45949958E-02 -0.11636755E-02
 -0.71465998E-03  0.27852775E-02  0.70231579E-02
 -0.22403189E-02 -0.25858863E-02  0.50685317E-02
  0.37232199E-02 -0.50762960E-02 -0.31501043E-02
  0.76174934E-03  0.27316068E-02 -0.14954927E-02
  0.39662727E-02  0.39315137E-03 -0.76266622E-03
 -0.15605119E-02  0.31381885E-02  0.17110580E-02
 -0.80820620E-02 -0.19052110E-02 -0.10890755E-02
 -0.15356274E-03 -0.16971033E-02  0.56002045E-03
 -0.35423633E-02 -0.37377804E-02 -0.32019870E-02
  0.54771944E-02  0.25809306E-02  0.62528099E-02
  0.38440157E-02  0.42578510E-02 -0.16609050E-02
 -0.63180902E-03  0.93307180E-03 -0.72940254E-02
 -0.75844238E-04  0.41378429E-03  0.14372167E-02
  0.15560958E-02 -0.18865634E-02  0.27416829E-02
  0.42144924E-02  0.11340048E-02  0.17872789E-03
  0.75994811E-03 -0.10880952E-02 -0.10334014E-01
  0.38521430E-02 -0.63191292E-02 -0.48629409E-02
  0.13309580E-02  0.99232241E-03 -0.71693636E-02
 -0.44093489E-02  0.92914036E-03 -0.52272777E-02
 -0.17434825E-02 -0.58431516E-02  0.11683779E-02
 -0.25026613E-02 -0.29366564E-02  0.12701285E-02
 -0.28505525E-02 -0.52560616E-02  0.83417572E-02
  0.19422800E-02  0.64481016E-02 -0.67379987E-02
 -0.22517102E-02 -0.22244689E-02  0.21470256E-02
  0.33422333E-02 -0.52816591E-02 -0.13903856E-03
  0.70171560E-03 -0.17517521E-02 -0.21887988E-03
 -0.30824098E-02  0.48176082E-02 -0.56601422E-02
 -0.13137633E-02 -0.14367409E-02 -0.66602592E-02
  0.76619807E-02 -0.11427486E-02 -0.30107722E-02
  0.17105465E-02 -0.81430072E-02 -0.62538521E-02
  0.85137585E-03 -0.32228820E-02 -0.21145827E-02
  0.13147795E-02  0.57051308E-02 -0.50066132E-02
  0.26448425E-03 -0.93793557E-02  0.12704776E-02
 -0.28435844E-02  0.21394161E-02  0.11951354E-01
 -0.64017999E-02 -0.45847257E-02  0.17244606E-02
  0.53428347E-02  0.13599477E-02 -0.54646131E-03
 -0.16118493E-02  0.93037730E-03  0.32980207E-02
 -0.13265167E-03 -0.30243399E-02  0.31978345E-03
  0.37009544E-02 -0.17607812E-02  0.42024102E-02
  0.33421254E-02  0.15230259E-02  0.21520898E-02
 -0.21853258E-04  0.39734392E-02 -0.41886293E-02
 -0.20788405E-02 -0.16780309E-02  0.97120901E-03
  0.59324115E-02 -0.29281568E-02 -0.92812797E-02
  0.29779235E-02 -0.55614129E-02 -0.32968708E-02
 -0.79749579E-02  0.48413436E-02  0.72252583E-02
  0.25245577E-02 -0.50380942E-02 -0.79296985E-02
 -0.73113792E-02  0.29202032E-02  0.68831205E-02
 -0.93193234E-04 -0.26717491E-02  0.48939143E-02
  0.11169652E-02  0.31441421E-02  0.68738465E-02
 -0.19902860E-02 -0.51914300E-02  0.14912158E-02
 -0.25876744E-02  0.26865096E-02 -0.53856151E-02
  0.24672964E-02 -0.65739182E-02 -0.10139790E-01
 -0.36868263E-03  0.11087044E-02 -0.55868886E-03
 -0.67260775E-03  0.94476144E-02  0.35562255E-02
  0.11731758E-02  0.24957729E-02  0.35805809E-02
  0.11917381E-02 -0.39102835E-02  0.75145035E-02
  0.42350414E-02  0.14096276E-02 -0.34512733E-02
 -0.32758039E-02 -0.39813885E-02 -0.71980187E-03
  0.60235781E-03  0.16004659E-02  0.62017839E-03
 -0.64130222E-02  0.26464865E-02  0.71752240E-02
 -0.23604761E-02  0.89250175E-02  0.84168764E-02
 -0.16131471E-02  0.80641919E-03 -0.10274852E-01
 -0.54768911E-02 -0.34558781E-02  0.24661475E-02
 -0.79177891E-02  0.59850419E-02  0.28952939E-02
 -0.63113357E-02  0.79601459E-02 -0.26777588E-03
 -0.38665095E-02 -0.25949138E-02 -0.30246786E-02
  0.50672795E-02 -0.44838664E-02 -0.13609115E-01
 -0.39390959E-02  0.10697877E-02 -0.49052701E-02
  0.22612926E-02  0.16914111E-02 -0.25806081E-02
 
           1
   2.00000000000000     
  0.82106110E+00 -0.52260496E-04  0.00000000E+00  0.00000000E+00
  0.15450838E-01  0.99394232E+00  0.13436427E+00
  0.52035828E+00  0.55049140E+00  0.76105025E+00
  0.26316697E+00  0.50417570E+00  0.87454562E+00
  0.94157045E+00  0.36966750E-01  0.43809859E+00
  0.73797989E+00  0.29934486E-01  0.87330044E+00
  0.16723212E+00  0.50290680E+00  0.37323710E+00
  0.40315417E-02  0.47769638E+00  0.88373857E-01
  0.22139394E+00  0.23462349E+00  0.13439691E+00
  0.76842578E+00  0.98123091E+00  0.62366328E+00
  0.72848121E+00  0.26178326E+00  0.73405633E+00
  0.76166375E+00  0.71853621E+00  0.36056191E+00
  0.23939004E+00  0.24756142E+00  0.88320145E+00
  0.74377483E+00  0.24166686E+00  0.13395447E+00
  0.25791803E+00  0.51391469E+00  0.63451683E+00
  0.96490042E+00  0.98400772E+00  0.86139534E+00
  0.54759121E+00  0.52101140E+00  0.37522602E+00
  0.12493699E-01  0.96479733E+00  0.55051056E+00
  0.51145327E-02  0.48107487E+00  0.64057515E+00
  0.49732750E+00  0.95947018E+00  0.12823115E+00
  0.99941191E+00  0.47835249E+00  0.87859456E+00
  0.49981339E+00  0.60481983E-01  0.37957414E+00
  0.25752863E+00  0.99808759E+00  0.38524115E+00
  0.73570599E+00  0.53570111E+00  0.88039899E+00
  0.75611765E+00  0.48561427E+00  0.61476143E+00
  0.30119454E+00  0.72349050E+00  0.10830485E+00
  0.24118396E+00  0.25419393E+00  0.62287258E+00
  0.74260852E+00  0.76034504E+00  0.11032277E+00
  0.72395227E+00  0.22080888E+00  0.48468831E+00
  0.50995757E+00  0.71463859E+00  0.51146720E+00
  0.49451843E+00  0.98867260E+00  0.99661247E+00
  0.23401358E-02  0.24858224E+00  0.50469421E+00
  0.77427240E+00  0.74767760E+00  0.74941546E+00
  0.42743387E-01  0.78692458E+00  0.26748711E+00
  0.50252732E+00  0.26510222E+00  0.74318105E+00
  0.98455426E+00  0.72900821E-02  0.98310472E+00
  0.46856835E+00  0.23667827E+00  0.48864538E+00
  0.51876561E+00  0.72253526E+00  0.11927900E-01
  0.76705485E+00  0.25108742E+00  0.26308996E+00
  0.18099586E+00  0.75959150E+00  0.71807876E+00
  0.48906202E+00  0.75158865E+00  0.24018681E+00
  0.47887761E-02  0.28018570E-01  0.26892977E+00
  0.49209443E+00  0.48335437E+00  0.88766444E+00
  0.44745092E+00  0.43385960E-01  0.74532906E+00
  0.97531816E+00  0.50478725E+00  0.24513257E+00
  0.29038884E+00  0.20673029E+00  0.23908871E-01
  0.73607870E+00  0.71200915E+00  0.48407870E+00
  0.21407808E+00  0.76622138E+00  0.52667878E+00
  0.71206265E+00  0.26531200E+00  0.99155417E+00
  0.40577904E-02  0.96071602E+00  0.73517434E+00
  0.46972200E+00  0.53791663E+00  0.26463023E+00
  0.14298746E-01  0.47162417E+00  0.76260070E+00
  0.52234211E+00  0.99927565E+00  0.25147747E+00
  0.25294513E+00  0.28641591E+00  0.51384922E+00
  0.73320356E+00  0.76869987E+00  0.99291694E+00
  0.75088591E+00  0.24183921E+00  0.62108203E+00
  0.25190972E+00  0.70604918E+00  0.98377909E+00
  0.98176627E+00  0.26606233E+00  0.19479138E-02
  0.47164580E+00  0.48852914E+00  0.50444219E+00
  0.56565858E+00  0.44527721E+00  0.14797947E+00
  0.97512610E+00  0.48672288E+00  0.49930517E+00
  0.50101943E+00  0.86362418E-02  0.89093930E+00
  0.98994670E+00  0.75746121E+00  0.49446971E+00
  0.64252071E-02  0.74291803E+00  0.99118568E+00
  0.46775943E+00  0.99028428E+00  0.49907430E+00
  0.43100592E+00  0.25899757E+00  0.24653668E+00
  0.76410366E+00  0.76462036E+00  0.87267812E+00
  0.24973930E+00  0.75170744E+00  0.22566739E+00
  0.21013221E-02  0.23481282E+00  0.73656461E+00
  0.80995137E+00  0.74259904E+00  0.22140653E+00
  0.26504236E+00  0.25107428E+00  0.73514662E+00
  0.14413798E+00  0.24922623E+00  0.25026594E+00
  0.49215427E+00  0.80632197E+00  0.76149255E+00
  0.25173148E+00  0.49731235E+00  0.10415655E+00
  0.48549007E+00  0.99442459E+00  0.61399179E+00
  0.68088465E+00  0.27428308E+00  0.86804802E+00
  0.21581567E+00  0.27142145E+00  0.36996756E+00
  0.22993038E+00  0.73212487E+00  0.86904631E+00
  0.75691576E+00  0.96990246E+00  0.37233341E+00
  0.74519141E+00  0.99965188E+00  0.11913572E+00
  0.51547479E+00  0.51412042E+00  0.63520182E+00
  0.48742688E+00  0.42933790E+00  0.23424611E-01
  0.23640381E+00  0.74821653E+00  0.37812103E+00
  0.73164368E+00  0.72545112E+00  0.60751800E+00
  0.27256307E+00  0.95030779E+00  0.12392595E+00
  0.20175849E+00  0.99499604E+00  0.62787235E+00
  0.77936111E+00  0.52624902E+00  0.11100823E+00
  0.22982908E+00  0.99117937E+00  0.87798747E+00
  0.82343028E+00  0.40375933E+00  0.37370107E+00
  0.26946728E+00  0.99405262E+00  0.25325397E+00
  0.77467482E+00  0.49524396E+00  0.75768903E+00
  0.22701785E+00  0.41186303E-02  0.75846925E+00
  0.71866863E+00  0.48535775E+00  0.24888138E+00
  0.24767529E+00  0.96259953E+00  0.99432414E+00
  0.72764090E+00  0.46583597E+00  0.49891271E+00
  0.22121307E+00  0.34700471E-01  0.49940443E+00
  0.76304044E+00  0.51336809E+00  0.99235629E+00
  0.72846850E+00  0.69335571E-02  0.74370172E+00
  0.22666877E+00  0.52210646E+00  0.23412641E+00
  0.27262989E+00  0.48835794E+00  0.74549360E+00
  0.76426341E+00  0.96541104E+00  0.24064931E+00
  0.23240403E+00  0.51028896E+00  0.49831380E+00
  0.72869093E+00  0.32711799E-02  0.99420582E+00
  0.72266496E+00  0.97130720E+00  0.49589969E+00
  0.24534503E+00  0.45514710E+00  0.98587202E+00
  0.97907044E+00  0.19615026E+00  0.36582806E+00
  0.50015048E+00  0.74802609E+00  0.87792592E+00
  0.49303566E+00  0.24650128E+00  0.61183257E+00
  0.24186091E-01  0.73817562E+00  0.11785732E+00
  0.96923588E+00  0.24026137E+00  0.86405357E+00
  0.49672808E+00  0.77443224E+00  0.38213956E+00
  0.96309918E+00  0.73294429E+00  0.63479152E+00
  0.48578371E+00  0.22555800E+00  0.13320199E+00
  0.16154635E+00  0.37036378E+00  0.45553714E-01
  0.63331498E+00  0.88512057E+00  0.54756937E+00
  0.62538992E+00  0.11430406E+00  0.95051732E+00
  0.12877747E+00  0.61608242E+00  0.45019000E+00
  0.35557346E+00  0.37480196E+00  0.93752745E+00
  0.81816068E+00  0.86118953E+00  0.44628091E+00
  0.82754102E+00  0.94075588E-01  0.40173571E-01
  0.32652625E+00  0.59960907E+00  0.55592291E+00
  0.86204331E+00  0.68953089E-01  0.19984348E+00
  0.36860828E+00  0.59596218E+00  0.70143064E+00
  0.86510020E+00  0.87031538E+00  0.28243657E+00
  0.35757120E+00  0.38992073E+00  0.79509821E+00
  0.14531725E+00  0.62236602E+00  0.28419945E+00
  0.62860361E+00  0.10960909E+00  0.78602887E+00
  0.14643322E+00  0.42632439E+00  0.17979027E+00
  0.64607810E+00  0.89360599E+00  0.69983503E+00
  0.83933141E+00  0.63069573E+00  0.95436081E+00
  0.30621808E+00  0.14071106E+00  0.44974284E+00
  0.83365776E+00  0.36721085E+00  0.54045457E+00
  0.36433462E+00  0.85673116E+00  0.35208902E-01
  0.14334324E+00  0.13440126E+00  0.55946023E+00
  0.65725770E+00  0.61310842E+00  0.48588160E-01
  0.16057426E+00  0.86626537E+00  0.94242192E+00
  0.61230203E+00  0.39325462E+00  0.45508906E+00