Na88 Ge16 P8 Se96                       
   1.00000000000000     
    13.9614333504000001    0.0000000000000000    0.0000000000000000
     0.0000000000000000   13.9614333504000001    0.0000000000000000
     0.0000000000000000    0.0000000000000000   27.9228667008000002
   Na   Ge   P    Se
    88    16     8    96
Direct
  0.9954951856351625  0.9966947798887426  0.9887824945763889
  0.4994306994165424  0.5446092846746953  0.5010303148416211
  0.5117420503950756  0.4980814754533611  0.8894297226850778
  0.7027929240035726  0.2170964344932367  0.3760137263395373
  0.2415280668206480  0.9807626370883568  0.8780969143740474
  0.7360918872108418  0.4864313098029153  0.3704657477893214
  0.9664892890906930  0.4779998906403722  0.1231028314294318
  0.2155614557885269  0.2232227447389352  0.2943187807206319
  0.7460748677321014  0.7370286661911634  0.6350285102245831
  0.7422663007796745  0.2191328680801957  0.8618170973853313
  0.7437140046811144  0.7211175004769602  0.4991943583735260
  0.2693216979801364  0.2604372176679141  0.8684053326256324
  0.7401326152913882  0.2485565382416929  0.1101232681938581
  0.2781123660101918  0.0191932008718238  0.6158992937026010
  0.9525126211871152  0.0078787691618547  0.8643564089905071
  0.9911829678100321  0.5073759741842453  0.3667119109762737
  0.0275781217741005  0.0417240822497511  0.6399034318475894
  0.0013936041606997  0.4789955931410040  0.5221616967688811
  0.7743725967896637  0.9803540823346529  0.1229695711493836
  0.9925067835349508  0.5415172707994774  0.8809202981106071
  0.4678213477515407  0.0103535642346263  0.3774168565495607
  0.9841017457444553  0.2581672269077427  0.2530501055173023
  0.6772791024991529  0.9220025794067785  0.8682996351371878
  0.7071685887887601  0.2618648180960690  0.7545798894280655
  0.2799018484194071  0.7678940374678823  0.1213988179141128
  0.2612614469358102  0.2488920792585293  0.6201437315560254
  0.7712903357430650  0.6923122058713839  0.1227334246613041
  0.7786285619186800  0.7370533673571106  0.3622897677148326
  0.5509911807517417  0.8701568415115488  0.4825671522992575
  0.4733052842957559  0.0614016542177506  0.0139032567523461
  0.0164592139306954  0.2327115525977816  0.5149969371661461
  0.5151324907410479  0.8119491162505158  0.7528715503207006
  0.2118261866773981  0.7607796685707446  0.2319694614839281
  0.5406251481088051  0.5334764908067022  0.7623564535406464
  0.0200244298479673  0.7505078865000647  0.9854927332776748
  0.2507994224358105  0.7528930604562840  0.4990183339531473
  0.4734399076060912  0.7070501816186000  0.9983571701476678
  0.4803516956860963  0.2629713861090778  0.2535118039810095
  0.0422387804947827  0.7427782532174930  0.7614071830277853
  0.4594357670190243  0.7315295361410055  0.2366691238563404
  0.7596620959064617  0.9887467824366183  0.3773829184497863
  0.5477800473627419  0.5018768827003963  0.6359477645222942
  0.4964291957245545  0.0631722270854762  0.7375020486101057
  0.9906197619048466  0.5156082627478205  0.2454857846736147
  0.2901409247397467  0.2258429107018702  0.0101375691340062
  0.9963420573920656  0.7265633515582359  0.5008550675337001
  0.2965567478923885  0.7551637377408473  0.6263009381180172
  0.7349157694032900  0.2579443641573632  0.9829613854166392
  0.9764074145164088  0.0393784078177543  0.7506742315697075
  0.4635764489369238  0.5027254047631413  0.2595112772904585
  0.0054408773515959  0.4942067204471472  0.7389894322588357
  0.5403227161023111  0.9705737062838523  0.1334544246551468
  0.2868246126152090  0.2594671461770688  0.4998051291329639
  0.7307784645620983  0.7583190536185722  0.9809974659478840
  0.7601273890617506  0.2148758037460664  0.5027324557700118
  0.2419491351623456  0.7524984135743220  0.0016009868695251
  0.0129509772755599  0.2655281983630520  0.9866251667200056
  0.7870292621851671  0.2643028321554650  0.6362376726426298
  0.4993355618862886  0.4367276895303698  0.0183857769376252
  0.0098799426005506  0.9702565206298197  0.3854751184044281
  0.2532604764753581  0.9823579561711436  0.1272447302284674
  0.0255243193357540  0.9579421814003015  0.5039411946912637
  0.0096288882230671  0.5089349467063489  0.0042704853249112
  0.5242510088789127  0.2125473001787950  0.4979157127745190
  0.0130139318235948  0.9522813946299806  0.2318767170583225
  0.7462814035643596  0.7446921066385480  0.7510369035391371
  0.2277707048090645  0.7531417145659193  0.3619966069526780
  0.0871869855872415  0.2670352240023483  0.7553966433843314
  0.8015338129576716  0.7431273570180883  0.2421119949018641
  0.3696879599774749  0.2776057029474592  0.7410999227160985
  0.7473789637046435  0.2411846867188175  0.2581051536625860
  0.2809215008218138  0.7471441780184002  0.7369552390541303
  0.2081356499981779  0.4976765536584551  0.1266202784857855
  0.8054553482733217  0.9667359975363560  0.6291917347064413
  0.4814875009004986  0.0197950588695591  0.8771004970929751
  0.2537147587150617  0.5189851633732555  0.3762328056609177
  0.2379297219594764  0.5084100463409056  0.8706114609461683
  0.5135559485557698  0.9929944789841674  0.2503718009876154
  0.0092224634638178  0.0086458359913413  0.1059531585611691
  0.2574358000347410  0.5207484046820016  0.6251567517977933
  0.7432044044629770  0.5906888793249796  0.8689113752281898
  0.1978861387707189  0.1253843952638836  0.4033576938156235
  0.8473734234759474  0.4930345849401156  0.6253608725992683
  0.2556691604922484  0.2501825046169979  0.1376879281703145
  0.5308709569718649  0.9877731582300177  0.5915418649011147
  0.6366965944232065  0.4823884758399575  0.1352559557406111
  0.2332992799594701  0.7467294922606434  0.8690306316384722
  0.5236744093121173  0.4882348436566821  0.3859877131778746
  0.2443320270833080  0.9936299448224351  0.2539439365059309
  0.7868805367548065  0.4905722439749233  0.7598894839545193
  0.2233161163923440  0.0137672800334001  0.7518312472947626
  0.7230800024733159  0.4982010658927551  0.2588518012398305
  0.2448674315367137  0.9766060152263905  0.9981162688722676
  0.7565062729011200  0.4601501330417115  0.4962386394723959
  0.2775165410763298  0.0030673949556286  0.4998508103178481
  0.7548150739331698  0.5081000965474117  0.9991950986888691
  0.7372661636702823  0.0072361951546562  0.7463370472889822
  0.2205190864053099  0.4941374318710590  0.2485592830804879
  0.2912583368076578  0.5040272090300769  0.7507244853036315
  0.7551177538379280  0.9928470157009303  0.2476867137460757
  0.2565068245646091  0.4979699564424299  0.5090306439111026
  0.7414390370935452  0.0145190597584648  0.9916717635262013
  0.7887698440394912  0.9776437066098480  0.5020378786557570
  0.2436932514723620  0.4886453052792963  0.0033791606717612
  0.9770296294142065  0.2429863850681417  0.3845423537972097
  0.4794668983570756  0.7764870108907644  0.8777126842381836
  0.5234461500140312  0.2379668388528884  0.6130929325637016
  0.0138224779352429  0.7481839894454937  0.1198249727012204
  0.9974163573814733  0.2640919770643532  0.8674907805069897
  0.4918743447263083  0.7417221337185081  0.3730482604369305
  0.0227667446271164  0.7496706939784880  0.6237327798000604
  0.5036702431572817  0.2447679916086190  0.1192657367519391
  0.1440526197912683  0.3798883358015022  0.0570729623134985
  0.7035319472368179  0.8800269096235631  0.5551688047570977
  0.6329251740116855  0.1026654591207123  0.9343571341591606
  0.1494817134357797  0.5935844437958924  0.4647862071800975
  0.3536296782919718  0.4104263792341667  0.9549113336918585
  0.8712404820293486  0.8779200260130471  0.4512927293276676
  0.8306542233913796  0.1183695035840108  0.0449088205790891
  0.3517427828919782  0.5965745533548282  0.5578684578162320
  0.8533839971966125  0.0892481871283311  0.2041268942587784
  0.3956756574840454  0.6077081231795067  0.7009489771644649
  0.8624420575302665  0.9138931477963376  0.2976694810114636
  0.3586250164517963  0.4135522606752294  0.8132497728382958
  0.1395276727333009  0.5948738721686082  0.3007236006410886
  0.6426695123847361  0.1060117532149488  0.7984345347225521
  0.1171645686262027  0.3885698973567199  0.2063379702442357
  0.6486345501386629  0.8992836581049433  0.6982323196933754
  0.8602023879009502  0.6115585867805520  0.9553385917865561
  0.3663441250261946  0.1126737392530921  0.4577084718848604
  0.8572267264527331  0.3538433006827751  0.5533097422197101
  0.3545044696122820  0.8909973174060133  0.0471129841629121
  0.1626379640646583  0.1021349388940321  0.5409975997644416
  0.6564880265819808  0.6009398296624863  0.0547527436213346
  0.1484726052497941  0.8746052010085074  0.9530424108578774
  0.6483135181758318  0.3688312046905490  0.4532705083165118
  0.6191914304601335  0.3828643790211853  0.3011835943593041
  0.1199982234825128  0.9156613739456962  0.8010661816556163
  0.1397548729468693  0.1167649765130260  0.7007459301939740
  0.6326411870779314  0.6146639888528682  0.2141900107269241
  0.8688615860903808  0.3675438716126284  0.7168055928799386
  0.3528757265889419  0.8934913910649319  0.2014404927168135
  0.3517286741347461  0.0954782644337180  0.3005033199752940
  0.8646484286800347  0.6178940326765949  0.7987540376182092
  0.1546318065311299  0.0884558470536634  0.0478327346340598
  0.6905723369312665  0.5609403664171075  0.5538329884310454
  0.6753197966484105  0.4346826150381330  0.9416052008590845
  0.1810565305784768  0.9313726320300031  0.4387111801762929
  0.3391186166372709  0.0793531388817897  0.9432392023351819
  0.8635847171546035  0.5697930214923804  0.4519751792963811
  0.8491286484106046  0.3889755817048153  0.0442764084186635
  0.3648757188934404  0.8946982641522089  0.5444389390529714
  0.1661222156739554  0.1002759987617535  0.2053043300907028
  0.6929390145148799  0.5728952766077495  0.7026238842222065
  0.1342373188528170  0.8890998409140930  0.2987133381054586
  0.6699812969066111  0.4203385976359207  0.8117462864750117
  0.8329367793984693  0.5983092227669292  0.3069440707514733
  0.3233810945017698  0.1125666593360344  0.8040017681757168
  0.8302408817786199  0.4265807800046787  0.2012268104722414
  0.3351219787694880  0.9347586911319100  0.7000699679731778
  0.8442716125124073  0.9296887981915647  0.9392387667486014
  0.3473468236556977  0.4138662863704963  0.4429583121506585
  0.8799311677611419  0.0840481395490758  0.5510841424835939
  0.3587893613741753  0.5698467337298563  0.0603437703032678
  0.1724560120874075  0.3960764276368137  0.5635115757195222
  0.6557421457003239  0.9098107890051174  0.0471849833122021
  0.1515663056917862  0.5974080031917666  0.9479156107787506
  0.6569413755403883  0.0476071379343354  0.4523419525326218
  0.3094651267062293  0.3885456687496038  0.2992589269558754
  0.8398299371929513  0.9024717200397886  0.7881049878809345
  0.8264406247359899  0.1160695777638303  0.7008580520104901
  0.3211252029329467  0.5822212280593158  0.1958014647243740
  0.2140645041772432  0.3917871372274699  0.7002196827382481
  0.6638956984580247  0.8807107989122843  0.2020004512286346
  0.6424963208192781  0.0804908574906452  0.3040548769162566
  0.1732118258752708  0.6190068070266938  0.7931160947002933
  0.0480804363584974  0.1443678109182363  0.3304828567531785
  0.5976901893785702  0.7106537098432136  0.8312719736842581
  0.5851278316691595  0.3279219623565441  0.6704710929353981
  0.1118978666256115  0.8522498666551694  0.1543762717934052
  0.4102580643867215  0.1509321037320931  0.6524344660216977
  0.9469690115838886  0.6658015509880888  0.1783804891352491
  0.8769612096768649  0.3348850783251665  0.3408374918024870
  0.3905259968124599  0.8745851778952775  0.8328212806350214
  0.0680664411671266  0.1484661249080597  0.9141306753223188
  0.6126041736392418  0.6726851317737643  0.4199136632939587
  0.1102345048023936  0.8486018637394244  0.5797136290943653
  0.5850380700771545  0.2847539992064771  0.0545215640098420
  0.9188079737153265  0.6552252173923229  0.5800008516883032
  0.3934223942231577  0.1468437553553478  0.0892185946194540
  0.8831254411524746  0.3476897945964883  0.9072452196795927
  0.3852020883851198  0.8148458062710007  0.4184423822748557
  0.9343135532321799  0.8368387620833168  0.6716943300229201
  0.4407471458908607  0.3711258136924780  0.1567436043734178
  0.9177671458001080  0.1868259037670408  0.8079731423110910
  0.4061587113446150  0.6300678776683920  0.3336343581640080
  0.0753262937739227  0.3908706199475523  0.8311476380912280
  0.5761391881254891  0.8501694305421233  0.3240554772104996
  0.1302180455310333  0.6665799761471053  0.6663945167986431
  0.5891553151066168  0.1659362382674351  0.1725108441996313
  0.4483607180134388  0.3368755691133942  0.5612525678419628
  0.8914407130405608  0.8178799183200528  0.0823212874134911
  0.8893756827007508  0.1436364774488638  0.4250836831415764
  0.3911160731705603  0.6670490941563935  0.9120751356792929
  0.1008704087840019  0.3208722073879227  0.4212686735683825
  0.5512085256682239  0.8496621320020206  0.9351055566751260
  0.6346866109472111  0.1395998121846800  0.5892733754949736
  0.1064672716083813  0.6614519287855863  0.0714665763205599
 
  0.46358283E-02  0.48448274E-02  0.78259082E-03
  0.50436520E-02 -0.90524386E-03 -0.23159427E-03
 -0.17551808E-02 -0.67099186E-03  0.12088154E-02
  0.63731106E-02 -0.45025327E-02  0.60723535E-02
  0.59368007E-02 -0.23269650E-02 -0.86492177E-02
 -0.55333136E-02 -0.81031813E-03  0.15378592E-03
  0.15632657E-02  0.21292178E-02 -0.22322490E-02
 -0.25827357E-02 -0.33840259E-02 -0.59478607E-03
 -0.91889531E-02  0.15140739E-02  0.26317843E-02
  0.70288747E-02 -0.58377933E-03 -0.24493829E-02
 -0.81606231E-03 -0.53700089E-02 -0.51197628E-02
  0.56919868E-02  0.39560553E-02  0.33680089E-02
 -0.68182308E-03  0.37157167E-02 -0.77357570E-02
  0.24729580E-02 -0.65276548E-02 -0.76211733E-02
 -0.59737452E-02  0.18575314E-03 -0.28485272E-03
  0.53781609E-02 -0.11840987E-01 -0.19386743E-02
 -0.26175505E-03  0.43684575E-02 -0.91202946E-03
 -0.23524765E-02  0.13456320E-02  0.51238297E-02
 -0.16443448E-02 -0.39151651E-02  0.37883392E-02
 -0.14508554E-02  0.30525325E-02 -0.35487156E-02
 -0.60435527E-02 -0.29273853E-02 -0.11249117E-03
 -0.15875932E-02 -0.50238939E-02  0.22586657E-02
  0.87242453E-02  0.73944913E-02  0.26804683E-02
  0.96953343E-02 -0.60341524E-03  0.78104486E-02
 -0.10132593E-01 -0.33626040E-02 -0.80119896E-03
 -0.95534656E-02 -0.50414406E-02  0.12941417E-02
  0.45721537E-02  0.49627066E-02 -0.11264664E-01
 -0.39154588E-03 -0.72717459E-02  0.13777714E-02
 -0.70441608E-03 -0.27131481E-02  0.12659956E-02
 -0.15479264E-03  0.76816482E-04 -0.55796397E-03
  0.13998127E-02  0.90601233E-03  0.29287752E-02
 -0.50927175E-02  0.39536747E-02  0.47238307E-02
  0.10358163E-01 -0.75372959E-02 -0.71251585E-03
 -0.93082594E-03 -0.51186041E-04  0.51793537E-02
  0.19999923E-02 -0.10479452E-01  0.23112180E-02
  0.73622852E-02 -0.85566138E-03 -0.91190257E-03
  0.45949488E-02  0.13646789E-02 -0.19631744E-02
  0.25408334E-02 -0.87580172E-03  0.35868345E-02
  0.68769580E-03  0.99235116E-02 -0.21832120E-02
 -0.80611009E-02 -0.24560731E-02 -0.32684858E-02
 -0.60799340E-02 -0.32030885E-03  0.11015038E-01
  0.26451309E-03 -0.43129465E-02 -0.21437496E-02
 -0.54204191E-02 -0.28199376E-02 -0.13128702E-02
 -0.33010592E-02  0.60193090E-02 -0.38641917E-02
 -0.73745862E-02 -0.59541111E-02 -0.30350171E-02
  0.17683754E-02  0.27765838E-02 -0.34820081E-02
  0.31128701E-03  0.53538138E-03  0.47130800E-03
  0.36492509E-02  0.28388029E-02 -0.11525947E-02
 -0.55396076E-02 -0.67440755E-02  0.44653389E-02
 -0.23264633E-03 -0.12019640E-02  0.10347434E-02
 -0.40830927E-02  0.27921690E-02 -0.81983517E-02
 -0.28090601E-02  0.20591561E-02 -0.93930549E-02
 -0.36181048E-06  0.43679206E-02  0.94856468E-03
 -0.28170839E-02  0.19933715E-02  0.18252119E-03
 -0.67874786E-02 -0.25614733E-02 -0.52663715E-02
  0.29716687E-02  0.53641174E-02  0.41139389E-02
  0.36468101E-02  0.46388594E-03 -0.10938029E-04
 -0.70321142E-02 -0.12613133E-02  0.71859110E-02
 -0.80641198E-02  0.24960852E-02  0.98029784E-02
  0.29403052E-02  0.12190117E-03  0.34649868E-02
  0.11674518E-02 -0.44560437E-02 -0.34932482E-02
 -0.14485881E-03  0.85385488E-03  0.36026090E-02
 -0.29724665E-02  0.64554483E-02 -0.33657472E-02
  0.92429197E-03 -0.54385211E-02  0.44074787E-02
  0.34359246E-02  0.28543030E-02  0.28344784E-02
  0.56593626E-02 -0.87004944E-02 -0.98881310E-03
 -0.39270017E-02 -0.33590483E-03  0.71511490E-02
 -0.51592512E-02  0.35674041E-02 -0.70622061E-03
 -0.23676719E-02  0.32351288E-02  0.98546139E-03
  0.75530223E-02  0.10340718E-01 -0.43826546E-03
 -0.30395014E-02  0.91019366E-03  0.29450339E-02
 -0.41995227E-02 -0.35339486E-02  0.70098920E-02
 -0.45589544E-03 -0.80865127E-02 -0.53143987E-03
 -0.33418877E-02  0.43672268E-02 -0.12263460E-02
 -0.42968532E-02 -0.33953395E-02  0.63870299E-02
 -0.60502490E-02 -0.36399957E-03  0.10118108E-01
 -0.74698358E-02  0.80235470E-02 -0.21114786E-02
  0.13061596E-02 -0.52063564E-02  0.35334744E-02
 -0.50612811E-02 -0.27546587E-02  0.51684161E-02
  0.31557779E-04  0.39672448E-02 -0.88126665E-03
  0.24250207E-02 -0.37567457E-02  0.10657812E-01
 -0.13706625E-02 -0.66027819E-02 -0.17818215E-02
 -0.61520173E-02 -0.35404301E-02 -0.21575686E-02
  0.73051690E-02  0.17461135E-02 -0.52212324E-03
  0.17005958E-02 -0.52542204E-03 -0.27194845E-03
 -0.71561773E-02 -0.74069421E-02 -0.17760384E-02
  0.38678861E-02 -0.88994813E-03  0.11940058E-02
  0.16266556E-02  0.23550058E-02  0.11210701E-02
  0.71258838E-03 -0.69731086E-03 -0.15460039E-02
 -0.48121436E-02 -0.20718203E-02  0.11496889E-02
 -0.28759879E-03 -0.33256713E-03 -0.12968120E-02
  0.25023913E-02  0.31797052E-03 -0.42571211E-04
 -0.15526486E-02  0.36603734E-02  0.56649122E-02
  0.54257512E-02 -0.40360142E-02  0.13633120E-02
 -0.22194168E-02  0.26311628E-02  0.26833142E-02
  0.69502159E-03 -0.23582960E-02  0.63058068E-03
  0.41584757E-02  0.45237119E-02  0.16176375E-02
  0.15387722E-02  0.36922172E-02 -0.22938586E-02
  0.46414946E-02  0.23638391E-02 -0.84463502E-04
 -0.13870065E-02 -0.37419853E-02 -0.23200295E-03
 -0.46711944E-03  0.21007547E-02  0.34687808E-03
 -0.90066404E-03  0.10904161E-02 -0.21814941E-02
  0.21217102E-02  0.24689968E-02 -0.10981952E-02
 -0.25997174E-02  0.17805613E-02 -0.86568416E-03
  0.40326996E-02  0.34603627E-02 -0.36229188E-02
  0.33459739E-02  0.18349986E-02 -0.77598859E-03
 -0.84063657E-04 -0.14373850E-04  0.74373825E-03
 -0.38775200E-02 -0.34234180E-02  0.72507582E-03
  0.26224669E-02  0.89562119E-03  0.24032802E-02
  0.71630395E-02 -0.38239880E-02 -0.16303213E-02
  0.66236914E-02 -0.31534355E-02 -0.31012595E-02
 -0.27762888E-02  0.65532486E-03 -0.21949585E-02
  0.48955119E-02 -0.14551229E-02 -0.25848595E-02
  0.76945188E-03  0.37329251E-02 -0.32616776E-02
  0.15232042E-02  0.39830971E-03  0.13830170E-02
  0.26460814E-02 -0.25092420E-02 -0.50379480E-03
 -0.21632649E-02  0.35175953E-02 -0.17900793E-02
  0.52954673E-04 -0.48020458E-03  0.33538503E-02
  0.23889892E-02  0.48687659E-03 -0.17074036E-02
  0.35349424E-03 -0.18341258E-02  0.20926198E-02
  0.20342387E-02  0.66207395E-03  0.11214281E-02
 -0.94769267E-03 -0.20593479E-02 -0.24863903E-02
  0.31255488E-02 -0.28732907E-02 -0.42759285E-02
  0.24434594E-02 -0.48120085E-03 -0.27604844E-02
 -0.11554052E-02 -0.11539955E-02  0.75229140E-04
 -0.23828690E-02  0.25267824E-03  0.12565385E-02
  0.37441413E-02 -0.37915767E-02 -0.32590685E-03
 -0.28225776E-02  0.87592460E-03  0.15942633E-03
 -0.14725119E-02 -0.76076034E-03 -0.23306962E-02
  0.63755198E-03 -0.13242523E-02 -0.93232764E-03
  0.33503190E-03  0.12233955E-04 -0.42182710E-02
 -0.56157584E-03 -0.92434071E-03  0.34328580E-02
  0.60849565E-03 -0.10334988E-02 -0.24439526E-02
  0.46739006E-02 -0.18659832E-02 -0.16878898E-02
 -0.48451168E-02  0.14625194E-02 -0.13951795E-03
 -0.22202393E-02  0.47935642E-02 -0.10922936E-03
 -0.13605635E-02  0.10877605E-02 -0.13188555E-03
  0.35127457E-02  0.57736158E-03  0.32773300E-02
 -0.27911508E-03  0.24318203E-02  0.20522999E-02
  0.20913000E-02  0.93171557E-03 -0.69728305E-03
 -0.43351989E-02 -0.32594017E-02  0.41034359E-02
  0.39744639E-03 -0.79004475E-03  0.27805287E-02
  0.56731697E-03  0.34629902E-03  0.38088648E-02
 -0.34777173E-02  0.20453322E-02 -0.13556329E-03
  0.28196631E-02  0.26282317E-02 -0.12953313E-02
 -0.22385755E-02  0.46591093E-03 -0.22002058E-02
 -0.22233212E-02 -0.33425249E-02 -0.19897693E-02
 -0.26742071E-03 -0.21472774E-02  0.23244417E-02
 -0.44235409E-02 -0.10713828E-02 -0.10848417E-02
 -0.21661765E-02  0.12584345E-02  0.30574748E-02
 -0.57487838E-03 -0.10146164E-02 -0.68777925E-02
  0.43364355E-03 -0.11894444E-03  0.39433192E-02
  0.59235803E-03  0.18225500E-02 -0.16236053E-02
 -0.29860224E-02  0.14068939E-02  0.65490490E-02
 -0.46754079E-03  0.17110419E-02  0.14060837E-02
 -0.29458803E-03 -0.60474763E-02  0.12563441E-02
  0.28845248E-02  0.63491233E-03  0.27903653E-03
 -0.34420844E-02 -0.44149122E-02 -0.49635139E-03
  0.27458820E-02  0.71215478E-03 -0.40329150E-02
 -0.41598541E-02  0.27586548E-02  0.29257442E-02
  0.27371690E-02 -0.15893523E-02  0.45681707E-03
 -0.48300585E-03  0.31960222E-02 -0.20072345E-02
 -0.12309505E-04 -0.23290316E-02  0.22748163E-02
 -0.32547888E-02  0.36755237E-02 -0.31359750E-02
  0.33993648E-02 -0.43728223E-03  0.16933626E-02
 -0.13071340E-02  0.47649352E-02  0.82039134E-04
  0.23268945E-02  0.48225041E-02 -0.58212886E-03
  0.61901957E-02  0.29585647E-02 -0.49025445E-03
  0.25320035E-02  0.41031388E-03  0.32331016E-03
 -0.19427681E-02 -0.16472551E-02 -0.15079330E-02
  0.44533892E-02 -0.98164511E-03 -0.50813438E-03
  0.24282831E-03  0.29870749E-02 -0.41112251E-02
 -0.25787419E-03 -0.68183345E-03 -0.28469628E-03
 -0.19500077E-03  0.34084330E-02 -0.80908224E-03
 -0.16904242E-02 -0.23068365E-02 -0.48929868E-02
 -0.36760001E-02 -0.82692191E-03 -0.46264974E-03
 -0.15351543E-03  0.16619749E-02  0.32241505E-02
 -0.89237927E-03  0.10108519E-02  0.10744591E-02
  0.57586939E-02 -0.30306925E-02  0.14353203E-02
  0.12153546E-02  0.13737169E-02 -0.31817567E-03
 -0.11644076E-02  0.23904009E-02  0.10211720E-02
 -0.11869313E-02 -0.45404290E-02  0.99373614E-03
  0.23961009E-02 -0.43757741E-02 -0.40068813E-02
  0.23803867E-04 -0.11629658E-03  0.26887285E-02
 -0.12032476E-03  0.38052793E-04  0.29644909E-02
 -0.21860157E-03 -0.22366815E-02 -0.47991604E-02
  0.65619366E-02  0.12594267E-02  0.53583679E-03
  0.12588686E-02  0.24943362E-02 -0.17287938E-02
  0.18777923E-02  0.47407382E-03  0.40762910E-02
 -0.79071767E-03  0.12190775E-02  0.52218860E-03
 -0.30399230E-02  0.45106745E-02 -0.36936698E-02
 -0.18847849E-02 -0.14103482E-02 -0.41017954E-02
 -0.99540432E-03 -0.11856337E-02  0.17113774E-02
 -0.49268906E-03 -0.34265440E-02  0.25591322E-02
  0.14074880E-02 -0.57698960E-04  0.10728206E-03
 -0.18860566E-03 -0.55156920E-02 -0.11259786E-04
 -0.70425624E-03  0.20143039E-02 -0.14215202E-02
 -0.44073150E-02 -0.13469695E-02 -0.35407553E-02
 -0.45600772E-03 -0.14004724E-03  0.63671224E-02
 -0.40982551E-02  0.30273391E-02  0.19091265E-02
 -0.10273017E-02  0.22256575E-03  0.63633088E-03
 -0.25873255E-02 -0.61672293E-04  0.79444107E-03
 -0.31916232E-02  0.16192164E-02 -0.15749956E-03
  0.47830040E-03  0.30695918E-03 -0.41852560E-02
  0.16926349E-03  0.13416409E-03  0.22294177E-02
 -0.14918219E-02  0.22227810E-02 -0.51311056E-02
  0.37085400E-02 -0.28830861E-02 -0.72991675E-03
  0.77754491E-03  0.98398752E-03  0.11133556E-03
 
           1
   2.00000000000000     
  0.39755610E+00  0.42662963E-03  0.00000000E+00  0.00000000E+00
  0.99615928E+00  0.99738881E+00  0.98883855E+00
  0.50015321E+00  0.54447961E+00  0.50101373E+00
  0.51149062E+00  0.49798535E+00  0.88951631E+00
  0.70370588E+00  0.21645144E+00  0.37644866E+00
  0.24237852E+00  0.98042930E+00  0.87747741E+00
  0.73529923E+00  0.48631523E+00  0.37047676E+00
  0.96671323E+00  0.47830490E+00  0.12294294E+00
  0.21519147E+00  0.22273798E+00  0.29427618E+00
  0.74475853E+00  0.73724556E+00  0.63521701E+00
  0.74327320E+00  0.21904924E+00  0.86164166E+00
  0.74359710E+00  0.72034824E+00  0.49882765E+00
  0.27013709E+00  0.26100393E+00  0.86864657E+00
  0.74003494E+00  0.24908882E+00  0.10956919E+00
  0.27846662E+00  0.18258103E-01  0.61535342E+00
  0.95165687E+00  0.79053786E-02  0.86433601E+00
  0.99195340E+00  0.50567973E+00  0.36657305E+00
  0.27540625E-01  0.42349872E-01  0.63983811E+00
  0.10566077E-02  0.47918836E+00  0.52252870E+00
  0.77413704E+00  0.97979323E+00  0.12324091E+00
  0.99229895E+00  0.54195455E+00  0.88066612E+00
  0.46695560E+00  0.99342111E-02  0.37740880E+00
  0.98387432E+00  0.25744755E+00  0.25321188E+00
  0.67852887E+00  0.92306185E+00  0.86849163E+00
  0.70855746E+00  0.26177838E+00  0.75513932E+00
  0.27845034E+00  0.76741234E+00  0.12134143E+00
  0.25989290E+00  0.24816988E+00  0.62023643E+00
  0.77194530E+00  0.69302312E+00  0.12192658E+00
  0.77857247E+00  0.73601168E+00  0.36238845E+00
  0.55089027E+00  0.86976818E+00  0.48265783E+00
  0.47328311E+00  0.61412658E-01  0.13863292E-01
  0.16659740E-01  0.23284134E+00  0.51520671E+00
  0.51440295E+00  0.81251549E+00  0.75320990E+00
  0.21331001E+00  0.75969994E+00  0.23191843E+00
  0.54049181E+00  0.53346916E+00  0.76272743E+00
  0.20310932E-01  0.74900669E+00  0.98565828E+00
  0.25185408E+00  0.75277049E+00  0.49895302E+00
  0.47409814E+00  0.70724567E+00  0.99821656E+00
  0.48071567E+00  0.26284593E+00  0.25376871E+00
  0.42337294E-01  0.74419981E+00  0.76125081E+00
  0.45828100E+00  0.73117770E+00  0.23643502E+00
  0.75879113E+00  0.98870090E+00  0.37817188E+00
  0.54781794E+00  0.50125905E+00  0.63579422E+00
  0.49565271E+00  0.62768266E-01  0.73740801E+00
  0.99014688E+00  0.51647054E+00  0.24520901E+00
  0.28908450E+00  0.22498997E+00  0.99201834E-02
  0.99659538E+00  0.72696110E+00  0.50060567E+00
  0.29660134E+00  0.75524043E+00  0.62633470E+00
  0.73543853E+00  0.25835103E+00  0.98287883E+00
  0.97561386E+00  0.38412307E-01  0.75099407E+00
  0.46354312E+00  0.50255322E+00  0.25958539E+00
  0.48559671E-02  0.49460670E+00  0.73840222E+00
  0.53992031E+00  0.97086868E+00  0.13278164E+00
  0.28682456E+00  0.26009286E+00  0.49987307E+00
  0.73037491E+00  0.75860461E+00  0.98101054E+00
  0.75915507E+00  0.21450887E+00  0.50235525E+00
  0.24237483E+00  0.75326683E+00  0.18956514E-02
  0.13473389E-01  0.26559465E+00  0.98662438E+00
  0.78602190E+00  0.26412215E+00  0.63675237E+00
  0.49818036E+00  0.43708526E+00  0.19087924E-01
  0.10301147E-01  0.97027398E+00  0.38572330E+00
  0.25342772E+00  0.98171962E+00  0.12699452E+00
  0.25503568E-01  0.95806450E+00  0.50419923E+00
  0.92030771E-02  0.50985970E+00  0.40294107E-02
  0.52438342E+00  0.21176822E+00  0.49823140E+00
  0.13506134E-01  0.95269028E+00  0.23207974E+00
  0.74709212E+00  0.74344575E+00  0.75096608E+00
  0.22720815E+00  0.75309360E+00  0.36250881E+00
  0.86447914E-01  0.26754626E+00  0.75534606E+00
  0.80119464E+00  0.74359079E+00  0.24218258E+00
  0.37076994E+00  0.27908703E+00  0.74106853E+00
  0.74694355E+00  0.24131507E+00  0.25831609E+00
  0.28031991E+00  0.74663793E+00  0.73745733E+00
  0.20807034E+00  0.49651815E+00  0.12658221E+00
  0.80497662E+00  0.96736161E+00  0.62910390E+00
  0.48087197E+00  0.19308670E-01  0.87755797E+00
  0.25284805E+00  0.51893302E+00  0.37695752E+00
  0.23685965E+00  0.50955943E+00  0.87046022E+00
  0.51374306E+00  0.99224866E+00  0.25062489E+00
  0.84974260E-02  0.82512263E-02  0.10632335E+00
  0.25744032E+00  0.52131672E+00  0.62509363E+00
  0.74355179E+00  0.59015072E+00  0.86967475E+00
  0.19768979E+00  0.12443854E+00  0.40323007E+00
  0.84649214E+00  0.49252741E+00  0.62520633E+00
  0.25671564E+00  0.25043264E+00  0.13765053E+00
  0.53111457E+00  0.98769789E+00  0.59152239E+00
  0.63567146E+00  0.48132742E+00  0.13512875E+00
  0.23385336E+00  0.74660201E+00  0.86911615E+00
  0.52390743E+00  0.48857220E+00  0.38606801E+00
  0.24443411E+00  0.99353005E+00  0.25383320E+00
  0.78619119E+00  0.49027545E+00  0.75997183E+00
  0.22327492E+00  0.13719639E-01  0.75173836E+00
  0.72343847E+00  0.49824662E+00  0.25884875E+00
  0.24464501E+00  0.97713037E+00  0.99852202E+00
  0.75728352E+00  0.45957197E+00  0.49633629E+00
  0.27719861E+00  0.34443137E-02  0.50004301E+00
  0.75491464E+00  0.50776227E+00  0.99924026E+00
  0.73786187E+00  0.78842249E-02  0.74645291E+00
  0.22073952E+00  0.49466635E+00  0.24839498E+00
  0.29192324E+00  0.50436583E+00  0.75071844E+00
  0.75491906E+00  0.99231097E+00  0.24767010E+00
  0.25643991E+00  0.49827089E+00  0.50905549E+00
  0.74131002E+00  0.14675264E-01  0.99151551E+00
  0.78907378E+00  0.97799739E+00  0.50195922E+00
  0.24332084E+00  0.48890037E+00  0.33171553E-02
  0.97760732E+00  0.24348209E+00  0.38428286E+00
  0.47994622E+00  0.77674988E+00  0.87765710E+00
  0.52343411E+00  0.23796478E+00  0.61314620E+00
  0.13267016E-01  0.74769358E+00  0.11987691E+00
  0.99779203E+00  0.26422028E+00  0.86766292E+00
  0.49290046E+00  0.74117434E+00  0.37293149E+00
  0.23715600E-01  0.74921896E+00  0.62351065E+00
  0.50327253E+00  0.24486187E+00  0.11910852E+00
  0.14475391E+00  0.37967989E+00  0.56887819E-01
  0.70364217E+00  0.88056166E+00  0.55493518E+00
  0.63314338E+00  0.10272252E+00  0.93445619E+00
  0.14986077E+00  0.59322499E+00  0.46475012E+00
  0.35331979E+00  0.41093028E+00  0.95478312E+00
  0.87124807E+00  0.87785124E+00  0.45153295E+00
  0.83099645E+00  0.11843925E+00  0.44786526E-01
  0.35179342E+00  0.59631181E+00  0.55801834E+00
  0.85367541E+00  0.89343030E-01  0.20420722E+00
  0.39553990E+00  0.60741312E+00  0.70077089E+00
  0.86288980E+00  0.91348154E+00  0.29736321E+00
  0.35897505E+00  0.41348333E+00  0.81305205E+00
  0.13936216E+00  0.59470856E+00  0.30072899E+00
  0.64232816E+00  0.10604795E+00  0.79852454E+00
  0.11770092E+00  0.38802675E+00  0.20631463E+00
  0.64823021E+00  0.89940914E+00  0.69824374E+00
  0.85999145E+00  0.61144961E+00  0.95517165E+00
  0.36643546E+00  0.11248404E+00  0.45764169E+00
  0.85727472E+00  0.35384505E+00  0.55300760E+00
  0.35442402E+00  0.89086490E+00  0.47358866E-01
  0.16272513E+00  0.10198689E+00  0.54082255E+00
  0.65715757E+00  0.60067252E+00  0.54631847E-01
  0.14777853E+00  0.87481471E+00  0.95303242E+00
  0.64799546E+00  0.36951789E+00  0.45326268E+00