Na88 Ge16 P8 S96                        
   1.00000000000000     
    13.3422163233000006    0.0000000000000000    0.0000000000000000
     0.0000000000000000   13.3422163233000006    0.0000000000000000
     0.0000000000000000    0.0000000000000000   26.6844326466999995
   Na   Ge   P    S 
    88    16     8    96
Direct
  0.9984137235875671  0.9889306250633144  0.1089703622181702
  0.3103464704126868  0.7566461704449041  0.6371404082265556
  0.2337301131347048  0.4937042313091949  0.8545981335611059
  0.0189528696342191  0.9774500000691208  0.3826836239864932
  0.7317848088140428  0.0151081645975021  0.8756006012637049
  0.2568650406072653  0.4969278790090158  0.3634751443728390
  0.9857931416294061  0.4614098911182515  0.1452336246801604
  0.2411632621711392  0.1813256919903753  0.1184544615935747
  0.7213299703006301  0.0002327376995059  0.6167384588564812
  0.7348023663942606  0.2514209509113351  0.7581875766813496
  0.7794771376988530  0.1317539642122929  0.3778174372615575
  0.4628488552599442  0.9715144169615521  0.7701000778368241
  0.7567569445339045  0.9647091113481602  0.1360944870258089
  0.2063652925132921  0.5419027514918326  0.6190884612800844
  0.2935641950817013  0.2740217100961319  0.8612757931697664
  0.9896408473804520  0.4921773966717225  0.3706043236012342
  0.2195584506419501  0.0239679424799502  0.6182923279688889
  0.0238623007885482  0.6056667230016579  0.5260634711706781
  0.4257811481332734  0.5979785828556009  0.9749345196681459
  0.9734839774239973  0.5110359129024024  0.9961930988723814
  0.4989802483200327  0.9436213639382161  0.1365950113399257
  0.3015917888453408  0.9914108796878249  0.3794931665179905
  0.7303498484864039  0.2808365506418354  0.8845135883956489
  0.7204446286308852  0.7557415372049904  0.6185271406638755
  0.2450872337139598  0.6858779598685777  0.1273167951545597
  0.2424182416139201  0.2645944312958704  0.6253911073076918
  0.5202143670384738  0.7399971193270607  0.2438324676895062
  0.7511952864376041  0.2366883993337009  0.4831630636051746
  0.4936836177831642  0.2502117830696875  0.4981565989479904
  0.6496525130843345  0.5755675732631209  0.8848104909893376
  0.9839207742034508  0.0317456984245246  0.6248176471529182
  0.0410828325001647  0.7362689190930347  0.7422535029231663
  0.7513789756945604  0.7080008452824056  0.2536744214233629
  0.7232229137397751  0.2648982206711287  0.0142833725422013
  0.9739627275641830  0.9966466170169781  0.8778677024875492
  0.7609707572422660  0.2505103101214181  0.6342896313440742
  0.4917830020566490  0.9212799677484912  0.9893872956525429
  0.2468024780984593  0.2506237716411218  0.3683159016308770
  0.9615495028102018  0.5049739194342941  0.8633078218510858
  0.5142652737344152  0.9869697531291133  0.2580739216638098
  0.0116072029540692  0.9908327448354084  0.2499912482286080
  0.5441292805502485  0.5277743131565188  0.7742795490417850
  0.4904863838316291  0.2233308914027955  0.7667854077150611
  0.9909831765671465  0.3901914611604974  0.2670741738365809
  0.2059904096552051  0.2096703008401508  0.9772511652491721
  0.7595338551862562  0.7358610476519473  0.4819997571942304
  0.2488418389804354  0.7612067811659146  0.3699597390059125
  0.7903632333939651  0.2011240097177741  0.1392620453985101
  0.9637996657758319  0.0398463296901988  0.7543552405382272
  0.5324321190426177  0.2452522570586136  0.2548165117722416
  0.8052554066034738  0.5048809827297522  0.6304057385916780
  0.4555118220141439  0.2651216990334881  0.0031065323678385
  0.4884355425573043  0.5153420807414050  0.5041142236724969
  0.8074788638581789  0.7617132788619871  0.0037523479743222
  0.9814173519021151  0.3499446061565992  0.4936653798514476
  0.1504338495672577  0.7224539406060154  0.9953626545601124
  0.9606591511883773  0.2551913282082114  0.0120008015845736
  0.4846577818811194  0.7639401154230514  0.5135564741757490
  0.4983280236613123  0.4928794236845624  0.2497402879582498
  0.7635579112683412  0.4499931480945015  0.3886925761781239
  0.3787457120234306  0.7158598989081381  0.7719639614808618
  0.9862342724042418  0.9747469507701196  0.5114391688824927
  0.9855484252239324  0.0221267583084291  0.9963321846026024
  0.4936255560540260  0.0032042468537215  0.4905475504937882
  0.2504454774298297  0.2253275264729621  0.2437244732939229
  0.7671250915326329  0.7460368345998279  0.8847965655422884
  0.2609169848920985  0.7450682912667621  0.2510421148155633
  0.0142161597214290  0.5065820471523459  0.7380219233249240
  0.7671031519873025  0.7415901037461627  0.3681011046555182
  0.2513202362641094  0.2393263395758191  0.7421880317210938
  0.7672998075913654  0.2119538048322650  0.2721794160944326
  0.2491828556027668  0.7851759121512614  0.8996800509363440
  0.2800400702399443  0.4313895065653047  0.1261063298621567
  0.4901063821665749  0.9874588035089278  0.6260507497412386
  0.0057031795835948  0.2641256299153765  0.7333913968331121
  0.2470115794764531  0.2935136362491187  0.5026154812642755
  0.2223022513080630  0.0182114878217358  0.8795182947301428
  0.4964694303105255  0.4484428474504483  0.3789077488162125
  0.7409782020334664  0.7146316728592639  0.1338579232883719
  0.5373766784432092  0.4878702676248180  0.6395104346659654
  0.5215331525716007  0.4788277768698110  0.0505084409579833
  0.0181398952550366  0.7433808361758939  0.2504267800335556
  0.7672685709921458  0.7748993115735512  0.7325129242300140
  0.2389776227484710  0.9341210096880479  0.1166079039490547
  0.2239480532495461  0.7700900313097369  0.5073188067530907
  0.7095952291073788  0.4858112478211808  0.1169459951084137
  0.4877378279028399  0.0625040603225072  0.8700984334000449
  0.6083052807625882  0.9567667808344735  0.3834065775340795
  0.2772993854091803  0.9935559033100632  0.2501773071773040
  0.7939421953916797  0.4927556716484086  0.7486117337604027
  0.2185542941001621  0.9905766211601218  0.7508289181253890
  0.7561019364030289  0.4731363729185333  0.2550828246089553
  0.2382768229844808  0.9609509591842539  0.0004006244231932
  0.7389876661267126  0.4837117445309906  0.5060022401471721
  0.2528898189226871  0.0257884715332939  0.4943931405470637
  0.7179902959943546  0.5224834643845104  0.9945591302905346
  0.7332347373121354  0.9977790134209799  0.7444114780982233
  0.2384466197994173  0.4818505907002852  0.2460213925574313
  0.2854884305285535  0.4940036757866796  0.7388852086670512
  0.7674120467084803  0.9683467195886437  0.2599180622844765
  0.2550526919298198  0.5144139737976920  0.4949085056130546
  0.7305894900444424  0.0133044606825137  0.9991869770803193
  0.7341536106249452  0.0133386467844418  0.4919944574336584
  0.2178754452169611  0.4491694628252746  0.9970809104905234
  0.0019204450877013  0.2349448950975487  0.3806067873065545
  0.4920733533846118  0.7454070803832844  0.8756525969583250
  0.4991089467126683  0.2466785315251539  0.6381158053561354
  0.9988759315322674  0.7346394996138107  0.1218531367915951
  0.0029786769914018  0.2476674086880880  0.8675692113105720
  0.5128391867419032  0.7494040404710040  0.3767836506932361
  0.9917719456041959  0.7819599153205903  0.6146619730998026
  0.5153741655280653  0.2222276374828357  0.1342029347965400
  0.1082603953729361  0.3689740026519133  0.0499498577839987
  0.6330638215275717  0.8940692779059034  0.5351455621643380
  0.6602142224541420  0.1211875182353590  0.9502695755442829
  0.1631209873300848  0.6148517504581847  0.4419567192256925
  0.3162755178028262  0.3748840490796418  0.9435172051813888
  0.8240608710074288  0.9218226729704683  0.4432032547501779
  0.8476033972201132  0.1038575470057733  0.0443619945958250
  0.3451805324969864  0.6260945028699439  0.5473015862035172
  0.8626615192250597  0.0687879520400169  0.2155039606748431
  0.3926365949961979  0.5865649033873798  0.6871867659527726
  0.8882983219017346  0.8618728728305984  0.2977593759858638
  0.3878786000891478  0.3873581948515968  0.7885826688495545
  0.1499292448115042  0.5777771952813345  0.2954356984258865
  0.6405930788351958  0.0964528075465028  0.7957300847197644
  0.1602543233894093  0.3675432723770350  0.1997513699881591
  0.6256835120094792  0.9103560745246195  0.6912812393548701
  0.8258509071768555  0.6011059343817190  0.9463552319949606
  0.3523668996179470  0.1319902426226127  0.4541376474949361
  0.8266381052014743  0.3915433356338294  0.5555862183932561
  0.3244972766346537  0.8283389961325369  0.0363593969858414
  0.1488470642564111  0.1207011948699371  0.5360514911027010
  0.6503695079166352  0.6429875219630959  0.0433726603135775
  0.1159602570933828  0.8967948564499693  0.9533249071911452
  0.6188072623747233  0.3985292343663686  0.4569526446102435
  0.6350388388756798  0.3748804275591751  0.2920629550632056
  0.1149869023970772  0.9095231273986577  0.7996164150868073
  0.1366146486916001  0.1068554139626803  0.7028633547214952
  0.6592981142484885  0.5629893883689978  0.2038670449813263
  0.8636382082277155  0.3755927671368352  0.7006332901097512
  0.3834744424970884  0.8716980232278557  0.2040474847689575
  0.3706237503169471  0.0882795980857350  0.2964867507843825
  0.8944198534827463  0.6100601118705546  0.7861285925788642
  0.1623008340111011  0.0718659645267783  0.0489856041637037
  0.6470324325509222  0.5710470079227743  0.5626713424582759
  0.5938767878860101  0.4420208005673742  0.9533256886497985
  0.1532914014431924  0.9264206054253267  0.4460441630792556
  0.3448034151733120  0.0633944676092771  0.9532074450588728
  0.8511596435337035  0.5672389650132356  0.4530261819006131
  0.8343972045242656  0.4310065602371407  0.0400931123983672
  0.3374443322560013  0.9361797300844169  0.5517971264084595
  0.1535013124886445  0.0728116009141590  0.2020200564177442
  0.6826902837395261  0.5923907800269027  0.7056666062818190
  0.1772649449306845  0.9104597813835696  0.3039578744026163
  0.6936313101554907  0.4187927163702383  0.8032538990961876
  0.8483435356283162  0.5550511423857802  0.3013279599918670
  0.3260061385580792  0.1002185935894549  0.8053638980514332
  0.8384456790774399  0.3633963756042898  0.2045068713886664
  0.3280560741539725  0.9006925366956319  0.7113394263501744
  0.8424658781433533  0.9212433752634028  0.9523008179242366
  0.3512013429764652  0.4125782363747702  0.4506456871873034
  0.8387707847202180  0.0978981271016294  0.5439977773766919
  0.3229759718015646  0.5387201471946671  0.0471206935643074
  0.1480027672191683  0.4461630116706291  0.5485870898424395
  0.6497223664934820  0.9175012643964233  0.0543799995869180
  0.1386696563542363  0.5502047393028134  0.9439936511687327
  0.6222593689852203  0.1080089769296253  0.4470740180480723
  0.3408047879976167  0.3900163170889633  0.2867393530093322
  0.8230968465046108  0.9086280527933787  0.7973181016714767
  0.8256447500176906  0.0856534060057888  0.6907080721632729
  0.3216438009606873  0.5820596943194143  0.1952859630791005
  0.1908326571966271  0.3941147702076198  0.6940269898790266
  0.6616922179867992  0.8687235442515967  0.2092926700529739
  0.6771734401008623  0.0680901165574340  0.3098064737620331
  0.1914181905730834  0.5998371004627606  0.7805019379244207
  0.0729047186684271  0.1548680531195061  0.3297676031690863
  0.5854790331916988  0.7157218508320367  0.8187629103403772
  0.5842084752664790  0.3222320847464700  0.6867941067531655
  0.0951694968019603  0.8264611676711474  0.1598462387358955
  0.4172195767357801  0.1618099540003266  0.6820596901617946
  0.9277808450297481  0.6459610904624074  0.1779568040565270
  0.1009641185346049  0.3436811740492924  0.4087423525183965
  0.4230578291460330  0.8807636270091710  0.8579442274748412
  0.9379758845064693  0.3320067562488048  0.9242375889386154
  0.5907201991882362  0.6496321098063009  0.4246897405583912
  0.1183243343370323  0.8709150180377584  0.6033528974622214
  0.6216250776095943  0.3033100738659226  0.0971769690721153
  0.9226109909807354  0.7897033375130279  0.5458990894057026
  0.4366564312527861  0.1175537451879998  0.0883108373084406
  0.8867777351700646  0.1755193976305449  0.8316211388385930
  0.4463760804037278  0.8545897890287169  0.4212291102328061
  0.9052451054959381  0.8364659678226833  0.6683488565596268
  0.4252160566509550  0.3155787487932067  0.1651164029719343
  0.0757145992122528  0.1382097045596185  0.9114154129825874
  0.4060300241445534  0.6758503623824238  0.3364244935550164
  0.1027137108897807  0.3151245107317970  0.8182901341627171
  0.6059158643125160  0.8052135644351396  0.3236011812429221
  0.0219002962084039  0.6315529647389030  0.6299465926002998
  0.6024148473492296  0.1357835546197952  0.1778155853640042
  0.4104289968847374  0.3268390860000713  0.5876176894088910
  0.8972662204043755  0.8244384868362709  0.0857947050553162
  0.8907741403118025  0.3107185478544056  0.3407067844253839
  0.3964816338740663  0.6268815814368471  0.8760236370157806
  0.9475915295834693  0.1542567748500666  0.4387073834856620
  0.5700394565868437  0.7499177199752547  0.9435493793649334
  0.5936037527788607  0.1572721777864238  0.5929094648002435
  0.0642652384403105  0.6380661405815286  0.0754315435414163
 
 -0.38531150E-02  0.28495040E-02  0.31491806E-02
  0.32859395E-02  0.44261745E-02  0.34916636E-02
  0.90904658E-02 -0.41659927E-03  0.57101008E-02
  0.12888178E-02  0.18944688E-03  0.88525678E-03
  0.62556831E-02 -0.61462889E-02  0.42384624E-02
 -0.23271556E-02 -0.40976846E-03  0.50066385E-02
  0.83873947E-02  0.20741796E-02 -0.40228728E-03
 -0.43925293E-02  0.24993640E-02 -0.61548569E-02
  0.11261709E-02 -0.97560554E-02 -0.43595318E-02
  0.88688357E-02 -0.55645517E-02 -0.10363230E-01
  0.51043087E-02 -0.46590674E-02 -0.13554069E-02
 -0.67617742E-02  0.41621931E-02 -0.14082659E-02
  0.10537699E-01 -0.17036674E-02 -0.11628871E-01
 -0.48349606E-02  0.92388016E-02  0.43909229E-02
  0.93905244E-02  0.50724634E-02 -0.37396281E-02
  0.55879863E-03 -0.57028635E-02  0.13060849E-02
 -0.93690545E-03  0.59545240E-02 -0.78570048E-02
 -0.66220644E-02  0.10068844E-01  0.49855775E-02
 -0.46744948E-02  0.56610416E-03  0.13265425E-03
 -0.25154199E-02  0.68766526E-02 -0.15816158E-02
  0.50043327E-02 -0.88117521E-02  0.78661698E-04
 -0.80055377E-02 -0.23219530E-02 -0.10850908E-02
 -0.30210095E-03  0.54102397E-02  0.23266422E-02
  0.42067260E-02 -0.37008976E-02 -0.13316466E-03
  0.42506841E-02 -0.39189940E-02 -0.21748911E-02
 -0.46671465E-02  0.14408934E-02  0.53067057E-02
 -0.61694826E-02 -0.55347651E-03  0.33258927E-02
 -0.46582699E-02 -0.35812204E-02  0.34496988E-02
  0.56512014E-02 -0.37540732E-02 -0.67808742E-02
 -0.27451162E-02 -0.62485445E-02  0.34823428E-02
  0.13477016E-02 -0.20891970E-02 -0.45696920E-02
 -0.47529520E-03 -0.25184711E-02  0.24205517E-02
  0.72408746E-02 -0.32678024E-02  0.40549186E-02
 -0.35204763E-02  0.10390554E-03  0.31211702E-02
 -0.25880430E-02  0.71911165E-02  0.50765597E-02
  0.47484138E-04  0.61799403E-02 -0.84601803E-04
 -0.23546119E-02 -0.14293422E-02  0.74967721E-03
 -0.73637447E-03 -0.40385654E-02 -0.35328363E-02
 -0.49140846E-03  0.30377575E-02  0.52377209E-03
 -0.46862367E-03  0.57851754E-02  0.72101065E-02
  0.21016209E-02 -0.23614142E-02 -0.13824152E-02
  0.32227374E-02  0.26398285E-02  0.81746697E-03
  0.37417829E-02  0.80733279E-02  0.19110272E-02
  0.34097609E-02 -0.63713622E-02 -0.92438786E-02
 -0.98710392E-03 -0.29153486E-03  0.89092194E-02
  0.58546781E-03 -0.55135387E-02 -0.32615754E-02
 -0.62841491E-02  0.30161298E-03 -0.23276422E-02
 -0.44783008E-02  0.12818370E-02  0.46932746E-02
 -0.67812996E-02  0.40963271E-02  0.86732394E-02
 -0.43642606E-02  0.96259681E-02  0.19178401E-02
  0.54644921E-02 -0.60244869E-02  0.56467908E-02
 -0.46078908E-02  0.21642904E-03  0.13103718E-01
  0.37992751E-02  0.22034742E-02 -0.19637814E-02
 -0.39657659E-02 -0.41824052E-03  0.50694426E-03
  0.81138917E-02  0.18184375E-02 -0.16974260E-02
 -0.59608719E-02  0.13861999E-02  0.24457055E-02
 -0.40823967E-02  0.36385771E-02 -0.76987310E-03
 -0.85119801E-03 -0.21378120E-02 -0.70751678E-02
 -0.20238816E-03 -0.43245400E-02 -0.88561634E-02
 -0.57260628E-02 -0.11712924E-02  0.95586301E-03
  0.35986407E-02  0.25437073E-02  0.24608431E-02
  0.14097246E-02  0.11882270E-02 -0.31367868E-02
 -0.28666159E-03 -0.79927395E-02 -0.68230844E-02
  0.36574946E-02 -0.57045113E-02  0.10091664E-01
  0.13617751E-02  0.26452566E-02  0.92977659E-03
 -0.43791018E-02  0.36209919E-02 -0.25644998E-02
  0.15662037E-01  0.67211709E-02  0.28774877E-02
  0.96969479E-02  0.19066076E-03 -0.77074377E-02
  0.12055212E-02  0.96322926E-03 -0.52530728E-02
 -0.30436421E-02  0.29214345E-02  0.62291598E-02
 -0.21451593E-02 -0.85725745E-02  0.26778678E-02
  0.15728894E-02 -0.10439425E-01 -0.21958776E-02
  0.17233467E-03  0.54943992E-02 -0.82494867E-03
 -0.74045672E-02  0.27217795E-02  0.14375682E-02
 -0.43914350E-02  0.38787310E-02 -0.49767000E-02
 -0.80112524E-03 -0.10085678E-02  0.91496732E-03
 -0.80967532E-02 -0.56419263E-02  0.12284186E-01
 -0.17511311E-02  0.20300669E-02  0.80187285E-02
  0.55778429E-02 -0.84679418E-02  0.23146895E-02
  0.11851105E-02 -0.19231127E-02 -0.79358570E-02
  0.19228486E-02  0.10261383E-02 -0.37777630E-02
 -0.30460048E-02 -0.17807417E-02 -0.60840363E-02
 -0.21085656E-02 -0.14619836E-02 -0.32464451E-02
 -0.58917834E-03 -0.13811093E-01 -0.89974438E-03
  0.64927237E-02  0.94984133E-03  0.38296863E-02
  0.44061913E-02 -0.47243523E-02 -0.49328574E-02
  0.59450577E-02 -0.77399973E-02 -0.26614005E-02
  0.38608812E-02  0.63843730E-02  0.47364116E-02
  0.53515639E-02 -0.15076988E-02  0.14103494E-03
  0.31034111E-02 -0.17691672E-02 -0.44570157E-03
 -0.99135137E-03 -0.61284104E-02  0.67758811E-03
 -0.18766384E-02  0.27971478E-02  0.48164613E-02
 -0.52261586E-03  0.16880373E-02  0.22836692E-02
  0.20482576E-02 -0.87664172E-03 -0.15032723E-02
 -0.10962810E-02 -0.49765466E-02 -0.27983214E-02
 -0.97994457E-03  0.14806024E-02  0.19202608E-02
  0.16893893E-02  0.11688774E-02 -0.21983771E-02
 -0.18829041E-02 -0.45821768E-04  0.22919593E-02
  0.32514983E-03 -0.19499594E-02 -0.19483787E-02
 -0.12949488E-02 -0.22119295E-03 -0.10669530E-02
 -0.30481867E-03 -0.15575719E-02  0.30917118E-02
  0.38829676E-02  0.31400648E-02  0.22401357E-02
 -0.29286334E-02  0.14223031E-02 -0.57575583E-02
  0.29116479E-02 -0.92526517E-03  0.39524524E-02
  0.17355162E-02  0.17413851E-02  0.31593402E-02
 -0.13808476E-02  0.26638880E-02  0.66116165E-02
  0.26972725E-02 -0.13434258E-02 -0.74619719E-02
 -0.22709301E-02  0.14380378E-02  0.38212512E-03
  0.36536005E-02  0.33677399E-03 -0.57366943E-02
 -0.16868248E-02 -0.21611668E-02 -0.12026070E-02
  0.49211796E-02 -0.20999195E-02 -0.71431865E-02
  0.53483875E-03 -0.76704212E-02  0.35827745E-02
  0.29513147E-02 -0.42025284E-02 -0.18520759E-02
  0.19436800E-04  0.15703145E-03  0.48133367E-02
  0.57154154E-02 -0.14413994E-02 -0.20874159E-02
  0.56383395E-02 -0.80373700E-04  0.55220301E-02
 -0.36143891E-02 -0.11305076E-02  0.17549127E-04
 -0.11754269E-01 -0.87977161E-03 -0.10229855E-02
 -0.91777632E-02  0.10931521E-02 -0.60194238E-02
  0.66210635E-02  0.30547846E-02 -0.78844748E-02
 -0.45065865E-02  0.25093434E-02 -0.45083989E-02
 -0.44907566E-03 -0.47983737E-02  0.15366301E-03
 -0.19203386E-02  0.81711705E-04  0.61836188E-02
  0.16167380E-02 -0.20653702E-02 -0.64083588E-02
 -0.27102434E-02  0.67797780E-02  0.14784430E-03
  0.37248670E-02  0.33492885E-02 -0.34841067E-02
 -0.40307322E-03  0.60746682E-02 -0.33414577E-02
  0.49652284E-02  0.41825597E-03  0.14216090E-03
 -0.23694423E-03  0.61004764E-02 -0.52338512E-03
  0.40481397E-02  0.56867758E-02  0.24514248E-02
 -0.25562897E-02 -0.34337152E-03  0.38727022E-02
 -0.62517099E-02  0.24110554E-03  0.15750811E-03
  0.31927872E-02  0.32361755E-02  0.40326673E-02
 -0.68357401E-03  0.21505229E-03  0.27061798E-02
  0.15637275E-02 -0.54752731E-02 -0.67362470E-03
  0.33855710E-02  0.60325374E-02 -0.34701523E-02
  0.43848400E-03 -0.82097256E-02  0.10080236E-01
 -0.52778556E-03 -0.86052475E-02 -0.53527898E-02
 -0.27532754E-02  0.39789676E-02  0.41841083E-02
  0.10870741E-01  0.11087243E-02  0.47550947E-02
 -0.48936496E-02  0.43840615E-03  0.20241725E-02
  0.60130538E-02  0.99425407E-02 -0.36897763E-02
 -0.84897730E-02  0.28318516E-02 -0.26265598E-02
  0.43570677E-03 -0.28944984E-03  0.15529737E-03
  0.69214830E-02  0.44627085E-02 -0.22247389E-02
  0.18792239E-02  0.30470764E-02 -0.40682324E-02
 -0.47248850E-03  0.34265876E-02  0.35162798E-02
  0.89773444E-02 -0.79711267E-02 -0.17856873E-02
 -0.19480570E-02  0.23208144E-02 -0.32908184E-02
  0.82802276E-03  0.51713052E-02 -0.19284495E-02
  0.35379836E-02  0.99254350E-03  0.33111802E-02
  0.59026715E-02  0.40709965E-02  0.50763030E-02
 -0.63616846E-02  0.36616915E-02 -0.68832210E-03
 -0.93308475E-02  0.57189995E-02  0.14397538E-02
 -0.65867870E-04 -0.29860260E-02  0.44003163E-03
 -0.34786563E-02 -0.79147829E-02  0.38975270E-02
  0.98023348E-03 -0.30861612E-02  0.79106009E-02
  0.74429155E-03  0.39235372E-02 -0.12771501E-02
 -0.52630185E-02  0.33076620E-02  0.16441671E-02
 -0.22229970E-02 -0.47130273E-02 -0.84665270E-02
  0.44143108E-02 -0.46167508E-02 -0.24190039E-02
 -0.12114233E-02  0.89409874E-04 -0.46445646E-02
 -0.53830608E-02  0.29090291E-02 -0.29152247E-02
  0.41298681E-02 -0.67708867E-02 -0.11094098E-02
 -0.41794563E-03  0.45107723E-02  0.25085443E-02
 -0.37685227E-02 -0.94542268E-02  0.11208158E-02
  0.47139389E-02  0.17698291E-02 -0.10361912E-02
  0.47108038E-03 -0.55553982E-02 -0.34469851E-02
  0.24404854E-02  0.69964538E-02  0.16771606E-02
 -0.11139975E-02 -0.16048396E-02  0.31628028E-02
 -0.55154392E-02 -0.69504638E-02  0.42721473E-02
 -0.17992311E-02  0.36353688E-02  0.32461825E-02
  0.68417375E-02  0.44010663E-02 -0.45112869E-02
 -0.40823579E-02 -0.60737904E-02  0.19476345E-02
 -0.78274882E-02  0.61210546E-03 -0.28421723E-02
 -0.81452892E-02  0.17612192E-02  0.20278661E-02
 -0.37982038E-02 -0.20616122E-04 -0.85299569E-03
 -0.40357866E-02 -0.36903215E-02  0.53384564E-02
 -0.51564615E-02  0.39735133E-02  0.32981319E-02
 -0.32734295E-02  0.54132223E-02  0.85975002E-02
 -0.40724992E-03 -0.14262873E-02  0.73037485E-02
 -0.27027527E-02 -0.13584285E-02 -0.32506584E-02
  0.24447484E-02  0.19739886E-02  0.36745660E-02
 -0.68465492E-03 -0.23080980E-02 -0.10104350E-01
  0.13357162E-03  0.59192591E-02  0.51446320E-03
  0.93687417E-04  0.75527479E-03 -0.13916480E-02
 -0.28836326E-02  0.46421138E-03 -0.10362052E-01
  0.21610150E-02  0.40457064E-02  0.12919197E-02
 -0.10820428E-02  0.32830668E-02 -0.31226177E-02
  0.61475485E-02 -0.37863970E-02 -0.28625780E-02
 -0.25047960E-02 -0.58833496E-03 -0.19733934E-02
 -0.80682987E-03 -0.92741054E-02  0.25264613E-02
 -0.75113784E-02 -0.54780825E-02  0.23815165E-02
  0.30635434E-02  0.36633545E-02 -0.20945410E-02
 -0.41292303E-02  0.73919332E-02 -0.12693309E-02
  0.72208781E-02 -0.64838240E-03 -0.15016827E-02
 -0.43391794E-02  0.54800099E-02  0.56462795E-02
 -0.23559289E-02  0.12542540E-02 -0.11089800E-02
 -0.27100713E-02 -0.29739663E-02 -0.44011837E-03
  0.17870934E-02  0.11979034E-02 -0.56003579E-02
 -0.12913668E-03  0.46749580E-02 -0.31323684E-02
 -0.48483952E-03  0.22798188E-02 -0.25550051E-02
 -0.81423996E-02  0.57381540E-04 -0.59401816E-02
  0.62402762E-02 -0.68007822E-03 -0.43431387E-02
  0.56329157E-02  0.22653533E-02 -0.11036093E-02
 -0.50197866E-02 -0.34453270E-02  0.38776564E-02
  0.23825221E-04  0.16570557E-02  0.35481628E-02
 -0.32564790E-02 -0.20764328E-03 -0.81425133E-03
 
           1
   2.00000000000000     
  0.11796360E+01 -0.49001637E-02  0.00000000E+00  0.00000000E+00
  0.99783614E+00  0.98935777E+00  0.10920639E+00
  0.31083903E+00  0.75730965E+00  0.63740211E+00
  0.23509278E+00  0.49364178E+00  0.85502611E+00
  0.19146064E-01  0.97747840E+00  0.38274997E+00
  0.73272254E+00  0.14186835E-01  0.87591827E+00
  0.25651620E+00  0.49686645E+00  0.36385039E+00
  0.98705041E+00  0.46172081E+00  0.14520347E+00
  0.24050482E+00  0.18170035E+00  0.11799315E+00
  0.72149878E+00  0.99877030E+00  0.61641171E+00
  0.73613181E+00  0.25058682E+00  0.75741085E+00
  0.78024227E+00  0.13105557E+00  0.37771585E+00
  0.46183526E+00  0.97213833E+00  0.76999453E+00
  0.75833655E+00  0.96445373E+00  0.13522290E+00
  0.20564053E+00  0.54328765E+00  0.61941756E+00
  0.29497184E+00  0.27478207E+00  0.86099551E+00
  0.98972461E+00  0.49132254E+00  0.37070221E+00
  0.21941801E+00  0.24860526E-01  0.61770344E+00
  0.22869652E-01  0.60717604E+00  0.52643714E+00
  0.42508044E+00  0.59806344E+00  0.97494446E+00
  0.97310692E+00  0.51206672E+00  0.99607456E+00
  0.49973040E+00  0.94230048E+00  0.13660091E+00
  0.30039176E+00  0.99106282E+00  0.37941184E+00
  0.73030456E+00  0.28164755E+00  0.88468797E+00
  0.72107522E+00  0.75518677E+00  0.61851716E+00
  0.24572441E+00  0.68529050E+00  0.12715379E+00
  0.24171864E+00  0.26481042E+00  0.62578885E+00
  0.51928956E+00  0.73991415E+00  0.24408174E+00
  0.75049701E+00  0.23615157E+00  0.48342162E+00
  0.49453073E+00  0.24964905E+00  0.49764837E+00
  0.64924102E+00  0.57463092E+00  0.88507149E+00
  0.98412279E+00  0.31432528E-01  0.62447515E+00
  0.41011586E-01  0.73589140E+00  0.74243492E+00
  0.75246438E+00  0.70751100E+00  0.25397834E+00
  0.72269519E+00  0.26491380E+00  0.14517304E-01
  0.97357478E+00  0.99772457E+00  0.87824819E+00
  0.76097788E+00  0.25143668E+00  0.63428329E+00
  0.49143005E+00  0.92106571E+00  0.98944348E+00
  0.24669210E+00  0.25001839E+00  0.36805112E+00
  0.96147584E+00  0.50542928E+00  0.86334708E+00
  0.51419503E+00  0.98783695E+00  0.25861432E+00
  0.11922236E-01  0.99047877E+00  0.24988764E+00
  0.54461237E+00  0.52817002E+00  0.77434082E+00
  0.49104728E+00  0.22454108E+00  0.76692864E+00
  0.99149430E+00  0.38923639E+00  0.26638134E+00
  0.20584244E+00  0.20962660E+00  0.97791891E+00
  0.75962162E+00  0.73503457E+00  0.48175530E+00
  0.24789984E+00  0.76125199E+00  0.36978528E+00
  0.78969194E+00  0.20131616E+00  0.13961381E+00
  0.96278315E+00  0.40460370E-01  0.75500530E+00
  0.53177792E+00  0.24669519E+00  0.25496025E+00
  0.80607453E+00  0.50397791E+00  0.63082897E+00
  0.45482110E+00  0.26515414E+00  0.40886569E-02
  0.48900505E+00  0.51567238E+00  0.50396704E+00
  0.80688440E+00  0.76165058E+00  0.37903435E-02
  0.98263363E+00  0.35021719E+00  0.49353816E+00
  0.14954031E+00  0.72266173E+00  0.99554596E+00
  0.96004720E+00  0.25573675E+00  0.11943100E-01
  0.48453019E+00  0.76361966E+00  0.51302619E+00
  0.49829769E+00  0.49223117E+00  0.24907652E+00
  0.76269957E+00  0.44981757E+00  0.38876422E+00
  0.37928515E+00  0.71624120E+00  0.77214840E+00
  0.98644559E+00  0.97492507E+00  0.51120407E+00
  0.98550545E+00  0.20928646E-01  0.99582079E+00
  0.49417381E+00  0.23491399E-02  0.49130392E+00
  0.25064961E+00  0.22572405E+00  0.24379416E+00
  0.76646866E+00  0.74657962E+00  0.88460436E+00
  0.26326473E+00  0.74607580E+00  0.25125778E+00
  0.15669733E-01  0.50661063E+00  0.73744425E+00
  0.76728386E+00  0.74173449E+00  0.36770739E+00
  0.25086399E+00  0.23976426E+00  0.74265491E+00
  0.76697825E+00  0.21066877E+00  0.27238012E+00
  0.24941863E+00  0.78361104E+00  0.89951547E+00
  0.28006590E+00  0.43221312E+00  0.12604450E+00
  0.48899644E+00  0.98786680E+00  0.62615850E+00
  0.50449029E-02  0.26470705E+00  0.73301839E+00
  0.24689149E+00  0.29336245E+00  0.50268406E+00
  0.22108855E+00  0.17365762E-01  0.88043900E+00
  0.49620694E+00  0.44874715E+00  0.37950875E+00
  0.74181432E+00  0.71336233E+00  0.13403141E+00
  0.53755433E+00  0.48758199E+00  0.63891564E+00
  0.52182139E+00  0.47898160E+00  0.50225297E-01
  0.17683299E-01  0.74311390E+00  0.24997078E+00
  0.76695250E+00  0.77468016E+00  0.73226960E+00
  0.23888930E+00  0.93205073E+00  0.11654047E+00
  0.22492131E+00  0.77023241E+00  0.50760584E+00
  0.71025572E+00  0.48510307E+00  0.11657628E+00
  0.48862899E+00  0.61343834E-01  0.86989896E+00
  0.60888403E+00  0.95772380E+00  0.38376157E+00
  0.27810159E+00  0.99332990E+00  0.25018788E+00
  0.79440740E+00  0.49249047E+00  0.74857833E+00
  0.21840569E+00  0.98965797E+00  0.75087970E+00
  0.75582063E+00  0.47355567E+00  0.25544382E+00
  0.23819848E+00  0.96120400E+00  0.57178558E-03
  0.73929470E+00  0.48358034E+00  0.50588957E+00
  0.25272549E+00  0.25042487E-01  0.49418341E+00
  0.71784340E+00  0.52270541E+00  0.99470305E+00
  0.73348798E+00  0.99795423E+00  0.74424671E+00
  0.23816437E+00  0.48184372E+00  0.24619318E+00
  0.28553717E+00  0.49371138E+00  0.73873918E+00
  0.76721793E+00  0.96831356E+00  0.25983809E+00
  0.25500700E+00  0.51418049E+00  0.49514023E+00
  0.73117155E+00  0.13775157E-01  0.99935488E+00
  0.73371461E+00  0.13551850E-01  0.49156293E+00
  0.21831190E+00  0.44903077E+00  0.99737715E+00
  0.21805992E-02  0.23520593E+00  0.38084358E+00
  0.49186636E+00  0.74580640E+00  0.87614814E+00
  0.49951327E+00  0.24647715E+00  0.63755653E+00
  0.99853552E+00  0.73485506E+00  0.12188178E+00
  0.35263522E-02  0.24771789E+00  0.86713925E+00
  0.51258633E+00  0.74908008E+00  0.37669352E+00
  0.99250963E+00  0.78164514E+00  0.61412659E+00
  0.51545434E+00  0.22107784E+00  0.13447146E+00
  0.10870280E+00  0.36834404E+00  0.49811045E-01
  0.63306674E+00  0.89409282E+00  0.53550632E+00
  0.66107096E+00  0.12097145E+00  0.95011312E+00
  0.16396618E+00  0.61483970E+00  0.44237060E+00
  0.31573372E+00  0.37471459E+00  0.94351852E+00
  0.82229890E+00  0.92169080E+00  0.44312658E+00
  0.84622765E+00  0.10402141E+00  0.43910838E-01
  0.34617303E+00  0.62655242E+00  0.54671064E+00
  0.86198598E+00  0.69164103E-01  0.21516606E+00
  0.39256928E+00  0.58584563E+00  0.68719828E+00
  0.88801046E+00  0.86188512E+00  0.29822284E+00
  0.38812095E+00  0.38704860E+00  0.78810236E+00
  0.14952298E+00  0.57879348E+00  0.29544678E+00
  0.64115144E+00  0.96954866E-01  0.79546895E+00
  0.16019390E+00  0.36845387E+00  0.19950093E+00
  0.62642780E+00  0.91041877E+00  0.69129189E+00
  0.82581539E+00  0.60202040E+00  0.94631600E+00
  0.35297372E+00  0.13284269E+00  0.45432138E+00
  0.82625492E+00  0.39149186E+00  0.55587648E+00
  0.32356014E+00  0.82837514E+00  0.36371202E-01
  0.14932566E+00  0.12118630E+00  0.53635374E+00
  0.65026704E+00  0.64301976E+00  0.43575489E-01
  0.11619466E+00  0.89597411E+00  0.95327442E+00
  0.61931476E+00  0.39943351E+00  0.45669256E+00