Na88 Ge16 P8 Se96                       
   1.00000000000000     
    13.9614333504000001    0.0000000000000000    0.0000000000000000
     0.0000000000000000   13.9614333504000001    0.0000000000000000
     0.0000000000000000    0.0000000000000000   27.9228667008000002
   Na   Ge   P    Se
    88    16     8    96
Direct
  0.0237482816521204  0.0288574292000442  0.1309094598874836
  0.4789075175674856  0.4762509003652707  0.5311557583795247
  0.5180706112982069  0.4794281636831583  0.8714365159439692
  0.0152536808907889  0.0514780959861671  0.4131062629483407
  0.2672387481884881  0.9541775178705476  0.8728205143695990
  0.9881743261459957  0.5229885072827591  0.3640150385213994
  0.9929962571331965  0.4778383157537202  0.1206705601992807
  0.2927288534608622  0.2726998689948080  0.2007283132234176
  0.7216576680135549  0.7781832874287188  0.6194544174638048
  0.7207533953928252  0.2698430359544595  0.8833912565111398
  0.8024993840704145  0.7929487934067893  0.3736889482356973
  0.2423634406748578  0.2073169174404571  0.8945496305802030
  0.7961104264493174  0.2476916226226199  0.1217052701268341
  0.2419104153517016  0.7404882028883725  0.6288850496780658
  0.0071908797856532  0.9760497538360290  0.8700450137692481
  0.2575068697412423  0.5023836952023677  0.3694606350651252
  0.2090806329962104  0.9900731693120424  0.6130658669748893
  0.9733720601834407  0.4776707478868151  0.6123534612259180
  0.5404851953594308  0.0175917696785258  0.1533492420521912
  0.0139854822860430  0.5032374401401449  0.8843426718606657
  0.5412449604734970  0.0075433878571705  0.3727871890725448
  0.2622616849575083  0.2581917321227068  0.3734711610260450
  0.7277670979328545  0.7421401768799670  0.8704310548766451
  0.7545019429935581  0.2423182962036363  0.6304227851726852
  0.2929593222262927  0.7092471572008089  0.1168477383816530
  0.2332494825701698  0.2512113140289054  0.7577087705063218
  0.7432688980810560  0.7556416706114771  0.1231353839944224
  0.7781867507046977  0.3972587820981592  0.3690934639909232
  0.4975582523570723  0.6530567483338880  0.4766748455664416
  0.4960034356925217  0.0496710503269424  0.0160104402978406
  0.0059696239008388  0.6276375242886845  0.5021267987318822
  0.5121039027980190  0.7398333752758834  0.7536019250248344
  0.0102301716452080  0.7686442721913460  0.2576885143432677
  0.4828777608303259  0.2561641872791784  0.7563607173748143
  0.9929351689464179  0.9943833532945023  0.0049855492001494
  0.5142280681470948  0.9973886049236342  0.4992647811644970
  0.4745255675448416  0.7138113310512387  0.0135860126836976
  0.5115149327503989  0.2548432036594405  0.2407850678170864
  0.0251706813444282  0.7327641716707566  0.7593353482706455
  0.4959953759598004  0.7406054671757385  0.2537435402303812
  0.0475405646021089  0.9962558116628046  0.2657360029335269
  0.5053002882324432  0.5118306587255411  0.7427799355718979
  0.4823739754054671  0.9970367664677466  0.7369416694549376
  0.9705530177965934  0.5347270676176233  0.2532410706819804
  0.2915484701433390  0.2267120857628685  0.0390889089985846
  0.7630804618260782  0.7602710073552211  0.5018461518705390
  0.2427805100087046  0.7801857950466089  0.4932385216046397
  0.7172462500395578  0.2804297153441429  0.0124988317120141
  0.9581904430202649  0.9996050912655566  0.7462119946337141
  0.4675073438940704  0.4961588651920920  0.2501120364684808
  0.0094407897400244  0.5025770082474093  0.7497673108776814
  0.5571045044232737  0.9451763964080333  0.2556580962761255
  0.2655142494145356  0.2792296496138488  0.4913550670368601
  0.7531351762907168  0.7780964773345462  0.0045582847782338
  0.7145749546969572  0.2448790882901149  0.5121711863493302
  0.1870451775279824  0.7195535350017304  0.0129761087322461
  0.9984428906724490  0.2398662546326959  0.0066940379295702
  0.5171827864211845  0.2297198489850791  0.4944423440672474
  0.4927604783402201  0.4588682922279904  0.0110749809618891
  0.0300933671361373  0.9857225741231895  0.5312436024157704
  0.4963277515598385  0.9929509734286102  0.8689226201841687
  0.9845349860798916  0.2649103053657941  0.4924970554653803
  0.9959339937534826  0.5727182354840421  0.0080990964977830
  0.4824533522119395  0.9668402733220860  0.6225043039615316
  0.0674868649645257  0.2281290466501324  0.2498957547119149
  0.7408336360678001  0.7397563494178886  0.7459266725018371
  0.2358682984749295  0.7208120030213291  0.2315235228898778
  0.7236366413101691  0.2430025459565271  0.7605870998284174
  0.7677170931672377  0.7792299767520137  0.2467859418973923
  0.0066403365575525  0.2705348014081984  0.7452333276854149
  0.7902593859539524  0.2772107711765389  0.2598428783518421
  0.2407631322670884  0.7488693164550737  0.7462400198568379
  0.2642827038751772  0.4524747733414928  0.1130381503978865
  0.8259520888687369  0.9877027082426745  0.6271265791075274
  0.7680139038170487  0.0317672815025073  0.8649623041571987
  0.2922543528530874  0.7722802652489881  0.3674806117398302
  0.2576653452445170  0.4709601993050195  0.8696492102693788
  0.7991883745507735  0.0096789470745064  0.3701042623997697
  0.7754290673131655  0.9915135409077175  0.1164697406733493
  0.2693574186157178  0.4897623031842580  0.6174119105565358
  0.7338215573716992  0.5264077392058476  0.8800681889159162
  0.2844954140562280  0.0199130954263926  0.3819230198395764
  0.7582811416361483  0.5049232530777145  0.6294916656221181
  0.2445279485366693  0.9592134750092749  0.1306006927141996
  0.2429050702685166  0.2288366567689942  0.6232374708433438
  0.6600615735527173  0.4577473804366004  0.1348051126382308
  0.2639435722852009  0.7470440060054848  0.8948010238120306
  0.5325674040552600  0.5126885470582045  0.3754544925055895
  0.3006279863876363  0.0127180463692105  0.2541364211540961
  0.7676810930907172  0.4923705948138872  0.7510932358433792
  0.2225208193628708  0.0041703771131610  0.7430883624637786
  0.7237341451502116  0.5317977171562270  0.2460300231676444
  0.2521142608908546  0.9768196770259495  0.9956821101243171
  0.7436756833502720  0.4747879095032496  0.5018501143032348
  0.2496825897423509  0.0262922797822371  0.5072809672610828
  0.7333889971933817  0.5278880567520035  0.9948311408601362
  0.7229709825755019  0.0018091285607547  0.7480796588943271
  0.2221154301466239  0.5006519313812717  0.2490968229637017
  0.2606735271384374  0.4961427650042876  0.7418154373341541
  0.7773005674484194  0.0200150100327053  0.2456128033412915
  0.2559062929039027  0.5445953341119099  0.4942706655425728
  0.7513034416700067  0.0335596068502784  0.9969905345454867
  0.7544707715603406  0.9969369037131356  0.4976900433035287
  0.2285707692052846  0.4596715497722672  0.9981281542275562
  0.0037515943438462  0.2744168759418043  0.3683754271673270
  0.5065070736687394  0.7341130792307066  0.8872783390225588
  0.4969839104756221  0.2378527000520395  0.6252256124846729
  0.0024375777186423  0.7556619914040971  0.1311491918882520
  0.9986049379248948  0.2292470329992338  0.8766775020513727
  0.5428428930732466  0.7419704404647787  0.3760815841891634
  0.9861432401017135  0.7408505599422605  0.6259705527081274
  0.5026793761793069  0.2430411476937782  0.1208105180582423
  0.1111986947943285  0.3967633919852362  0.0446052423063254
  0.6511563235020198  0.8945620260360365  0.5390303990154341
  0.6610648379891970  0.1237660406922975  0.9396262386455834
  0.1683245746545886  0.6421297543708535  0.4364320675656865
  0.3345819505784607  0.3524272520797025  0.9547542506156896
  0.8648756231559745  0.9058944069008396  0.4563456032734092
  0.8557474008507031  0.1092380209268215  0.0547764607824048
  0.3548774952476201  0.6383683484844632  0.5449149316879426
  0.8829880957063887  0.1205526967048116  0.1995710705487206
  0.3441673850702452  0.6058551665636810  0.6982646178239942
  0.8817880268936538  0.9285267685707036  0.2979557747759640
  0.3681595213119724  0.4053039945219098  0.7882780293384368
  0.1462577797412134  0.6116722335509239  0.3007488446031663
  0.6173116194538073  0.0868261683229643  0.7974715091018104
  0.1245741547780943  0.4040266838363453  0.1982909173567523
  0.6294774670282703  0.8830703776645855  0.7008601150170605
  0.8584128483495912  0.6199038365060122  0.9431310077917570
  0.3732733597016298  0.1176526376474915  0.4575496564535383
  0.8412513415960428  0.3790161426753353  0.5566795187086349
  0.3475079025121501  0.8709246664718024  0.0545835469851199
  0.1551093416021258  0.1336001067745164  0.5482170827238049
  0.6408439020129917  0.6300524009504019  0.0427504939603179
  0.1483988333198871  0.8815331839071588  0.9430207922394842
  0.6058461895048889  0.4052594929620573  0.4649697967774062
  0.6495442412629934  0.4175883573529649  0.2960780328414867
  0.1141641220588100  0.8881356851203686  0.7881185045149903
  0.1282544618859160  0.1089288050982344  0.6976056228567283
  0.6278505108912446  0.6302612778255269  0.1927250831149284
  0.8738195730096078  0.3877464531994546  0.6994893318177324
  0.3872892187900569  0.8908635978994993  0.2203736764069275
  0.3987819898971134  0.1135158235002496  0.2951297035812991
  0.8641938522710184  0.5920790239473592  0.7966750088398480
  0.1639706876043110  0.0740790786053726  0.0545716894357934
  0.6544122396002680  0.5775516922494031  0.5500149271656855
  0.6407334803188144  0.4167934342265989  0.9498922659199328
  0.1649841713522201  0.9325490323637319  0.4540883481594710
  0.3509116209685717  0.0834825891947608  0.9497744439780497
  0.8391613795250600  0.5400745484415129  0.4412386871734877
  0.8284813287621324  0.4399038489010023  0.0582357561777731
  0.3577069440121878  0.9351863383933815  0.5499345724685408
  0.1836567109912734  0.0882202243782448  0.2051639874366798
  0.6702164388901241  0.6013684840535033  0.7009117500447316
  0.2148536678600380  0.9055986216015359  0.3102378502112718
  0.6711435333189097  0.3975786198267262  0.8068285734165153
  0.8334084007966412  0.6205723284037165  0.2966814132625838
  0.3185281643425197  0.0889819009805437  0.8058263639528895
  0.8241671004354609  0.4191212000065617  0.1911414097932095
  0.3245277256273204  0.9073731865136510  0.6980608867030494
  0.8401860592917496  0.9254074024466638  0.9505516991554491
  0.3446109969963174  0.4320491705609024  0.4467880559401742
  0.8377616801227227  0.1012296926191700  0.5436648402369026
  0.3232933412081105  0.5647718669392134  0.0411165365660571
  0.1568265889342554  0.4330765883356951  0.5434918607944853
  0.6578582794547428  0.9369614994929024  0.0495453756881332
  0.1478067375392422  0.5684509118475817  0.9448786219116748
  0.6757249475744506  0.1105286500802678  0.4372032198869946
  0.3122873519557618  0.3785437246219377  0.2938712533391672
  0.8021446684772917  0.8985533521788618  0.8029471446919798
  0.8213374512529078  0.1007008232214656  0.7000985528524677
  0.3385261146490635  0.5747894095643930  0.1995540046052610
  0.1759255849070465  0.3965460005773926  0.6921718815005526
  0.6885932236270951  0.9137880812381748  0.1938584274045015
  0.7095749198349293  0.1088229473118658  0.3013412021739561
  0.1792325369377699  0.5937348432214248  0.8028024426231224
  0.1079356262906865  0.1633412973784276  0.3387750194936611
  0.5890150150474015  0.6420270445331131  0.8294423078911010
  0.5813585603011854  0.3403454520657168  0.6659970537713436
  0.0934843820112590  0.8424963107306043  0.1799262707307084
  0.4013005509172432  0.1565701880442327  0.6762717398789384
  0.9057324551572286  0.6779281858812188  0.1756839621588510
  0.9471408082141205  0.3578143232457988  0.3106235152911780
  0.4058226847836000  0.8191649152925755  0.8454942750451893
  0.0755035179134130  0.1300059160002680  0.9266688014062676
  0.6510243096020776  0.6555625888400213  0.4154913412971152
  0.0856803571825780  0.8271695520652863  0.5792948283656018
  0.5097992714462355  0.2507204705089175  0.0397224300235386
  0.8761513592891170  0.6704643628061906  0.5811371191739814
  0.3804663556802600  0.1459422077198834  0.1311840703815343
  0.9050799424635247  0.3227420741594152  0.9181897834615940
  0.4468791119983442  0.8431967869962649  0.4159869998696579
  0.9065855549049773  0.8170130020306331  0.6817627204188572
  0.4577130012346674  0.3821783665477256  0.1533573656456509
  0.8996081695956074  0.1602110389642089  0.8281045343457267
  0.4336443809926840  0.6583347684966743  0.3315983577844962
  0.1013339108996256  0.3132505813784855  0.8242562651127078
  0.6341272727807983  0.8180424440892058  0.3215642050696838
  0.0674523190357891  0.6313235277905890  0.6656166309756022
  0.6212826584363046  0.1834895251513737  0.1661771237636546
  0.3835811102559213  0.3080663231398838  0.5771091176480418
  0.9181512498896430  0.8445507784499671  0.0791727612132079
  0.8794227946400734  0.2208981431679351  0.4058420596260186
  0.4316030998844342  0.6360947809117143  0.9298586622970083
  0.0789917756942087  0.3625121594831952  0.4205130507835085
  0.5951006864405588  0.8302816289004218  0.9300401974992561
  0.5842664109602305  0.1321698316735048  0.5853821553027200
  0.0965369283191494  0.6564111583602683  0.0983501578012458
 
 -0.34707956E-03  0.71638601E-02 -0.54352060E-02
 -0.60957929E-03 -0.12631923E-01 -0.11086081E-01
 -0.36690465E-02 -0.25538930E-02 -0.43353863E-02
 -0.96208168E-03 -0.77982187E-02  0.42067467E-02
 -0.25415927E-02  0.13224530E-02 -0.13998811E-02
 -0.40383504E-02 -0.26043980E-02 -0.37903922E-02
 -0.21933802E-02 -0.17829127E-02  0.22776138E-03
 -0.47754586E-02 -0.10058565E-02 -0.59327574E-02
 -0.48737583E-02  0.12799621E-02  0.40943102E-02
 -0.50487878E-02 -0.59556721E-02  0.57021896E-02
  0.40272215E-02  0.40302624E-02 -0.15205503E-02
 -0.14099189E-02  0.37803072E-02  0.36553398E-02
  0.89069943E-02 -0.44678814E-02 -0.21248501E-02
  0.68824717E-03 -0.34071378E-02 -0.41347573E-04
  0.47929982E-02 -0.56284107E-02 -0.78944057E-03
  0.61482208E-03  0.82893508E-03  0.45790615E-02
  0.99040306E-03 -0.56493035E-02  0.30483762E-02
 -0.41558371E-02  0.91690353E-02 -0.31672532E-02
  0.10992314E-01 -0.93545140E-02 -0.63367093E-03
 -0.68788378E-05  0.57473691E-02  0.16544810E-01
 -0.67964284E-02  0.49908648E-02 -0.41490257E-02
  0.25315417E-02 -0.76043090E-02 -0.70895097E-02
  0.58955338E-02  0.13421933E-02 -0.51007803E-02
 -0.25627194E-02  0.63550980E-02  0.54532266E-02
  0.35993933E-02 -0.24007417E-02 -0.59351548E-02
 -0.28434363E-02 -0.76281191E-02  0.14337952E-03
 -0.29620174E-02 -0.12132072E-02  0.64143351E-02
  0.56212623E-02  0.13451524E-02 -0.58843511E-03
  0.64456928E-03  0.56848171E-02 -0.70834326E-02
  0.83803724E-02 -0.65527938E-02 -0.30478658E-03
 -0.67701179E-02 -0.37339363E-02  0.13620415E-02
  0.49688799E-02 -0.35457470E-02 -0.42368405E-03
 -0.32252470E-02 -0.47806399E-02 -0.24216329E-02
 -0.16723591E-02  0.11008599E-02 -0.20534974E-02
 -0.64413536E-02  0.19645043E-02  0.74721187E-02
 -0.37102618E-02 -0.46303187E-02 -0.44557177E-02
 -0.32480124E-02 -0.33649165E-02  0.28124406E-02
  0.59407983E-02 -0.36280868E-02 -0.62928405E-02
 -0.77434351E-03  0.68631720E-02 -0.53304018E-02
  0.34163219E-02 -0.29550361E-02 -0.56182953E-02
 -0.24378520E-02  0.44572192E-02 -0.11215116E-02
  0.55868640E-02  0.14555851E-02 -0.78875329E-02
 -0.47980075E-02 -0.28642790E-02  0.81592074E-02
  0.29735067E-02 -0.27188984E-02 -0.41439815E-02
 -0.45654986E-02 -0.33674117E-02 -0.50800910E-02
  0.29621831E-02  0.14136988E-02  0.28205181E-02
 -0.33727126E-02  0.43016113E-02 -0.46695138E-02
 -0.48185359E-02  0.10529864E-02  0.36878878E-02
  0.32192259E-03 -0.22002792E-02 -0.48504951E-02
 -0.29501895E-02  0.17115890E-02 -0.17729604E-02
  0.23687185E-02  0.36180222E-02  0.31862368E-03
  0.17342650E-02  0.75772921E-04  0.81111957E-03
  0.64700231E-02 -0.60472671E-02  0.54771271E-02
  0.88433527E-02 -0.98727264E-04 -0.64451175E-03
 -0.13739635E-01  0.49672653E-03 -0.11503003E-01
  0.48296728E-02  0.86486041E-03  0.19182014E-02
 -0.89846194E-03 -0.45024825E-02  0.50583380E-02
 -0.32397769E-02  0.32810059E-02 -0.23555703E-02
  0.55285260E-02 -0.15564624E-02 -0.32989008E-02
  0.10797922E-04  0.43477184E-02 -0.34681710E-02
 -0.13117819E-02 -0.32287029E-02  0.61347547E-03
 -0.37489062E-02  0.10738918E-02 -0.41207879E-02
  0.22474249E-02 -0.58113595E-02 -0.35394168E-03
  0.97752644E-03  0.88136056E-02  0.34500332E-02
 -0.33615967E-04 -0.56803589E-02 -0.60117493E-02
 -0.45923376E-03 -0.28741745E-03 -0.84728757E-03
  0.87796788E-02  0.44209772E-02  0.30195412E-03
 -0.45566977E-02 -0.13208013E-02 -0.40606624E-02
  0.12723721E-02  0.48664382E-02  0.19891383E-03
 -0.60100372E-02  0.44929203E-02 -0.96847589E-02
  0.72784175E-02 -0.50738347E-02 -0.80307482E-02
  0.72945690E-02 -0.67660847E-02 -0.21534849E-02
  0.18508870E-02 -0.13565662E-02 -0.51864113E-02
 -0.64995685E-02  0.10953131E-01  0.43436804E-03
  0.39543640E-03 -0.45818690E-02 -0.41815933E-02
  0.23741450E-02 -0.10878097E-01 -0.10176117E-02
  0.55792105E-02 -0.66021945E-02  0.45645082E-02
  0.21498308E-03 -0.24010691E-02  0.71807414E-02
 -0.61060086E-02 -0.74606915E-03 -0.35536023E-02
  0.14252092E-02 -0.14847808E-02 -0.15750946E-02
 -0.29936829E-02  0.91734648E-03 -0.12249396E-02
  0.66856380E-02  0.41123294E-03 -0.92348122E-02
  0.37985739E-02  0.89080934E-03  0.22369013E-02
 -0.37045223E-02  0.86821583E-03 -0.25385403E-02
 -0.10160474E-02 -0.34749896E-02  0.75128177E-03
  0.33517691E-03  0.60844695E-02 -0.42286152E-02
  0.38650331E-02  0.26825804E-02  0.18815630E-02
  0.15614143E-02  0.47235885E-03 -0.45771952E-02
 -0.78478543E-03  0.33063836E-02  0.46053663E-02
  0.21409738E-02  0.34865836E-02 -0.27696887E-02
  0.14189280E-02  0.13050386E-02 -0.60800571E-03
 -0.22948874E-02 -0.18193415E-02 -0.10705457E-02
  0.44242466E-02 -0.90109070E-03  0.25606415E-02
 -0.69228760E-02 -0.41061351E-03  0.14253354E-02
  0.46811062E-02  0.16722904E-02  0.22804848E-02
  0.85849962E-03 -0.17766768E-03 -0.15798599E-03
 -0.11117620E-02 -0.35070542E-02 -0.19897130E-02
 -0.17701412E-02 -0.22332682E-02 -0.80054757E-03
 -0.56869556E-02 -0.16277350E-02  0.19690151E-02
 -0.11912593E-02 -0.66333383E-02 -0.41214809E-02
  0.40135965E-03  0.32083440E-02 -0.91848802E-04
 -0.90238585E-03 -0.41225435E-02 -0.39043484E-02
 -0.75820039E-03  0.27130500E-02  0.12193363E-02
 -0.49209711E-03  0.13908345E-02 -0.22323546E-02
 -0.49890406E-02  0.14012794E-02 -0.28022611E-02
  0.52714017E-03  0.20651241E-02 -0.16299249E-02
 -0.71675728E-02 -0.23589979E-02 -0.90817647E-03
  0.20826424E-02  0.54472213E-03 -0.31066167E-02
 -0.15497241E-02 -0.30980464E-02  0.12720332E-03
 -0.17605255E-02 -0.19488623E-02  0.76615422E-02
 -0.13354896E-02 -0.60646958E-03 -0.31109975E-02
 -0.52842036E-02 -0.64526811E-02  0.26597874E-02
  0.19261159E-02 -0.32654173E-02  0.20717499E-02
  0.31158066E-02 -0.14681933E-02  0.42131059E-02
  0.97884474E-03  0.24136116E-02  0.31220736E-02
  0.24502613E-02 -0.24803267E-02  0.31378004E-03
  0.25897114E-03 -0.93786571E-03  0.95882643E-03
  0.43396985E-02  0.32837892E-02 -0.19793505E-02
  0.29086674E-03  0.16119617E-02  0.16493340E-02
  0.50922534E-02  0.48493041E-02  0.38690093E-02
 -0.14305634E-03  0.56197135E-04  0.21141211E-02
 -0.35349015E-03  0.31070534E-02 -0.16687584E-02
 -0.14297325E-02  0.85038841E-03  0.74952966E-02
  0.60588879E-03  0.11079125E-02  0.40056285E-03
 -0.54154001E-02  0.74753000E-03  0.13926853E-02
  0.18459796E-02 -0.82137452E-03  0.21311062E-02
 -0.43037556E-03  0.21413726E-02 -0.17783867E-02
  0.16650458E-03  0.61181975E-03 -0.40536008E-02
  0.14739157E-03 -0.42257152E-02  0.15967894E-02
  0.27073840E-02 -0.14072800E-02 -0.21274138E-02
 -0.74421358E-03  0.64591917E-02 -0.28691236E-02
  0.12396026E-02  0.34594980E-02  0.40247844E-02
  0.20283093E-02 -0.10555557E-02 -0.10715247E-02
 -0.15660950E-02  0.13507398E-02 -0.46888671E-03
  0.93255151E-03  0.20133329E-02 -0.23736962E-02
  0.24027816E-02  0.12968221E-03 -0.61871954E-02
  0.24340079E-02  0.15371485E-02  0.42116541E-02
  0.18768806E-02  0.33613610E-02 -0.15312797E-02
  0.14801670E-03 -0.34681866E-02 -0.11444922E-02
  0.22350710E-02 -0.36087983E-02 -0.14087740E-02
  0.75497836E-03 -0.15603970E-02  0.66684597E-03
 -0.45762631E-03  0.68901998E-03  0.17658852E-03
 -0.29751785E-02 -0.62645606E-03  0.82903927E-03
  0.31567739E-04  0.27777582E-02 -0.40324320E-02
  0.52732455E-03 -0.35090284E-02  0.40460765E-02
  0.28785536E-02  0.35223291E-02  0.17074222E-02
  0.25660589E-02  0.29055132E-02 -0.65999657E-03
  0.19636160E-02 -0.16018047E-02  0.30609465E-02
  0.24107748E-02 -0.36527915E-02  0.18384820E-02
 -0.19968137E-02  0.11295111E-02  0.95867198E-03
 -0.17403000E-02  0.13877598E-02  0.11414305E-03
 -0.20408249E-02  0.66003161E-02 -0.19125159E-02
 -0.14949842E-02  0.17774681E-04  0.57908037E-02
  0.27396543E-02  0.21316592E-02  0.54311466E-03
 -0.88663182E-03  0.36014303E-02 -0.33278412E-02
 -0.12303801E-02  0.35098317E-02  0.34384440E-02
 -0.18808064E-02 -0.64179768E-03  0.15833612E-02
 -0.14349874E-02 -0.25704833E-02  0.26019505E-02
 -0.13711170E-03  0.32306570E-02 -0.96781842E-03
  0.35610194E-02 -0.13094609E-02  0.13122687E-02
 -0.31172544E-02  0.68785318E-02 -0.23854839E-02
  0.73796097E-03  0.15723433E-02  0.29554139E-02
 -0.18265199E-03 -0.14978582E-02 -0.19643448E-02
 -0.16715837E-02 -0.42942294E-03 -0.26528116E-02
  0.11617385E-03 -0.69672686E-03  0.53577481E-03
  0.42225434E-02 -0.13146811E-02 -0.10268497E-02
 -0.35373720E-02 -0.12621137E-02 -0.12814147E-02
 -0.25996823E-02  0.80764074E-03  0.47488624E-02
  0.17166281E-02 -0.10023902E-02 -0.13254176E-02
  0.14070552E-02 -0.47106315E-02 -0.23927831E-02
  0.74535427E-03  0.29401199E-02  0.44968656E-02
 -0.89206825E-03  0.86928485E-03 -0.17000666E-02
  0.40430902E-02 -0.45142344E-02 -0.28359147E-02
 -0.69812834E-04 -0.57199863E-02 -0.76895056E-03
  0.49001681E-03  0.18316760E-02 -0.46762304E-02
  0.97006064E-03  0.10794964E-02  0.64140149E-02
 -0.24306345E-02  0.49161785E-03  0.49652511E-02
  0.17586170E-02  0.21898778E-02 -0.43001832E-02
 -0.21287088E-02  0.70959458E-03 -0.51492893E-03
 -0.10460323E-02 -0.54834386E-02  0.15999400E-02
  0.81133659E-03 -0.39221459E-03  0.93832702E-03
 -0.17973888E-02 -0.32017393E-02 -0.15064170E-03
 -0.91970886E-03  0.21124556E-02 -0.16081793E-02
 -0.29672376E-02  0.25934522E-02  0.38264460E-02
  0.44407763E-02  0.21004921E-02  0.53653991E-03
  0.41912995E-03 -0.22349252E-03  0.41845197E-02
 -0.15000339E-02 -0.10626561E-03  0.84955455E-03
 -0.35709361E-02 -0.32254464E-02  0.83628910E-03
 -0.41374476E-02  0.15960263E-02  0.37175689E-04
 -0.11461724E-02 -0.37316513E-02 -0.24616272E-02
  0.36482377E-03 -0.18929606E-02  0.57880417E-02
 -0.26652984E-02 -0.61521529E-03  0.27564576E-02
 -0.15152267E-02 -0.12256210E-02  0.12835629E-02
 -0.16724553E-02 -0.32248168E-02 -0.41381184E-02
  0.13222060E-03 -0.17256415E-02 -0.67057204E-02
  0.53552323E-02 -0.28128359E-02 -0.14977847E-02
 -0.25730357E-02 -0.10985856E-02  0.17316392E-02
 -0.16520361E-02  0.51707458E-02  0.17310042E-02
  0.14774738E-02  0.15844221E-02  0.56343087E-03
  0.49457419E-02  0.18885934E-02 -0.83821360E-04
  0.11787885E-02  0.53949316E-02  0.18961385E-03
 -0.25870051E-02 -0.25071002E-03 -0.23472039E-02
 -0.45256843E-02  0.17802790E-02 -0.84685771E-03
  0.11976095E-02 -0.16647362E-02 -0.66197310E-03
 -0.98652259E-03  0.11117313E-02 -0.93976723E-03
 -0.30526162E-02  0.60232715E-03  0.22943504E-02
 -0.86772391E-03  0.10405824E-02 -0.63519313E-03
  0.11147923E-02 -0.86457552E-03  0.23373699E-02
 
           1
   2.00000000000000     
  0.82621481E+00 -0.18523715E-02  0.00000000E+00  0.00000000E+00
  0.23698562E-01  0.29883665E-01  0.13052016E+00
  0.47882019E+00  0.47444136E+00  0.53036171E+00
  0.51754501E+00  0.47906231E+00  0.87112599E+00
  0.15115861E-01  0.50360987E-01  0.41340757E+00
  0.26687466E+00  0.95436696E+00  0.87272025E+00
  0.98759583E+00  0.52261542E+00  0.36374355E+00
  0.99268205E+00  0.47758291E+00  0.12068687E+00
  0.29204476E+00  0.27255578E+00  0.20030337E+00
  0.72095949E+00  0.77836664E+00  0.61974768E+00
  0.72003015E+00  0.26898988E+00  0.88379968E+00
  0.80307629E+00  0.79352614E+00  0.37358004E+00
  0.24216147E+00  0.20785845E+00  0.89481145E+00
  0.79738637E+00  0.24705159E+00  0.12155308E+00
  0.24200901E+00  0.74000012E+00  0.62888209E+00
  0.78774853E-02  0.97524347E+00  0.86998847E+00
  0.25759494E+00  0.50250244E+00  0.36978861E+00
  0.20922251E+00  0.98926390E+00  0.61328421E+00
  0.97277673E+00  0.47898423E+00  0.61212660E+00
  0.54205986E+00  0.16251719E-01  0.15330385E+00
  0.13984497E-01  0.50406076E+00  0.88552771E+00
  0.54027136E+00  0.82583381E-02  0.37249001E+00
  0.26262433E+00  0.25710240E+00  0.37296337E+00
  0.72861164E+00  0.74233245E+00  0.87006571E+00
  0.75413483E+00  0.24322868E+00  0.63081338E+00
  0.29347494E+00  0.70890325E+00  0.11642263E+00
  0.23284216E+00  0.25011857E+00  0.75771904E+00
  0.74284458E+00  0.75546788E+00  0.12359482E+00
  0.77899201E+00  0.39745148E+00  0.36905132E+00
  0.49765059E+00  0.65387111E+00  0.47616749E+00
  0.49720394E+00  0.48732351E-01  0.15988610E-01
  0.49997926E-02  0.62710263E+00  0.50222436E+00
  0.51281570E+00  0.73932544E+00  0.75357158E+00
  0.97681493E-02  0.76795944E+00  0.25751506E+00
  0.48263819E+00  0.25632189E+00  0.75621363E+00
  0.99201243E+00  0.99466477E+00  0.55207463E-02
  0.51369657E+00  0.99672530E+00  0.49894564E+00
  0.47406028E+00  0.71332930E+00  0.13787456E-01
  0.51236596E+00  0.25432347E+00  0.24033434E+00
  0.25059755E-01  0.73374733E+00  0.75895355E+00
  0.49648477E+00  0.74018215E+00  0.25334112E+00
  0.47191338E-01  0.99689432E+00  0.26565567E+00
  0.50610062E+00  0.51203917E+00  0.74221498E+00
  0.48168665E+00  0.99662645E+00  0.73752608E+00
  0.97097898E+00  0.53433758E+00  0.25294425E+00
  0.29089445E+00  0.22622970E+00  0.38725043E-01
  0.76350480E+00  0.76047352E+00  0.50204817E+00
  0.24229736E+00  0.78080201E+00  0.49290406E+00
  0.71655599E+00  0.28058056E+00  0.12762980E-01
  0.95823656E+00  0.99928990E+00  0.74586457E+00
  0.46708472E+00  0.49640405E+00  0.24998505E+00
  0.97801129E-02  0.50309530E+00  0.74979013E+00
  0.55735294E+00  0.94518725E+00  0.25571619E+00
  0.26644109E+00  0.27836337E+00  0.49174737E+00
  0.75440200E+00  0.77808233E+00  0.45121211E-02
  0.71260673E+00  0.24495025E+00  0.51134727E+00
  0.18773704E+00  0.71967743E+00  0.13113502E-01
  0.99831418E+00  0.23922127E+00  0.70563459E-02
  0.51671868E+00  0.23018986E+00  0.49427362E+00
  0.49355245E+00  0.45864533E+00  0.10838694E-01
  0.30094914E-01  0.98634539E+00  0.53099519E+00
  0.49613984E+00  0.99248846E+00  0.86896656E+00
  0.98399795E+00  0.26506414E+00  0.49220190E+00
  0.99625594E+00  0.57188575E+00  0.80737451E-02
  0.48259338E+00  0.96810284E+00  0.62275142E+00
  0.67482049E-01  0.22731533E+00  0.24946516E+00
  0.74076785E+00  0.73971518E+00  0.74586598E+00
  0.23712600E+00  0.72144532E+00  0.23154515E+00
  0.72298389E+00  0.24281334E+00  0.76029625E+00
  0.76789936E+00  0.77992710E+00  0.24680019E+00
  0.57793881E-02  0.27117842E+00  0.74453965E+00
  0.79130203E+00  0.27648394E+00  0.25926767E+00
  0.24180809E+00  0.74790006E+00  0.74608577E+00
  0.26454785E+00  0.45228044E+00  0.11266667E+00
  0.82502101E+00  0.98927176E+00  0.62715769E+00
  0.76807055E+00  0.31110921E-01  0.86466279E+00
  0.29259445E+00  0.77072196E+00  0.36740772E+00
  0.25846458E+00  0.47001442E+00  0.86997615E+00
  0.79921917E+00  0.93349897E-02  0.37061859E+00
  0.77455437E+00  0.99140667E+00  0.11621521E+00
  0.26956158E+00  0.48954961E+00  0.61729909E+00
  0.73339271E+00  0.52653915E+00  0.87998045E+00
  0.28545314E+00  0.19972005E-01  0.38126157E+00
  0.75882529E+00  0.50505086E+00  0.62965189E+00
  0.24399727E+00  0.95933785E+00  0.13041887E+00
  0.24275952E+00  0.22833886E+00  0.62329128E+00
  0.66010959E+00  0.45861899E+00  0.13450223E+00
  0.26449725E+00  0.74742829E+00  0.89493579E+00
  0.53279108E+00  0.51275621E+00  0.37512665E+00
  0.30051556E+00  0.13191692E-01  0.25446628E+00
  0.76798779E+00  0.49287005E+00  0.75089485E+00
  0.22272408E+00  0.43573262E-02  0.74304481E+00
  0.72340540E+00  0.53153709E+00  0.24595334E+00
  0.25274804E+00  0.97669059E+00  0.99586552E+00
  0.74268397E+00  0.47472909E+00  0.50195221E+00
  0.25035317E+00  0.26531838E-01  0.50744431E+00
  0.73351198E+00  0.52786261E+00  0.99481982E+00
  0.72281172E+00  0.13067369E-02  0.74793714E+00
  0.22186185E+00  0.50033201E+00  0.24903948E+00
  0.25985886E+00  0.49590959E+00  0.74195647E+00
  0.77712992E+00  0.19064773E-01  0.24531760E+00
  0.25596379E+00  0.54505494E+00  0.49426409E+00
  0.75117417E+00  0.32969045E-01  0.99671088E+00
  0.75436216E+00  0.99732555E+00  0.49777738E+00
  0.22850028E+00  0.45987079E+00  0.99796826E+00
  0.30369055E-02  0.27461761E+00  0.36817471E+00
  0.50658259E+00  0.73440891E+00  0.88716159E+00
  0.49595714E+00  0.23751477E+00  0.62516056E+00
  0.27359199E-02  0.75574002E+00  0.13092668E+00
  0.99838294E+00  0.22880323E+00  0.87668661E+00
  0.54259069E+00  0.74169126E+00  0.37663035E+00
  0.98595193E+00  0.74076368E+00  0.62574772E+00
  0.50192240E+00  0.24211679E+00  0.12100103E+00
  0.11147461E+00  0.39629562E+00  0.44753633E-01
  0.65160267E+00  0.89435170E+00  0.53933217E+00
  0.66120506E+00  0.12411179E+00  0.93984986E+00
  0.16867558E+00  0.64177444E+00  0.43645454E+00
  0.33461905E+00  0.35229290E+00  0.95482293E+00
  0.86549729E+00  0.90636482E+00  0.45620383E+00
  0.85578907E+00  0.10946894E+00  0.54894596E-01
  0.35560697E+00  0.63906302E+00  0.54519205E+00
  0.88296760E+00  0.12056075E+00  0.19972250E+00
  0.34411675E+00  0.60630026E+00  0.69814509E+00
  0.88158322E+00  0.92864859E+00  0.29849263E+00
  0.36824632E+00  0.40546270E+00  0.78830672E+00
  0.14548201E+00  0.61177932E+00  0.30084860E+00
  0.61757606E+00  0.86708505E-01  0.79762415E+00
  0.12451250E+00  0.40433344E+00  0.19816354E+00
  0.62950132E+00  0.88315802E+00  0.70056977E+00
  0.85843396E+00  0.61929850E+00  0.94324538E+00
  0.37366120E+00  0.11745104E+00  0.45739728E+00
  0.84114473E+00  0.37994143E+00  0.55647402E+00
  0.34768548E+00  0.87142025E+00  0.54871826E-01
  0.15539990E+00  0.13344890E+00  0.54814033E+00
  0.64061956E+00  0.63024590E+00  0.42716910E-01
  0.14853242E+00  0.88182160E+00  0.94285077E+00
  0.60619039E+00  0.40527807E+00  0.46452663E+00