Na88 Sn16 P8 S96                        
   1.00000000000000     
    13.4813327813000008    0.0000000000000000    0.0000000000000000
     0.0000000000000000   13.4813327813000008    0.0000000000000000
     0.0000000000000000    0.0000000000000000   26.9626655626000016
   Na   Sn   P    S 
    88    16     8    96
Direct
  0.7541948462200477  0.0144926709225259  0.1187540038201466
  0.5125685222813851  0.2267982657356692  0.4737323358029487
  0.5214251272275092  0.4356179588901659  0.8569150560491262
  0.0450346708889760  0.9882599699100665  0.3666841210775885
  0.2322669636288665  0.9874311272705897  0.8703893858414640
  0.2255330199099489  0.7629682295366302  0.3569746939402417
  0.7655424465187786  0.5245186898973386  0.1257767174892808
  0.2160831804985467  0.2763256588821443  0.2632033715020703
  0.2980331257138438  0.4812562841081572  0.6255866518940463
  0.7779295579861968  0.2756501823254504  0.9895232795091311
  0.7523647135886148  0.7431962967562660  0.4944987391908697
  0.5319349372566088  0.2442961268748683  0.9910233526075626
  0.5048772537169806  0.0063880802559082  0.1141584923989209
  0.3068749854007675  0.7498996662594369  0.6293850843823182
  0.7146040974560680  0.9795588062040262  0.8837094979325248
  0.7283939624606350  0.5371301091112097  0.3697419297782287
  0.9696831781884806  0.0161946285173693  0.7653385599035810
  0.1790337113228664  0.2463023013864254  0.6167276438712231
  0.2895529688430957  0.7578383949628171  0.1391655536645687
  0.7512274936417472  0.5029541082709403  0.8704040024333116
  0.4976682211216211  0.0454929067796287  0.3619867981827817
  0.2744400435082703  0.3519867115137550  0.3826422510956091
  0.5110453373327976  0.7347512687955867  0.7600384888088011
  0.7540763521803665  0.4960454401192017  0.6158251099942732
  0.2296759158843286  0.7068625504405170  0.0039900864921465
  0.2921660445494821  0.2577893374071342  0.7095420237617980
  0.7535135236091191  0.7402449377053231  0.1139297435882063
  0.0190010756801067  0.5462976562395578  0.3786810623928171
  0.9901422948720162  0.0040902053947129  0.4885807360872795
  0.5190260597671923  0.7740199048758739  0.0090644346823844
  0.3873814738487968  0.5804845901173901  0.3889058355419752
  0.4589006189783162  0.9823275528685809  0.7657627860070517
  0.2536785813754395  0.7738889420939690  0.2409650491900636
  0.5137244666760400  0.2247233230624595  0.7751191847041982
  0.9928669956684325  0.9635190708484126  0.8883691946708429
  0.2294126387024149  0.2687449385062934  0.4950754812928658
  0.7558258941747190  0.7499135281094191  0.8570406174791045
  0.4397022843833702  0.3271110228294340  0.2616276447322400
  0.0197587473697537  0.4926320887477138  0.7481116668473509
  0.6177013251866049  0.7779275060676153  0.2551495030998863
  0.0645624260797551  0.0183126455515229  0.2430627036120426
  0.5237270458150386  0.4528330934581451  0.7183669962116410
  0.5018034505401920  0.9945457304891193  0.9051631478230731
  0.9956479020395367  0.5338507595992178  0.2371657379514059
  0.2368837494691423  0.2534364512470318  0.1177029932273299
  0.4898346276412827  0.9943833912679761  0.4837948488057739
  0.0085691711265902  0.0255059040746918  0.6281355133757058
  0.7649841976275986  0.2809575433792365  0.0895608027244387
  0.9977123931857579  0.2596299225185127  0.7412300526813553
  0.4794522951837524  0.5808852222174506  0.2522784124928759
  0.0143779833164159  0.4862841972442534  0.6226216455267136
  0.5677886880238247  0.0624033611841790  0.2297227298890016
  0.2574210926680574  0.0079166319063318  0.6149710524467175
  0.9465871754704664  0.6987468863243158  0.0080842045341363
  0.7642998736494331  0.2848843129442471  0.3679131112820825
  0.9933439053261688  0.4978841040859491  0.8970340972259305
  0.9966353155431203  0.2835800499917273  0.0080093985655203
  0.5310268542786499  0.7153990789101085  0.4950719365258814
  0.5131092348675850  0.5069976543520582  0.9942194846058322
  0.9735414287193831  0.2198147924545915  0.4886288787542584
  0.0056423517403497  0.9917859565107200  0.9916460960179002
  0.0004980522615459  0.7311289472212673  0.5078567043902137
  0.2219986694767464  0.2203931812628256  0.9806036471508789
  0.6965141496299235  0.0412452923440892  0.6245322306110115
  0.9622876628408636  0.2770452802298620  0.2331621115742925
  0.2449627362161138  0.7580254670901492  0.7544636783125735
  0.2748177479212465  0.4983538110359040  0.1231326862394822
  0.7086531888725862  0.2599162765712938  0.6843716962128956
  0.7908510326064222  0.7468965561097803  0.3684386553489079
  0.2849594732989691  0.2267352178895565  0.8814727763296600
  0.6665060390922991  0.2921848647650173  0.2345351264229640
  0.9605718187762887  0.7633298122106644  0.7551599147124106
  0.2341035391651832  0.9847115271156770  0.1243561196539927
  0.7646743430117829  0.2508225108748678  0.5064683540625013
  0.7510767767460670  0.2181872531056515  0.8391522624629283
  0.2687116634566820  0.7894993818619221  0.4891142871358021
  0.0350734650102581  0.5171053896545750  0.1110086823059717
  0.7890500768016581  0.0088337854438015  0.3732221112374766
  0.9064206691927077  0.7743990930558496  0.2428683353711846
  0.5168986491746034  0.4526925595902444  0.5318818456084979
  0.2579520650023812  0.4656532968412671  0.8824730713337090
  0.2619069981738861  0.0646211859346656  0.3720110145392241
  0.7525011286779695  0.7653468782784189  0.6389733136026472
  0.0448740065135742  0.9958195666310626  0.1191971907729700
  0.5040035625862038  0.9357792977037233  0.6215602386731925
  0.4911008303346552  0.5220839588163868  0.1213020902325065
  0.2395691255001257  0.7052431670233698  0.8889637950136877
  0.0177643135374360  0.4895938124642022  0.4914036424984686
  0.3247239780315890  0.0271288569780908  0.2412959643063299
  0.7539373631904583  0.5341414764032201  0.7429929988798835
  0.2313921325652783  0.0290675035649279  0.7458415828349854
  0.7492920307470983  0.5313546146650756  0.2564875133183393
  0.2649327247822610  0.9611066598382457  0.9989489451697693
  0.7562596720942442  0.4891835452698640  0.4957576756824353
  0.2533371528545233  0.0053325591713915  0.4962050442146357
  0.7563277314346900  0.5124944437967605  0.9911048992623757
  0.7257795717889129  0.0008036289483682  0.7547115819953413
  0.2191962574350619  0.5432764575227409  0.2525214328315358
  0.2427305123380143  0.4908076087340877  0.7588983226499098
  0.8077024617470977  0.0159272360068100  0.2414586312294534
  0.2911986315255693  0.5156754925326568  0.4988785570995222
  0.7314861441269601  0.9824314246217191  0.0023391678949624
  0.7568773574105723  0.9974109309639700  0.4961261555707924
  0.2388019723429003  0.4559535416833699  0.9979522707373668
  0.0052389840667315  0.2890123815898914  0.3635020030881728
  0.4816972133496999  0.7235886971256412  0.8711144252456242
  0.5046609955129964  0.2356781580288426  0.6064003859302322
  0.0107505830877174  0.7698673965735964  0.1223467937757863
  0.9844720095795686  0.2215652076124877  0.8798598094841981
  0.5312706895834068  0.7809543142304294  0.3660984512370428
  0.0268845250239286  0.7571003156925264  0.6305213789277768
  0.5093361660317360  0.2804195747788472  0.1179729214678040
  0.1253793184829293  0.3610983441915767  0.0573860771079325
  0.6804681290218452  0.8982236635613733  0.5599828600030348
  0.6360966030699673  0.0978895351040909  0.9604624508712963
  0.2160732172140870  0.6079738654732407  0.4273873127553969
  0.3568366430041209  0.3457298801295224  0.9547141282494023
  0.8618240419592514  0.8946997240507801  0.4379955510385932
  0.8220785856514177  0.1060848138047283  0.0454466423241806
  0.3761383339512492  0.6284226687061555  0.5510561673105453
  0.9239684108234120  0.0923622294284478  0.1865817052791139
  0.3553412297898183  0.5975496914760778  0.7156224437576604
  0.9060928671001099  0.9187045591889468  0.3009296798627759
  0.3413395262606542  0.3752249369874019  0.8049180214852355
  0.1190749976314434  0.6625632164939149  0.2885540062876148
  0.6172306197132038  0.0964021942810411  0.8082723201909628
  0.1336808020445529  0.4232601664889085  0.1985309648234183
  0.6234140623235508  0.9087206754931544  0.7032811710354282
  0.8359062656550001  0.6304781059223622  0.9385646927383464
  0.3382274127964118  0.1304427167585381  0.4466580120071665
  0.8769046232503800  0.3844475435616153  0.5502563191799524
  0.3582386120332310  0.8490125154130700  0.0447936775702534
  0.1322504146073222  0.0883083818859584  0.5433015410605816
  0.6493045787880171  0.5960450586312493  0.0477250676024102
  0.1582284955087401  0.8732970490623935  0.9433354394181265
  0.6472894176349449  0.4094173853013396  0.4381271268206250
  0.6188077050077680  0.4301445190679354  0.3113634555817161
  0.1322817854742799  0.9105985250565632  0.7915913093662235
  0.1362589391002634  0.1229636438874293  0.6857071489552198
  0.6730097128449676  0.6290211620736578  0.1900442737804111
  0.8552128721803286  0.4381723060683898  0.6929312816593824
  0.4071755673335376  0.8926226362905304  0.1961232016777662
  0.4226845730085186  0.1333739479882246  0.2913184345071093
  0.8527410994574405  0.5997158584566353  0.8029018735388159
  0.1514163628186154  0.0648747346062431  0.0493492318770661
  0.6636804262877791  0.5972255569459177  0.5429842940068823
  0.6771630899702378  0.3892656918365564  0.9396463630746369
  0.1686103191272775  0.9038009109892519  0.4351902388588789
  0.3408370000312426  0.0837091195110647  0.9428443152292545
  0.8632549708264284  0.6114934146549476  0.4457831937589481
  0.8808301927955757  0.4590852316411714  0.0457170896249558
  0.3719235450047549  0.9023868521562728  0.5401244322000883
  0.2082465970417136  0.1207892700119881  0.1991705664180601
  0.6297543488490824  0.6366765327933928  0.6950619440337159
  0.2188595819626044  0.9282256701408088  0.2968500393623063
  0.6649994566897200  0.3969865588600783  0.7881939719266137
  0.8660131346133730  0.6242570999079551  0.3018153490683408
  0.3351366532177710  0.1286522858452004  0.7916739140513483
  0.8231354776887734  0.4070698349747032  0.2048552789017315
  0.3288671650631607  0.9190303904576312  0.6999329080498795
  0.8360968212132119  0.8924632747630630  0.9478524545436342
  0.3977159663058076  0.4074716311304545  0.4570320983799143
  0.8602588432589309  0.1120344679314615  0.5403596579166929
  0.3529919946204830  0.5724999981065159  0.0492884422091522
  0.1728257554140830  0.4305401483337884  0.5516181789937771
  0.6359288257389790  0.8937651045395241  0.0611079630879805
  0.1461906855629176  0.5599074784784559  0.9474750381054117
  0.6784611647532429  0.1089904837747091  0.4426265796525725
  0.3273017166300537  0.4610559100451428  0.3096377933929295
  0.8147719817406738  0.9127703003385172  0.8108097323786183
  0.8447675500251092  0.1329507612042736  0.7079878382222020
  0.3206274001552825  0.6123155274544192  0.1933931558012357
  0.1458691124795429  0.4065965103102610  0.6828756194616340
  0.6905504472126033  0.9170759417165282  0.2052290179813656
  0.7088645705964729  0.1235243979815610  0.2888603342009498
  0.1406293859267140  0.5782920272141182  0.8182664478537771
  0.0530734483120626  0.1878380810721083  0.3146624845512740
  0.5844203492881745  0.6375868416150317  0.8253129554537091
  0.6387440014076486  0.3229204861194193  0.5908933235253374
  0.1008968454251223  0.6887678932928144  0.0805644429156129
  0.4879255728187578  0.2089641132514897  0.6824848695708365
  0.9175852426858625  0.8786086279014237  0.0892441984958219
  0.9236528278868000  0.4028520707441754  0.3462106552762535
  0.3900954359399244  0.8221604765642446  0.8308458008120250
  0.0865010645583088  0.3048358021180279  0.9252120654617118
  0.6009979037268057  0.6747026747392125  0.4086206522375536
  0.0902347102716617  0.8571904923859363  0.5824037680151041
  0.5866744894176507  0.3678761436051710  0.0723690953374363
  0.9278257148556538  0.6903408177100112  0.5855430058705166
  0.4276879037473847  0.1928363867896439  0.0729231470756291
  0.9437440633548266  0.3335670979201008  0.8334988470041018
  0.4412744632946881  0.8582076015639063  0.4228683904081588
  0.9308754339061976  0.8434928795048415  0.6728231390749199
  0.4289663921416073  0.3604571348706403  0.1614099409909719
  0.8767375387819683  0.1720713696993630  0.9229823417927208
  0.4306329888966353  0.7459840937138263  0.3139651695637006
  0.0740207614383670  0.1079769421490926  0.8454725930996793
  0.6174543117084305  0.8839126662579331  0.3429980274007968
  0.1120404311556637  0.6583894333348274  0.6677173863954328
  0.6185279787106627  0.1840601381716455  0.1520931560137299
  0.3759324016220241  0.2957329642497302  0.5873153927377073
  0.9263174555761187  0.6467303057995966  0.1584988707780524
  0.9135796764290623  0.1869626275758684  0.3988055803354212
  0.4169271172767033  0.6397595588905305  0.9197671373770774
  0.1001374769428087  0.3407148448469666  0.4170305077005760
  0.5733718727553694  0.8212213198797431  0.9141565098369521
  0.5462936970423410  0.1077445070844505  0.5722269598904827
  0.0878957383100225  0.8525938984057534  0.1708709867879621
 
 -0.36495340E-02 -0.66396339E-02 -0.10283275E-01
 -0.34780979E-02  0.47098558E-02  0.13167181E-02
 -0.38123621E-02 -0.38406073E-03 -0.54036189E-02
 -0.47662671E-02 -0.78840816E-03 -0.49488771E-02
  0.30279941E-02 -0.62488876E-02  0.14472865E-02
 -0.31041719E-02  0.34425571E-02  0.52379726E-02
 -0.10477578E-01 -0.33542308E-03  0.10104349E-01
 -0.61949637E-03  0.26565381E-02  0.11720735E-01
 -0.54546901E-02  0.56782482E-02 -0.27583364E-02
 -0.21323986E-02 -0.53271679E-02 -0.14982802E-01
  0.21363303E-02  0.71913595E-02 -0.23213517E-02
 -0.56107963E-02  0.19249820E-02  0.60686291E-02
  0.58219964E-02 -0.36649908E-02  0.62232085E-02
 -0.92388145E-03 -0.92134054E-03 -0.17168129E-02
  0.64358511E-03  0.25260354E-03 -0.22055088E-02
  0.51865360E-02  0.47494218E-02 -0.66594051E-02
 -0.98982592E-02  0.44020785E-02 -0.58411330E-03
  0.75404462E-02  0.33787117E-02 -0.38976749E-02
 -0.12993802E-02 -0.16533212E-02 -0.23261740E-03
 -0.13292041E-02  0.64132193E-04 -0.14890134E-02
 -0.13276553E-01 -0.89102521E-02 -0.16204513E-02
 -0.43195454E-02  0.89461834E-03 -0.76778048E-02
 -0.28994951E-03  0.10170104E-02  0.54274598E-02
 -0.70931490E-02  0.60788745E-02  0.12682921E-01
  0.34724945E-02  0.39567837E-02 -0.54414432E-02
 -0.38398086E-02  0.29343528E-02 -0.38213671E-02
 -0.36879349E-02  0.57403191E-02  0.66903800E-02
 -0.13869624E-02  0.65888353E-02 -0.87035428E-02
 -0.22890691E-02 -0.95012789E-03 -0.26248354E-02
 -0.87779042E-02  0.10975003E-01  0.60144998E-02
 -0.17452837E-02  0.62862974E-02  0.78422040E-02
  0.47051246E-02 -0.15533892E-01  0.72388720E-02
  0.33174940E-02  0.73451277E-02  0.23720497E-02
  0.42125429E-02 -0.56154081E-03  0.68513346E-02
 -0.14030721E-02  0.57489454E-02 -0.11572640E-01
 -0.59715382E-03 -0.67696969E-02 -0.40630602E-02
  0.43826598E-02 -0.51838693E-02  0.59864244E-03
  0.53669899E-02  0.74396560E-02 -0.10847310E-03
  0.43013330E-02 -0.72751402E-02  0.57875241E-03
  0.10809069E-02  0.96483044E-03 -0.86191823E-02
 -0.10806356E-01 -0.45849727E-02 -0.67641717E-02
  0.34706814E-02  0.22303980E-03 -0.86514370E-03
  0.31629723E-02 -0.45032448E-02 -0.11858146E-02
  0.54102784E-02 -0.35953057E-02 -0.12097942E-01
 -0.12357216E-02  0.43076233E-03  0.17694195E-01
  0.66115084E-02  0.79583989E-02 -0.38057347E-02
 -0.42014185E-02  0.84029564E-02 -0.33161341E-02
  0.91978494E-02 -0.79094383E-02  0.81442358E-02
 -0.47402263E-02 -0.72781812E-02 -0.56947498E-02
 -0.60645886E-05  0.31844776E-02  0.10604309E-02
 -0.90716024E-03 -0.94242525E-02 -0.38975625E-02
  0.58196168E-02 -0.56194244E-02  0.13626896E-01
 -0.45417505E-03  0.34120305E-02 -0.10946804E-02
 -0.23098407E-02  0.47113720E-02  0.66697477E-03
 -0.28602316E-02 -0.79738437E-02 -0.10683215E-01
  0.93602018E-03 -0.34244623E-02  0.15879703E-02
 -0.10055551E-02 -0.12762387E-01  0.13684174E-01
 -0.92927872E-02 -0.36162674E-02  0.94933418E-02
  0.22252489E-02 -0.58333686E-03 -0.17078510E-02
  0.85351658E-02  0.51356538E-02 -0.29591068E-02
  0.64745521E-03 -0.49482178E-03 -0.14670378E-02
  0.15841770E-02  0.10973039E-01 -0.10429078E-01
 -0.73572436E-02  0.20669890E-02 -0.68957529E-03
 -0.15220805E-02 -0.48068696E-02 -0.86418463E-02
 -0.16314719E-01 -0.59498783E-02 -0.93938300E-03
 -0.92836389E-02  0.40621016E-02 -0.75181584E-03
 -0.18506448E-02  0.40119486E-02 -0.40689406E-02
 -0.77598557E-02 -0.36966937E-02 -0.79161540E-02
  0.49537829E-02 -0.55746224E-02  0.56411104E-02
 -0.91352478E-02 -0.41072222E-02 -0.47073733E-03
 -0.30007570E-02  0.59587291E-04  0.16556991E-02
  0.14041203E-02  0.35917562E-02  0.44263418E-02
  0.65831916E-02  0.96083750E-03 -0.11335361E-02
  0.34009992E-02 -0.10096111E-02 -0.15900257E-03
  0.60266466E-02  0.11084762E-02  0.32644390E-02
 -0.57502519E-02  0.83093981E-02 -0.72827457E-02
 -0.16204225E-02  0.59345106E-03 -0.15064987E-02
 -0.17068915E-02  0.23495326E-02  0.18443347E-02
 -0.69457724E-02  0.67302371E-03  0.31965495E-02
  0.37612907E-02 -0.26868083E-02 -0.49023739E-03
 -0.87961528E-02 -0.86650020E-02 -0.58501339E-02
  0.62965890E-02  0.58094825E-02 -0.19566659E-03
  0.62758381E-02 -0.25736483E-02  0.34556543E-02
 -0.83160051E-02  0.21225507E-02 -0.63841645E-02
  0.74539903E-02  0.26453561E-02  0.73422905E-02
  0.60444569E-02 -0.39477666E-03 -0.12611233E-03
  0.16169066E-02 -0.83421320E-03 -0.52257620E-02
  0.38376298E-02 -0.69263690E-02  0.29231057E-02
  0.54663200E-02 -0.68090074E-02 -0.15092921E-02
 -0.14433851E-02 -0.72657868E-03 -0.18223324E-03
 -0.87736377E-03  0.29509259E-02 -0.10601832E-02
 -0.29397670E-02 -0.34980943E-02  0.28670124E-02
  0.11384399E-03  0.18760132E-02  0.19094373E-02
  0.12889085E-04  0.76012175E-03  0.22509983E-02
  0.21466612E-02  0.38722576E-03  0.16228117E-02
 -0.10947263E-02  0.44407315E-02 -0.47119815E-02
 -0.28564501E-02  0.16510221E-02  0.41207676E-02
  0.19978172E-02 -0.73790333E-03 -0.39267095E-03
  0.19681636E-02 -0.20373242E-03  0.30407192E-02
 -0.44669232E-03 -0.17249354E-04 -0.23769760E-02
  0.12860061E-02 -0.52149306E-02 -0.24033538E-02
 -0.76316945E-03 -0.86519802E-03 -0.17444858E-02
 -0.26241735E-02  0.33245635E-02 -0.50453170E-02
 -0.12798840E-03  0.38785066E-02  0.36347492E-02
  0.28312231E-02  0.46419625E-02 -0.77174724E-02
  0.62178677E-02  0.17623482E-02 -0.13430563E-02
  0.32383948E-02  0.83686545E-02 -0.22199066E-02
  0.14816623E-02 -0.98193458E-02  0.52070828E-02
  0.40340855E-02 -0.33925815E-02  0.58051591E-02
 -0.80633399E-02  0.12601586E-02  0.41004763E-02
 -0.65541112E-03 -0.48757695E-02  0.33857960E-02
  0.83032103E-02 -0.54725976E-02  0.21054567E-03
 -0.45869518E-02 -0.41889286E-02  0.60883594E-02
 -0.55591008E-02 -0.12551500E-02  0.57471771E-03
 -0.35549008E-03 -0.92874649E-02  0.14754994E-03
 -0.37347605E-02  0.57215338E-03 -0.41284638E-02
 -0.26040270E-02 -0.52386092E-02 -0.38924674E-02
  0.41818979E-02  0.26290829E-03 -0.24214775E-03
  0.14573521E-02 -0.12143073E-01  0.73745774E-02
 -0.40993984E-02  0.42325057E-02 -0.12089004E-01
 -0.31400957E-02  0.27122426E-02  0.34346944E-03
  0.64315116E-02  0.92692076E-02 -0.15787059E-02
  0.14679204E-01 -0.41368040E-04 -0.23857831E-02
  0.19754803E-03  0.22311790E-02 -0.15173130E-02
  0.13573407E-03  0.32145095E-02  0.37335529E-02
 -0.19072333E-02  0.11813579E-01 -0.14779381E-02
 -0.26122648E-02  0.23478616E-02 -0.18484761E-02
 -0.73228804E-02  0.54970211E-02  0.93576415E-03
  0.88543008E-02  0.25566494E-02  0.33422141E-02
 -0.34288104E-02 -0.88909269E-02 -0.70129786E-03
 -0.28490932E-02  0.36821724E-02 -0.43716216E-02
  0.73655490E-02  0.13723960E-01 -0.49869391E-03
  0.64029838E-02  0.33614172E-02 -0.51920274E-02
 -0.35087795E-02  0.33069801E-02 -0.89989210E-03
  0.30332147E-02 -0.50994044E-02 -0.91536967E-02
 -0.34822548E-02  0.28048405E-03 -0.20070962E-03
 -0.28185040E-02 -0.34578141E-02  0.68847793E-02
  0.71371505E-02 -0.60050447E-03  0.45795623E-02
  0.84507626E-02  0.28420912E-02 -0.19228724E-02
  0.20347067E-02  0.47483192E-02 -0.34341251E-02
  0.74434028E-02 -0.31011135E-02 -0.10888954E-02
  0.11383708E-02 -0.19786016E-02 -0.56569278E-02
 -0.24757741E-02 -0.87732471E-02  0.12982608E-02
 -0.82527537E-03 -0.98162735E-03 -0.56700888E-02
  0.10430204E-02 -0.45519568E-02  0.21812870E-02
  0.32161169E-03 -0.24482019E-02 -0.19538161E-02
  0.97153899E-04  0.20347645E-02  0.20332190E-02
  0.33161600E-02  0.24821741E-02 -0.40580233E-02
 -0.28163239E-02 -0.23011804E-02  0.10029989E-03
  0.10744577E-01  0.57785859E-04 -0.92608498E-02
  0.20144852E-02  0.45414423E-03  0.51211183E-02
 -0.13666472E-02 -0.10693126E-02  0.25740769E-02
 -0.65996066E-02 -0.42384461E-02  0.68445377E-02
 -0.39773436E-02 -0.21499927E-02  0.38269475E-02
 -0.34230095E-02 -0.28755137E-02  0.30586737E-02
  0.47400414E-02 -0.15354467E-02  0.32364993E-03
  0.30746153E-02  0.11021358E-02 -0.57329271E-02
 -0.33842400E-02  0.43288429E-02 -0.98740257E-03
  0.65460007E-02  0.22826804E-02 -0.56911782E-02
  0.27214083E-03  0.75369127E-02 -0.88936580E-02
 -0.28605985E-02 -0.86365393E-02 -0.20018180E-02
  0.18810168E-02 -0.17595554E-03  0.57926766E-02
 -0.12239352E-02 -0.61717311E-02  0.76325921E-02
  0.36229294E-02 -0.10272883E-01 -0.42424113E-02
  0.48908760E-03 -0.17922659E-02  0.35811306E-02
 -0.32209120E-02  0.21552554E-02  0.11493591E-01
  0.30499846E-02 -0.77923834E-03 -0.16639864E-02
  0.51247029E-02 -0.96179705E-02  0.33624091E-02
  0.37896885E-02 -0.35093177E-02 -0.29891168E-02
  0.16183470E-03 -0.91325136E-02  0.25274377E-02
 -0.52627174E-02  0.12307743E-02  0.13929199E-02
  0.46526997E-02  0.18667360E-02 -0.45324777E-02
  0.65485452E-02 -0.16828428E-02 -0.46959892E-02
 -0.78416564E-02 -0.10137083E-01  0.29141830E-02
 -0.37783152E-02  0.76810324E-02 -0.37253351E-02
  0.65579522E-02 -0.34190620E-02  0.29308247E-02
  0.10089885E-01  0.40023567E-02  0.37715925E-02
  0.16509538E-02 -0.15241897E-02  0.88530999E-03
  0.37826770E-02  0.13596603E-02 -0.95579009E-02
 -0.71120195E-02 -0.28375966E-02 -0.49175831E-02
  0.38368803E-02  0.48539325E-03  0.84969880E-02
  0.35518393E-02 -0.15593262E-02 -0.22670587E-02
 -0.69672448E-02  0.19621775E-02  0.39295735E-02
 -0.36258984E-03  0.64774704E-02 -0.57728069E-02
 -0.46971729E-03 -0.30687613E-02  0.15246951E-02
 -0.60608780E-02 -0.42612150E-03 -0.66577620E-02
 -0.41801889E-02 -0.80260481E-03  0.38941319E-02
  0.12583107E-02  0.25046219E-02  0.27558589E-02
 -0.63573267E-02  0.24417048E-02 -0.33926616E-03
  0.99974079E-03 -0.58492657E-02  0.77369616E-02
 -0.45178502E-02 -0.39035857E-02 -0.19346643E-02
  0.34489656E-02  0.12100450E-01  0.96047959E-02
 -0.46100760E-02 -0.10621028E-02  0.75746467E-02
 -0.62401484E-03 -0.40708278E-02 -0.71029309E-03
  0.80623784E-02  0.23004804E-02  0.79899653E-02
  0.11441328E-02  0.36637225E-02  0.16240212E-02
 -0.50373928E-02  0.84132989E-02  0.84992551E-02
 -0.49897699E-02  0.38205075E-02 -0.25496871E-03
  0.59335254E-02  0.59615802E-02 -0.98878416E-03
 -0.50246205E-02  0.26764723E-02  0.16008171E-02
 -0.31917087E-02  0.92824715E-03 -0.47214682E-02
 -0.25851261E-02 -0.57673428E-02  0.15132158E-02
  0.13316276E-02  0.63249788E-02  0.91624915E-02
  0.11091818E-01  0.59678748E-02  0.15340244E-02
  0.84708625E-03  0.69380838E-03  0.12490021E-01
 -0.19905736E-02  0.89779849E-03 -0.16991463E-02
 -0.82494975E-02  0.19661798E-02 -0.48670044E-02
  0.48661612E-02  0.25292411E-02 -0.92417800E-02
 
           1
   2.00000000000000     
  0.77131391E+00 -0.97912219E-03  0.00000000E+00  0.00000000E+00
  0.75365343E+00  0.13507659E-01  0.11799122E+00
  0.51205254E+00  0.22749699E+00  0.47383001E+00
  0.52085955E+00  0.43556098E+00  0.85651423E+00
  0.44327580E-01  0.98814301E+00  0.36631703E+00
  0.23271618E+00  0.98650408E+00  0.87049674E+00
  0.22507251E+00  0.76347894E+00  0.35736323E+00
  0.76398806E+00  0.52446893E+00  0.12652622E+00
  0.21599128E+00  0.27671977E+00  0.26407278E+00
  0.29722390E+00  0.48209867E+00  0.62538205E+00
  0.77761321E+00  0.27485988E+00  0.98841191E+00
  0.75268165E+00  0.74426316E+00  0.49432655E+00
  0.53110256E+00  0.24458170E+00  0.99147350E+00
  0.50574097E+00  0.58443668E-02  0.11462011E+00
  0.30673792E+00  0.74976298E+00  0.62925774E+00
  0.71469958E+00  0.97959628E+00  0.88354590E+00
  0.72916340E+00  0.53783470E+00  0.36924796E+00
  0.96821474E+00  0.16847691E-01  0.76529523E+00
  0.18015236E+00  0.24680354E+00  0.61643853E+00
  0.28936020E+00  0.75759312E+00  0.13914830E+00
  0.75103030E+00  0.50296362E+00  0.87029355E+00
  0.49569860E+00  0.44171042E-01  0.36186660E+00
  0.27379922E+00  0.35211943E+00  0.38207274E+00
  0.51100232E+00  0.73490215E+00  0.76044108E+00
  0.75302406E+00  0.49694726E+00  0.61676589E+00
  0.23019107E+00  0.70744955E+00  0.35864585E-02
  0.29159640E+00  0.25822466E+00  0.70925857E+00
  0.75296641E+00  0.74109653E+00  0.11442601E+00
  0.18795315E-01  0.54727513E+00  0.37803546E+00
  0.98980270E+00  0.39492508E-02  0.48838603E+00
  0.51772383E+00  0.77564808E+00  0.95105701E-02
  0.38712256E+00  0.58141718E+00  0.38948754E+00
  0.45959864E+00  0.98002305E+00  0.76629974E+00
  0.25417074E+00  0.77497862E+00  0.24114100E+00
  0.51434941E+00  0.22464002E+00  0.77562739E+00
  0.99265885E+00  0.96437195E+00  0.88751078E+00
  0.22932405E+00  0.26774063E+00  0.49477410E+00
  0.75647608E+00  0.74914448E+00  0.85708502E+00
  0.44049849E+00  0.32821472E+00  0.26161960E+00
  0.20396864E-01  0.49155280E+00  0.74815460E+00
  0.61786168E+00  0.77807064E+00  0.25451016E+00
  0.62959268E-01  0.17632450E-01  0.24256096E+00
  0.52424193E+00  0.45286618E+00  0.71830282E+00
  0.50227269E+00  0.99387766E+00  0.90507519E+00
  0.99645053E+00  0.53331738E+00  0.23626835E+00
  0.23670043E+00  0.25350036E+00  0.11901549E+00
  0.49081547E+00  0.99556405E+00  0.48351255E+00
  0.79458769E-02  0.26752510E-01  0.62788953E+00
  0.76634873E+00  0.27978415E+00  0.90164915E-01
  0.99700917E+00  0.25855018E+00  0.74080764E+00
  0.47945140E+00  0.58135765E+00  0.25235707E+00
  0.14243403E-01  0.48488608E+00  0.62233254E+00
  0.56865205E+00  0.61569701E-01  0.23073353E+00
  0.25735371E+00  0.84228178E-02  0.61488985E+00
  0.94624450E+00  0.69944583E+00  0.81336785E-02
  0.76387555E+00  0.28370137E+00  0.36712067E+00
  0.99348277E+00  0.49737607E+00  0.89715189E+00
  0.99648614E+00  0.28168671E+00  0.90244446E-02
  0.52964824E+00  0.71486259E+00  0.49577612E+00
  0.51343936E+00  0.50691111E+00  0.99409280E+00
  0.97480765E+00  0.22057668E+00  0.48840938E+00
  0.57384038E-02  0.99171255E+00  0.99153728E+00
  0.73307012E-03  0.73275683E+00  0.50708311E+00
  0.22090720E+00  0.22069983E+00  0.98055250E+00
  0.69628834E+00  0.40532177E-01  0.62389121E+00
  0.95986732E+00  0.27616260E+00  0.23309243E+00
  0.24358548E+00  0.75862809E+00  0.75440791E+00
  0.27454320E+00  0.49894900E+00  0.12283087E+00
  0.70750199E+00  0.25936786E+00  0.68378450E+00
  0.79158594E+00  0.74606954E+00  0.36885709E+00
  0.28360423E+00  0.22612590E+00  0.88143786E+00
  0.66606087E+00  0.29219370E+00  0.23465794E+00
  0.96078012E+00  0.76386266E+00  0.75548825E+00
  0.23508018E+00  0.98485407E+00  0.12427204E+00
  0.76517889E+00  0.25067273E+00  0.50645656E+00
  0.75197085E+00  0.21835170E+00  0.83939441E+00
  0.26785859E+00  0.79073211E+00  0.48857408E+00
  0.34833070E-01  0.51719343E+00  0.11089694E+00
  0.78879685E+00  0.91823463E-02  0.37335892E+00
  0.90539024E+00  0.77449894E+00  0.24310544E+00
  0.51745665E+00  0.45229396E+00  0.53184548E+00
  0.25664713E+00  0.46436782E+00  0.88203913E+00
  0.26284112E+00  0.65483042E-01  0.37199650E+00
  0.75343217E+00  0.76496507E+00  0.63922964E+00
  0.43640300E-01  0.99613445E+00  0.11872363E+00
  0.50510939E+00  0.93617174E+00  0.62210487E+00
  0.49199755E+00  0.52202539E+00  0.12129274E+00
  0.23980900E+00  0.70511941E+00  0.88857617E+00
  0.18333639E-01  0.48856626E+00  0.49162047E+00
  0.32553492E+00  0.26118718E-01  0.24118401E+00
  0.75372323E+00  0.53403369E+00  0.74297948E+00
  0.23126197E+00  0.29505283E-01  0.74576294E+00
  0.74885591E+00  0.53083566E+00  0.25670018E+00
  0.26494961E+00  0.96138497E+00  0.99909058E+00
  0.75626158E+00  0.48929631E+00  0.49592465E+00
  0.25365562E+00  0.53900054E-02  0.49632542E+00
  0.75616533E+00  0.51315324E+00  0.99075538E+00
  0.72535581E+00  0.10485635E-02  0.75501725E+00
  0.21949264E+00  0.54316699E+00  0.25249231E+00
  0.24302250E+00  0.49077738E+00  0.75912387E+00
  0.80763619E+00  0.15924677E-01  0.24128232E+00
  0.29138941E+00  0.51490184E+00  0.49870028E+00
  0.73137293E+00  0.98230307E+00  0.22097678E-02
  0.75648805E+00  0.99790414E+00  0.49575191E+00
  0.23878298E+00  0.45652893E+00  0.99822188E+00
  0.56590053E-02  0.28970103E+00  0.36292955E+00
  0.48261965E+00  0.72385015E+00  0.87101480E+00
  0.50514142E+00  0.23691968E+00  0.60623572E+00
  0.10970393E-01  0.76841066E+00  0.12273304E+00
  0.98507048E+00  0.22106191E+00  0.88029042E+00
  0.53007447E+00  0.78114126E+00  0.36640261E+00
  0.26787293E-01  0.75637698E+00  0.63077253E+00
  0.51056797E+00  0.27960770E+00  0.11798854E+00
  0.12469883E+00  0.36047690E+00  0.57837691E-01
  0.67964342E+00  0.89803746E+00  0.56002549E+00
  0.63604386E+00  0.96511709E-01  0.96047340E+00
  0.21551915E+00  0.60805875E+00  0.42708108E+00
  0.35645033E+00  0.34495272E+00  0.95442540E+00
  0.86244444E+00  0.89473873E+00  0.43797759E+00
  0.82229479E+00  0.10428335E+00  0.45993664E-01
  0.37553017E+00  0.62905057E+00  0.55015945E+00
  0.92350257E+00  0.92764600E-01  0.18660718E+00
  0.35629537E+00  0.59892481E+00  0.71550534E+00
  0.90827058E+00  0.91869842E+00  0.30075271E+00
  0.34136883E+00  0.37555594E+00  0.80480547E+00
  0.11909513E+00  0.66304010E+00  0.28883095E+00
  0.61694768E+00  0.98154778E-01  0.80816269E+00
  0.13329326E+00  0.42360848E+00  0.19839385E+00
  0.62232769E+00  0.90953618E+00  0.70335058E+00
  0.83721983E+00  0.63085739E+00  0.93881261E+00
  0.33771874E+00  0.12912372E+00  0.44660599E+00
  0.87648195E+00  0.38499381E+00  0.54993205E+00
  0.35933132E+00  0.85104851E+00  0.44756686E-01
  0.13320032E+00  0.88807059E-01  0.54291641E+00
  0.64878404E+00  0.59653566E+00  0.47658317E-01
  0.15867848E+00  0.87254054E+00  0.94265645E+00
  0.64677281E+00  0.40945900E+00  0.43811224E+00