Na88 Ge16 P8 S96                        
   1.00000000000000     
    13.3422163233000006    0.0000000000000000    0.0000000000000000
     0.0000000000000000   13.3422163233000006    0.0000000000000000
     0.0000000000000000    0.0000000000000000   26.6844326466999995
   Na   Ge   P    S 
    88    16     8    96
Direct
  0.9985323531883115  0.9816603864316683  0.1367580519637691
  0.5315499697508815  0.5128506957300759  0.7408819395850581
  0.2539762992076258  0.4989911924697021  0.8642788114251055
  0.0104582259643653  0.0251503497026669  0.6046606104875284
  0.7161118400012455  0.0377570529356757  0.8621198361418044
  0.9635067438528833  0.5818928561138931  0.3840479126356889
  0.9354053917679155  0.4889106318135561  0.1432103846317249
  0.2227652047484376  0.2350577028343963  0.0200447910685502
  0.7184624161425729  0.9643018939192050  0.6208025730646000
  0.7250582970537626  0.2569702563601869  0.7590954241165362
  0.7575571129053248  0.7234710061956178  0.3753114455474247
  0.2461431710543563  0.2369838632620934  0.8838357612725688
  0.7317038236777469  0.2577688181602242  0.1562965503642206
  0.1909479710781826  0.5937925825778857  0.6325500046672119
  0.9687007152851110  0.0229877051818201  0.8765562382357177
  0.7513532007591773  0.9943766075356242  0.3700235700375040
  0.2502075281960591  0.0098109721407126  0.6321250884056450
  0.4366069728264751  0.5061342407719855  0.6214160443165015
  0.4751316863668179  0.0920749163316956  0.0283912370927965
  0.9890902155979081  0.5276846842908207  0.8683833286985113
  0.5083228336778683  0.0082846122976961  0.3716044871273051
  0.2639757796570169  0.9691670447835683  0.3824294336668235
  0.6834278357987879  0.6098903626099099  0.8863445790777557
  0.4722486084021921  0.4814570036498971  0.4987668223391795
  0.2206086967634601  0.4747865835846659  0.1126162010417319
  0.1991749936408064  0.2377737301454425  0.4865562235651225
  0.7205388496304334  0.5376078127411752  0.1318117266105619
  0.7525703741091454  0.2216207778840888  0.6219348994672845
  0.4733630381954388  0.7412519510352373  0.5175623340437708
  0.7620840355212131  0.8020959890723838  0.9990871508345568
  0.9847006470803243  0.0736148029359422  0.4755888706288966
  0.1724532426536987  0.7653921313194065  0.7036151644042414
  0.0187917150578013  0.6804776153955201  0.2250350146413176
  0.4883767682785715  0.2908067633868248  0.7485757621219029
  0.9834989087014112  0.0150814567980371  0.0182999269591854
  0.4872054011302173  0.2303389188856447  0.4765748520293467
  0.5011468299997390  0.7349854404179914  0.0033463200933312
  0.7666709301128023  0.2602644263460596  0.2691114407845278
  0.7221150828875492  0.7753197304851600  0.8527354139897565
  0.5043369057395459  0.7661923598771652  0.2505184558992476
  0.0256893520225837  0.9520301592366252  0.2430015250804513
  0.4710750854640291  0.4985956577458016  0.8805201853884985
  0.4299251561064104  0.7509067127686347  0.7482194768023431
  0.9967010982569825  0.4213587326087179  0.2744504098634692
  0.4508650515688256  0.4522173464301706  0.0072247982414888
  0.7217274125153273  0.6955386070401783  0.4895497794923054
  0.2141313789763397  0.7560541512768092  0.4896510602505010
  0.6950370577748090  0.2831451339155089  0.0064517157881698
  0.9630540984731610  0.9986610478147206  0.7227693545517481
  0.7503605523825210  0.4074840392310977  0.3755918674715013
  0.0034404584249431  0.5067000643810148  0.7471283590077153
  0.5243147580323424  0.0063705295805002  0.2431887741978536
  0.1779655867098478  0.4373584088776367  0.3626985701173140
  0.0047632001255413  0.7392800390697406  0.9931844887434870
  0.9668929257181427  0.4644546370100918  0.6203184157502668
  0.2501717789699909  0.7370724163515543  0.9816410373263017
  0.9563742204155555  0.2569828238406921  0.0092004412126554
  0.4493767311281048  0.4657148804682505  0.3768373578562695
  0.4660354467987841  0.4927093764421351  0.2461731368908315
  0.9610460824690937  0.4741919423550082  0.4977655054382527
  0.4713603868784449  0.0200535560054516  0.7479772332090023
  0.9684064739358014  0.8049407652091375  0.4945299217696307
  0.9682164474135937  0.4997840879842787  0.9909369716986715
  0.4709122536489215  0.9755497424433142  0.4937654682876662
  0.5054256806502623  0.2296937894477609  0.2577213073910982
  0.7017691012062506  0.7943397961289930  0.1243248765973797
  0.2804612170005374  0.7183443118195877  0.1038168706283656
  0.9757814694390620  0.2401405102148151  0.7510563261315971
  0.7448216702379604  0.7450958465107507  0.2481297249634176
  0.2662324483914262  0.2889031949296251  0.7435342256118804
  0.1715612572532847  0.1940476904833076  0.2998938915661687
  0.8405231990602969  0.7468513224415831  0.7381142788311844
  0.2266637253806903  0.2505866200122087  0.1754533942510704
  0.4753535391497398  0.9983701271105552  0.6248912055512804
  0.7247784825292019  0.2888904401561310  0.8966123323659011
  0.2105270941956158  0.7516194130694821  0.3700577837910207
  0.2152195127434704  0.7734798070978400  0.8393556118060619
  0.9894501813079654  0.0014972184255439  0.3699365039406469
  0.7370056059567345  0.0339743214655108  0.1187601024392325
  0.6954061432570126  0.4425559916454507  0.6233000476518704
  0.4901389430928858  0.9589367549708241  0.9387753598046447
  0.2637585703051123  0.7227283915826800  0.2524504870954229
  0.7305542089314585  0.7543357221808668  0.6196405996790366
  0.2922740741995473  0.9781479443732746  0.1262376047642208
  0.2222386067486815  0.2897461403596225  0.6126067239076375
  0.4848824364217629  0.5271727255435694  0.1275995335899539
  0.2051565062173375  0.0015022617143971  0.8786417671116982
  0.7126742446276774  0.2089431493361398  0.4994448092883802
  0.2622436697380556  0.9891036094039410  0.2519176359117770
  0.7624761774572697  0.5134879320728559  0.7558927540406086
  0.2163626923240808  0.0349318385487403  0.7595632078437384
  0.6990134968658684  0.5006447518070022  0.2505026086323344
  0.2227048606312492  0.9796924823292603  0.0111202679219320
  0.7173061549532935  0.4657767697404105  0.5056558927184832
  0.2348144238792457  0.9890997328315537  0.5008125725236718
  0.7249080771629108  0.5529620314190381  0.0057502991324297
  0.7134602754825002  0.9959963915967770  0.7396882677602223
  0.2100921002599008  0.4749877246366388  0.2408635521891801
  0.2538575212738806  0.5174633618285863  0.7355484870237492
  0.7707436682286581  0.9933143681050943  0.2401502048867555
  0.2330219713761022  0.5073163635168800  0.5006624369239906
  0.7331481525006224  0.0421601533260065  0.9905783710223320
  0.7235157443362790  0.9492675587680613  0.4876327682746009
  0.2197196251349919  0.4845670267254731  0.9914911528986637
  0.9791829662147603  0.2426631414448123  0.3727660507081203
  0.4740403322476842  0.7473977043502720  0.8557577228654684
  0.4895000281196645  0.2507628521540568  0.6207313286452718
  0.0017475000158844  0.7457769907510547  0.1103778445703379
  0.9912213999376432  0.2677182877890145  0.8767341560971872
  0.4896868314736665  0.7452042653263380  0.3777114681829840
  0.9696724854653337  0.7466373129418540  0.6128607444130606
  0.4766201546246513  0.2547582308974635  0.1279664665328308
  0.1158228332133755  0.3985413780962274  0.0382942820348495
  0.6338925946533478  0.8509526605548832  0.5449104747831666
  0.6378572267276387  0.1374860327955521  0.9409830695364989
  0.1462139698158737  0.5899093255938158  0.4375589792182902
  0.3312305241515681  0.3963797291886322  0.9476161214838466
  0.8244491971792534  0.8740103704315739  0.4352510407973739
  0.8245893967739620  0.1486692724893680  0.0441954947797902
  0.3404975373121840  0.5982370374887619  0.5440109337662086
  0.8707437457828714  0.0888047900870284  0.1990758189584353
  0.3449832461521939  0.6194039853639474  0.6875774904189350
  0.8653551237171120  0.8872779800511191  0.2908001514639140
  0.3582944924076534  0.4362569288721107  0.7867238823226300
  0.1307786149378645  0.5807067897297910  0.2976623859064192
  0.6145305778529703  0.1086135498977293  0.7856083132881410
  0.0970994632509437  0.4074208281766368  0.1863354934911863
  0.6245045068372365  0.8724719636080931  0.6932909475207111
  0.8313998983356321  0.6280824207900064  0.9503202960529361
  0.3229452423766164  0.1024841314363412  0.4542265889187895
  0.8196321880387023  0.3773604115788697  0.5591141614539872
  0.3412968863112405  0.8831500065144782  0.0382187383874815
  0.1338566201808329  0.0944924953830760  0.5478165870306441
  0.6202169022569090  0.6343505913167071  0.0568292787686055
  0.1161230382784581  0.9065438483990074  0.9579741190279715
  0.6261335723253481  0.3733043531623003  0.4552900367150726
  0.6147046127803268  0.3893137861338486  0.2983939363269323
  0.0982884126209303  0.9413774659986471  0.7953894525198036
  0.1398788226233127  0.1293091951948493  0.7039526285143963
  0.6061977386973525  0.5958665295819779  0.2036941304256074
  0.8546932084975657  0.3962889090720021  0.7132235501295336
  0.3511226962403186  0.8780632352246385  0.2065090161027802
  0.3500257627756329  0.0800766962132639  0.3025688368025530
  0.8340764582313427  0.6242964800651309  0.8116143717112940
  0.1429700276608190  0.0681188889758551  0.0676770476079286
  0.6225910626305410  0.5681343554606751  0.5509994886846532
  0.6081488431126383  0.4676656756762845  0.9557051048968467
  0.1281288107332564  0.9122892703219166  0.4482078718743497
  0.3185150535334626  0.0832166071398903  0.9593698644810288
  0.8116236195426766  0.5414091476240949  0.4464606697498222
  0.8063100760162072  0.4464545467754855  0.0480725551085366
  0.3158062420892525  0.8869371355173719  0.5475710485144544
  0.1609788399637521  0.0817185404835639  0.2078220598067606
  0.6911396165849246  0.6001371724288321  0.6960984874256009
  0.1655403228484412  0.8865937810471602  0.2970414752104915
  0.6530609795262837  0.4087283458747577  0.7981208732256532
  0.8349201380679523  0.5786174211238740  0.2920251721655132
  0.3249386963509481  0.1234039991474547  0.8145498796411039
  0.7937551783895950  0.4187867121989680  0.1962725230812475
  0.3097748917593465  0.9202810467249444  0.7107537363332861
  0.8361853347770473  0.9453311031545888  0.9467662986158277
  0.3277308767959435  0.3982176968255088  0.4468129452927841
  0.8199367905107937  0.0448306877105662  0.5400446633541457
  0.3281995979576983  0.5882463159808292  0.0376789129028558
  0.1383462644804355  0.4190090892094177  0.5524194895607291
  0.6355820622604627  0.9464692799245598  0.0434365542289605
  0.1444616198908647  0.5881042647122297  0.9425105935196547
  0.6162154662418248  0.0575657186359019  0.4455482308338466
  0.2951107413695422  0.3627558699496143  0.2833083331930075
  0.8116696566485594  0.9138472078236440  0.7973458691130831
  0.8073012686230703  0.0942589800899703  0.6931779119081040
  0.3075652079250361  0.5744457536649232  0.1950479190887787
  0.1502830288079232  0.4206897926715521  0.6850084711851201
  0.6546652099792269  0.9013886394554927  0.1956611734689831
  0.6713441971626882  0.0929429465877143  0.2935787824301176
  0.1589813565113567  0.6069027968236728  0.7900654732104639
  0.8621640323058939  0.1454677308760801  0.4066286670538811
  0.5515797503334992  0.6373789865755974  0.8155175385133308
  0.5679573712276497  0.3418762334455016  0.6682856327044977
  0.1188349384526538  0.7979432621056249  0.1514750836449789
  0.3981142627890302  0.1705756095566245  0.6717654765587842
  0.8876700183026610  0.6852083097034536  0.1608523220526950
  0.9707289267510493  0.2182361906578590  0.2979104875412745
  0.4113263799485218  0.8784611749846962  0.8305108831040185
  0.0705322390282389  0.1707680487719730  0.9227604176986028
  0.5656602125169549  0.6372190600455342  0.4202292101213713
  0.0963048592004030  0.8058193856642387  0.5845971548676737
  0.5596259229309446  0.3374689492712689  0.0735462394935442
  0.8991459733195665  0.6624070202616575  0.5552633899901427
  0.3628241905751736  0.1575797775661290  0.1055125934811819
  0.8982512040382863  0.3628990424737371  0.9162296030142161
  0.4007031639003671  0.8398697608613838  0.4150855322591830
  0.8895935263432275  0.8572218844506007  0.6491769454167519
  0.4125740536032392  0.3498936367332567  0.1736293923038539
  0.8808736844852690  0.1801698143430875  0.8409309962266784
  0.3989451371858507  0.6536566554482740  0.3299995644592351
  0.0942547646641314  0.3454682724369312  0.8394991805695000
  0.5964934730177680  0.8241734575933869  0.3410608315005206
  0.0030142585368536  0.6620948720592538  0.6760427477606281
  0.5656818162088628  0.1529637551091347  0.1662422719998088
  0.3967380712098824  0.3339979521468087  0.5748971869462727
  0.9163165875255179  0.8515693256107781  0.0716473892164215
  0.9406964199520651  0.3808809015537014  0.3956070251637402
  0.3712766688872406  0.6663243912047715  0.8896251127694831
  0.1144357902638778  0.1768112492117214  0.3943169209732738
  0.5766304949767385  0.7881339736601405  0.9147385598327110
  0.5758865351275284  0.1556599335385598  0.5817918818045001
  0.0401798354821837  0.6269029336978211  0.0753592877435862
 
 -0.70057261E-03 -0.10310908E-02 -0.19153070E-03
 -0.12395104E-02  0.42421026E-02 -0.15350186E-02
 -0.58591501E-02  0.66818305E-02  0.18810869E-02
  0.10804880E-01  0.31854178E-02  0.36523107E-02
 -0.56952709E-02  0.27589931E-02  0.77570837E-03
  0.83018041E-02  0.37903800E-02 -0.41867227E-02
  0.26973864E-02  0.46611301E-03 -0.50733877E-02
 -0.61570872E-02 -0.11674581E-01 -0.43468788E-02
  0.40827150E-02  0.77197474E-02 -0.52734720E-02
  0.14344506E-02 -0.76456120E-02 -0.50761163E-02
  0.31295759E-02 -0.18619559E-02 -0.56534867E-02
 -0.49921485E-03 -0.35875022E-02 -0.31912620E-02
  0.35253777E-02 -0.52628439E-02 -0.26157862E-02
  0.41911069E-02  0.56298388E-02  0.89761931E-03
 -0.56164447E-02  0.12692147E-02  0.46549224E-02
  0.14910652E-02  0.10660092E-02 -0.92370360E-02
 -0.49382754E-02 -0.94488346E-03 -0.72146319E-03
  0.31599749E-02  0.12090449E-02 -0.73130993E-02
  0.36211586E-04 -0.13949188E-02  0.38624290E-03
 -0.43999463E-02 -0.87978070E-03 -0.47292886E-02
  0.20952517E-02 -0.40431703E-02 -0.10411193E-01
  0.89400029E-02 -0.15224970E-02  0.32153130E-02
  0.63155019E-02 -0.40235229E-02 -0.57306856E-02
 -0.75012930E-02 -0.29874280E-02 -0.48887543E-02
 -0.39725341E-02 -0.68419843E-02 -0.83073840E-03
  0.45675375E-02  0.62483375E-02 -0.56002122E-02
 -0.18041280E-02 -0.28504898E-02 -0.52235475E-02
 -0.80789943E-03 -0.38120465E-02 -0.34551829E-02
 -0.93685758E-02 -0.97455612E-02  0.11134796E-01
 -0.14351030E-02  0.12797143E-02  0.28355797E-02
 -0.54506844E-02 -0.34561091E-03 -0.35962649E-02
 -0.62059987E-03 -0.11826161E-02 -0.61595295E-03
  0.41075271E-02  0.13207112E-02  0.26193117E-02
 -0.23026605E-02 -0.31046109E-02 -0.91350127E-03
 -0.30053297E-02  0.18629188E-02 -0.25503403E-02
 -0.40190498E-02  0.57532449E-02 -0.20594197E-02
  0.11584165E-03  0.10968876E-01 -0.69469094E-02
 -0.54117868E-02  0.18200728E-02  0.49225932E-03
 -0.58788643E-02 -0.44983740E-02 -0.31773108E-02
 -0.45946877E-03  0.16002503E-03 -0.36156446E-02
 -0.28369414E-02 -0.49907029E-02 -0.21236891E-02
  0.60488659E-02  0.16743110E-02  0.18132438E-03
 -0.10851639E-02  0.67636778E-02 -0.81445686E-02
 -0.10133171E-01 -0.41713822E-02 -0.35960364E-02
 -0.43428946E-02  0.29824897E-02 -0.10265020E-01
  0.10237316E-02  0.48564304E-02  0.71210539E-02
 -0.13669601E-02 -0.62244428E-03 -0.20751918E-02
  0.34178440E-03  0.21959838E-02 -0.52241483E-03
 -0.10189558E-02 -0.22402783E-02  0.56449999E-02
  0.33994337E-02  0.36662525E-02  0.18792225E-02
  0.32516408E-02 -0.44545719E-02  0.21886107E-02
 -0.14452439E-02  0.60305301E-02  0.15121915E-03
 -0.27057071E-02  0.40947101E-02 -0.12036075E-02
 -0.12926854E-02 -0.43411170E-02 -0.29359582E-02
  0.83013435E-03  0.21428435E-02  0.91564145E-02
 -0.19982130E-02 -0.21126309E-02 -0.22256278E-02
 -0.99041703E-02 -0.31638619E-02 -0.28623588E-02
  0.29190153E-02  0.28733073E-03  0.65894997E-02
 -0.96063342E-02  0.32300536E-02  0.14625236E-02
  0.99395256E-02  0.16152269E-02  0.23373443E-02
 -0.13642037E-02  0.78726098E-03  0.48937545E-02
 -0.49014190E-02  0.32243656E-02  0.63075306E-02
  0.24737825E-02  0.14043201E-03 -0.89949088E-03
  0.21219114E-02 -0.28660893E-02  0.15252702E-02
 -0.68052018E-02  0.32698747E-02 -0.22196395E-02
  0.12089186E-02  0.45358487E-02  0.49522663E-02
 -0.69741840E-02  0.10725556E-01  0.25279667E-02
  0.46976039E-03 -0.30030963E-02 -0.61457951E-02
  0.47178909E-02  0.24804685E-02 -0.94255361E-02
 -0.29391573E-02  0.56127549E-03  0.87688696E-02
  0.43731871E-02  0.34434134E-02 -0.38817007E-03
 -0.73661759E-03 -0.38158123E-02 -0.97970219E-02
 -0.49519381E-02  0.10925625E-02  0.91116337E-02
 -0.10452619E-01  0.56171454E-02 -0.14093035E-02
  0.52704179E-02 -0.12951833E-02  0.34733587E-02
  0.14514089E-02 -0.13904716E-02 -0.36248990E-02
  0.40577196E-02 -0.39063096E-02 -0.49758170E-02
 -0.30388631E-02  0.32147433E-02 -0.27952254E-02
 -0.44410714E-02 -0.13507858E-02 -0.41503481E-02
  0.29082913E-02 -0.17870958E-02  0.87271168E-02
 -0.44588763E-02  0.84960313E-03  0.28432388E-02
  0.13899550E-02  0.17260461E-02  0.22764230E-03
  0.37096134E-02 -0.81151771E-02 -0.91721876E-02
 -0.37095918E-02  0.33398053E-03 -0.75018365E-03
 -0.98566066E-02 -0.21626426E-03  0.38347143E-02
  0.30993833E-03 -0.14468825E-02 -0.43861282E-02
  0.10306572E-03  0.96766927E-02  0.98725525E-03
  0.10360229E-02  0.24180108E-02  0.44878379E-02
 -0.10323370E-02  0.14466458E-02  0.22461465E-04
 -0.24385593E-02 -0.21703354E-02  0.20069786E-02
 -0.21508751E-02 -0.35802747E-02 -0.32810855E-02
  0.12518174E-02 -0.57149023E-03 -0.46854297E-03
 -0.17810279E-02 -0.19082894E-02 -0.20942662E-02
  0.32645421E-02 -0.37209773E-02  0.25468785E-02
 -0.26134416E-03  0.30074274E-02  0.31656967E-02
 -0.29600069E-02  0.22987883E-02 -0.60425489E-04
 -0.36983568E-02 -0.11990367E-02  0.87946113E-03
  0.90164224E-03 -0.61044758E-03  0.48263816E-02
  0.29489588E-02  0.44026072E-03  0.15558087E-02
  0.43144274E-02  0.99044739E-03 -0.12953060E-02
  0.46550919E-02 -0.47889870E-02  0.30766965E-02
  0.14814366E-02 -0.40312155E-03 -0.42939255E-03
  0.81576595E-02 -0.35716131E-02  0.35478915E-02
 -0.11857485E-02 -0.25149112E-02 -0.17827816E-02
  0.79360868E-03 -0.60524628E-03 -0.87350508E-03
  0.53630530E-02  0.99292596E-03 -0.48767023E-02
 -0.39586590E-02 -0.49785970E-03  0.27039615E-02
 -0.22475318E-02  0.89186623E-04  0.65611272E-02
  0.92647266E-03  0.39746128E-02  0.32813830E-02
  0.47741843E-02 -0.23577139E-02 -0.51557280E-03
 -0.32487229E-02  0.38189622E-02  0.44301809E-02
 -0.32400900E-02 -0.68170047E-02 -0.31357762E-03
 -0.10369247E-03  0.68003767E-02  0.46101632E-02
  0.20066952E-02  0.21592385E-02 -0.59516231E-02
 -0.19024901E-02  0.59685907E-03  0.91216106E-02
 -0.51773616E-02 -0.15288015E-02 -0.44063831E-02
  0.48818497E-02 -0.22225760E-02 -0.46717421E-02
 -0.77020014E-03 -0.23627997E-02 -0.22701870E-02
 -0.32119211E-02  0.75681003E-03  0.72511882E-03
 -0.27887897E-02 -0.99405637E-03 -0.54479931E-02
 -0.19395950E-02 -0.51333900E-03  0.32789450E-02
  0.26881739E-02  0.61466236E-02 -0.23130925E-02
 -0.34563694E-02  0.52506639E-02 -0.49078493E-02
 -0.57333600E-03 -0.63077599E-02  0.91516279E-02
  0.10867817E-02  0.31711470E-02 -0.20352561E-02
  0.17082463E-02  0.83286839E-02  0.15028570E-02
 -0.25250330E-03  0.22454301E-02 -0.12959787E-02
  0.51185849E-02  0.42186649E-02  0.35409501E-02
 -0.24010031E-02  0.20487290E-02  0.77145011E-02
 -0.34650207E-02  0.17633299E-03 -0.38422830E-02
 -0.34585533E-03  0.14186421E-02 -0.16799268E-02
  0.29037311E-02 -0.50449670E-02  0.31867830E-03
  0.45004472E-02 -0.15078220E-02 -0.39184276E-03
  0.56678614E-02  0.54573226E-02 -0.39983475E-02
 -0.27454133E-02  0.97788821E-03 -0.12288052E-03
  0.73065135E-02  0.81217590E-02  0.11930337E-02
 -0.87504803E-02 -0.23508617E-02  0.20034294E-02
 -0.82440859E-03 -0.76137160E-03  0.16066403E-02
  0.12029283E-02  0.45903363E-02 -0.19707324E-02
 -0.45559980E-02 -0.35162136E-03  0.34717228E-02
 -0.75717364E-03 -0.26218454E-02 -0.12177901E-02
  0.51393168E-03  0.55394352E-02 -0.34209333E-03
  0.22047694E-02  0.34907019E-03 -0.45901886E-03
  0.68077483E-02  0.13075860E-03  0.33297667E-02
 -0.19809686E-03 -0.34233156E-02  0.24614025E-02
  0.54324123E-02 -0.21744554E-02 -0.17479204E-02
  0.15359431E-02  0.75648460E-02  0.16279103E-02
 -0.75639545E-02 -0.10420492E-02 -0.10270982E-02
  0.13956724E-03  0.16107490E-02  0.61074988E-02
  0.23676779E-02  0.67734680E-03 -0.44591926E-02
  0.37429707E-02  0.26758224E-03  0.35764381E-02
 -0.13285946E-02 -0.99022790E-02  0.14815281E-02
 -0.49223697E-03 -0.60757049E-02  0.30465460E-02
  0.19486927E-02  0.32743732E-02  0.48365131E-02
 -0.26744257E-02  0.50916554E-02  0.40788650E-02
 -0.25410625E-02  0.36309845E-02  0.74699133E-02
 -0.25092199E-02  0.36049736E-02  0.26089320E-02
 -0.22238452E-02 -0.80559505E-02  0.21227249E-02
  0.98012500E-02 -0.47555952E-02  0.60227645E-02
  0.18697839E-06  0.23866103E-02 -0.56707574E-02
 -0.12330367E-02 -0.47507876E-02 -0.50905378E-02
 -0.34132446E-02 -0.20383825E-02 -0.39188424E-02
  0.24999223E-02  0.16790874E-02  0.25413200E-02
 -0.15796695E-01 -0.31222983E-02  0.55160018E-03
  0.66681483E-02 -0.28056156E-02 -0.14099516E-02
  0.13072735E-02  0.26093145E-02 -0.19489204E-03
 -0.40204151E-02  0.39762362E-02 -0.34431891E-02
  0.36583864E-02 -0.98658678E-04 -0.43806044E-03
 -0.12687866E-02  0.28623534E-02 -0.10392576E-02
 -0.58844965E-02 -0.11916891E-02 -0.46933344E-02
 -0.31902120E-03 -0.83896431E-03 -0.17998479E-02
 -0.44137040E-02  0.30852293E-02  0.71033444E-02
  0.28725288E-03 -0.87472073E-03 -0.15691611E-02
  0.55451838E-02  0.31195517E-02 -0.27934965E-02
  0.52168290E-02 -0.47239905E-02  0.46126064E-02
  0.51370466E-02 -0.83283566E-03  0.61194357E-02
  0.12897185E-02 -0.83843569E-03 -0.19744558E-02
  0.38529962E-03 -0.38241084E-03  0.22278335E-02
 -0.18214578E-02 -0.37636088E-02  0.43143594E-02
  0.10054953E-01  0.67953903E-02  0.40857666E-03
  0.55896756E-02  0.16330447E-02 -0.12353468E-02
  0.13853148E-02  0.28814217E-02 -0.45695560E-02
  0.11941305E-02 -0.18428939E-02  0.29048565E-02
 -0.37894536E-02 -0.12751213E-02 -0.77857959E-02
  0.71346154E-02  0.38804339E-02  0.21276210E-02
  0.63192288E-02  0.24518335E-03 -0.16047294E-02
  0.22596438E-02 -0.41761890E-02 -0.12202915E-02
 -0.47366439E-03  0.24989665E-02 -0.45164412E-02
 -0.14321413E-02 -0.17996301E-02  0.53277413E-02
 -0.67372039E-02 -0.47924960E-02 -0.11018171E-02
  0.39930608E-03  0.16255065E-02  0.28331809E-02
 -0.65721167E-02  0.31278145E-03  0.15569511E-02
 -0.43986546E-02 -0.17001876E-02 -0.55702315E-02
  0.75720155E-03  0.23559836E-02 -0.77872837E-03
 -0.48303776E-02 -0.12570613E-02  0.50674878E-02
  0.20778759E-02 -0.74936908E-02 -0.33230531E-03
 -0.25313273E-02  0.51692784E-02 -0.52730168E-02
  0.49206397E-03  0.44414611E-02 -0.17259070E-02
 -0.21262197E-02 -0.23207346E-02 -0.18450456E-02
  0.27902573E-02 -0.79465727E-02  0.54159558E-03
  0.73247838E-03  0.44448596E-02  0.33221234E-03
  0.10623049E-02  0.22695989E-02  0.35998357E-02
  0.11552511E-01  0.41115244E-02  0.11662724E-03
  0.15925580E-02 -0.54150909E-02 -0.62122918E-02
  0.27534204E-02 -0.31726105E-02 -0.32308711E-02
 -0.40632306E-02 -0.68237025E-02  0.70949025E-02
  0.56782534E-02  0.53439575E-02 -0.53021304E-03
 -0.77173488E-02 -0.31637101E-02  0.14857641E-02
 
           1
   2.00000000000000     
  0.11547611E+01  0.21045032E-02  0.00000000E+00  0.00000000E+00
  0.99842734E+00  0.98150583E+00  0.13674370E+00
  0.53136417E+00  0.51348659E+00  0.74076689E+00
  0.25309801E+00  0.49999280E+00  0.86441980E+00
  0.12077879E-01  0.25627844E-01  0.60493435E+00
  0.71525812E+00  0.38170626E-01  0.86217798E+00
  0.96475119E+00  0.58246103E+00  0.38373412E+00
  0.93580973E+00  0.48898050E+00  0.14283013E+00
  0.22184226E+00  0.23330768E+00  0.19718992E-01
  0.71907442E+00  0.96545909E+00  0.62040733E+00
  0.72527332E+00  0.25582418E+00  0.75871497E+00
  0.75802624E+00  0.72319190E+00  0.37488772E+00
  0.24606834E+00  0.23644610E+00  0.88359658E+00
  0.73223228E+00  0.25697992E+00  0.15610050E+00
  0.19157622E+00  0.59463650E+00  0.63261728E+00
  0.96785881E+00  0.23177961E-01  0.87690512E+00
  0.75157671E+00  0.99453640E+00  0.36933125E+00
  0.24946728E+00  0.96693340E-02  0.63207101E+00
  0.43708065E+00  0.50631548E+00  0.62086793E+00
  0.47513711E+00  0.91865818E-01  0.28420186E-01
  0.98843066E+00  0.52755281E+00  0.86802887E+00
  0.50863691E+00  0.76785405E-02  0.37082417E+00
  0.26531589E+00  0.96893882E+00  0.38267042E+00
  0.68437453E+00  0.60928724E+00  0.88591506E+00
  0.47112416E+00  0.48100919E+00  0.49840041E+00
  0.22001321E+00  0.47376097E+00  0.11255394E+00
  0.19985967E+00  0.23871036E+00  0.48613649E+00
  0.72026841E+00  0.53718052E+00  0.13142022E+00
  0.75244927E+00  0.22104935E+00  0.62167593E+00
  0.47195869E+00  0.73979109E+00  0.51839689E+00
  0.76186891E+00  0.80228782E+00  0.99929968E+00
  0.98388359E+00  0.73562996E-01  0.47531933E+00
  0.17236021E+00  0.76521486E+00  0.70356900E+00
  0.19407434E-01  0.68067559E+00  0.22523133E+00
  0.48803160E+00  0.29034138E+00  0.74850730E+00
  0.98304841E+00  0.15360709E-01  0.18108779E-01
  0.48660295E+00  0.23120133E+00  0.47642050E+00
  0.50116419E+00  0.73662968E+00  0.28256488E-02
  0.76585970E+00  0.26053726E+00  0.26914834E+00
  0.72123384E+00  0.77464542E+00  0.85249727E+00
  0.50426803E+00  0.76621635E+00  0.25024746E+00
  0.25264094E-01  0.95128205E+00  0.24284235E+00
  0.47198181E+00  0.49884664E+00  0.88053378E+00
  0.42976249E+00  0.75192059E+00  0.74760904E+00
  0.99518213E+00  0.42073344E+00  0.27418089E+00
  0.45021405E+00  0.45266442E+00  0.64554343E-02
  0.72188087E+00  0.69626659E+00  0.49008350E+00
  0.21392647E+00  0.75596085E+00  0.48949552E+00
  0.69508829E+00  0.28347431E+00  0.64125608E-02
  0.96290136E+00  0.99832523E+00  0.72319245E+00
  0.75087013E+00  0.40803361E+00  0.37573272E+00
  0.39278798E-02  0.50603232E+00  0.74729240E+00
  0.52409812E+00  0.72745068E-02  0.24320011E+00
  0.17756000E+00  0.43797221E+00  0.36260836E+00
  0.45694264E-02  0.73862931E+00  0.99296444E+00
  0.96701736E+00  0.46477585E+00  0.62100469E+00
  0.24987225E+00  0.73675573E+00  0.98147423E+00
  0.95488958E+00  0.25650856E+00  0.89859072E-02
  0.44981429E+00  0.46575795E+00  0.37733124E+00
  0.46459546E+00  0.49319356E+00  0.24628275E+00
  0.96253602E+00  0.47443407E+00  0.49794069E+00
  0.47115589E+00  0.20171567E-01  0.74834402E+00
  0.96767175E+00  0.80542410E+00  0.49500267E+00
  0.96858727E+00  0.49980514E+00  0.99086955E+00
  0.47123033E+00  0.97512012E+00  0.49387979E+00
  0.50440558E+00  0.23018394E+00  0.25755495E+00
  0.70195032E+00  0.79501972E+00  0.12469605E+00
  0.27941579E+00  0.71995207E+00  0.10400634E+00
  0.97585189E+00  0.23969035E+00  0.75059570E+00
  0.74552888E+00  0.74546767E+00  0.24742328E+00
  0.26579187E+00  0.28898733E+00  0.74419145E+00
  0.17221680E+00  0.19456386E+00  0.29986480E+00
  0.84041278E+00  0.74627933E+00  0.73737999E+00
  0.22592143E+00  0.25075040E+00  0.17613631E+00
  0.47378669E+00  0.99921214E+00  0.62478558E+00
  0.72556852E+00  0.28869629E+00  0.89687266E+00
  0.21074466E+00  0.75141098E+00  0.36978610E+00
  0.21582777E+00  0.77289425E+00  0.83898267E+00
  0.98899466E+00  0.19791089E-02  0.36972700E+00
  0.73633989E+00  0.33771838E-01  0.11844903E+00
  0.69584210E+00  0.44228811E+00  0.62395415E+00
  0.48947056E+00  0.95906411E+00  0.93898846E+00
  0.26396692E+00  0.72298713E+00  0.25246755E+00
  0.73111028E+00  0.75311926E+00  0.61895314E+00
  0.29171801E+00  0.97819801E+00  0.12618138E+00
  0.22076110E+00  0.28971372E+00  0.61289414E+00
  0.48492890E+00  0.52695584E+00  0.12727079E+00
  0.20517196E+00  0.29527992E-02  0.87871576E+00
  0.71282954E+00  0.20930561E+00  0.49978117E+00
  0.26208892E+00  0.98932046E+00  0.25191932E+00
  0.76211064E+00  0.51316260E+00  0.75604318E+00
  0.21604028E+00  0.34395155E-01  0.75931729E+00
  0.69920114E+00  0.50055909E+00  0.25046749E+00
  0.22243788E+00  0.97940643E+00  0.10963303E-01
  0.71779551E+00  0.46521899E+00  0.50584678E+00
  0.23477525E+00  0.98955055E+00  0.50104984E+00
  0.72446437E+00  0.55330662E+00  0.57457702E-02
  0.71290589E+00  0.99581666E+00  0.73975418E+00
  0.21022726E+00  0.47489622E+00  0.24122529E+00
  0.25429957E+00  0.51752936E+00  0.73566509E+00
  0.77139040E+00  0.99346284E+00  0.24005312E+00
  0.23371977E+00  0.50659849E+00  0.50089304E+00
  0.73337022E+00  0.42099725E-01  0.99054619E+00
  0.72473858E+00  0.94873217E+00  0.48789868E+00
  0.21954188E+00  0.48419004E+00  0.99135753E+00
  0.97930193E+00  0.24257241E+00  0.37270058E+00
  0.47484425E+00  0.74754654E+00  0.85539221E+00
  0.48890662E+00  0.25068822E+00  0.62093399E+00
  0.14105947E-02  0.74579036E+00  0.11086960E+00
  0.99136028E+00  0.26831408E+00  0.87698010E+00
  0.49040248E+00  0.74485084E+00  0.37767283E+00
  0.96918550E+00  0.74720978E+00  0.61319279E+00
  0.47613446E+00  0.25373636E+00  0.12794296E+00
  0.11580729E+00  0.39956076E+00  0.38639814E-01
  0.63419340E+00  0.85127633E+00  0.54446440E+00
  0.63757204E+00  0.13757550E+00  0.94166673E+00
  0.14543788E+00  0.58968016E+00  0.43722872E+00
  0.33196231E+00  0.39604656E+00  0.94726597E+00
  0.82433374E+00  0.87365619E+00  0.43508089E+00
  0.82410793E+00  0.14878272E+00  0.44249842E-01
  0.34007950E+00  0.59808803E+00  0.54360261E+00
  0.87045300E+00  0.88727841E-01  0.19932158E+00
  0.34538620E+00  0.62032537E+00  0.68740412E+00
  0.86483701E+00  0.88806506E+00  0.29043231E+00
  0.35820855E+00  0.43531139E+00  0.78740980E+00
  0.13094152E+00  0.58118215E+00  0.29750984E+00
  0.61478664E+00  0.10986202E+00  0.78572095E+00
  0.97061613E-01  0.40775742E+00  0.18623836E+00
  0.62527178E+00  0.87310434E+00  0.69355634E+00
  0.83103999E+00  0.62838953E+00  0.95089850E+00
  0.32242584E+00  0.10251056E+00  0.45393861E+00
  0.81958034E+00  0.37757307E+00  0.55898825E+00
  0.34173216E+00  0.88239377E+00  0.38242623E-01
  0.13453124E+00  0.94266473E-01  0.54778722E+00
  0.62106652E+00  0.63516864E+00  0.56529602E-01
  0.11571150E+00  0.90669043E+00  0.95796491E+00
  0.62722882E+00  0.37452181E+00  0.45537945E+00