Na88 Ge16 P8 S96                        
   1.00000000000000     
    13.3422163233000006    0.0000000000000000    0.0000000000000000
     0.0000000000000000   13.3422163233000006    0.0000000000000000
     0.0000000000000000    0.0000000000000000   26.6844326466999995
   Na   Ge   P    S 
    88    16     8    96
Direct
  0.9741125253094368  0.9778913281064550  0.2655201932828407
  0.4924195631088588  0.5119856368749568  0.6251797300838179
  0.4989764288090894  0.5440535267330665  0.7570412495774541
  0.9643600767218617  0.1494242988839393  0.4754537389439293
  0.5146777296636010  0.0349354153485847  0.8734050128707712
  0.2468917978077419  0.6980617137673704  0.4986394938582508
  0.0087601066635183  0.4771664442832509  0.9934801119482475
  0.2388417160089800  0.2600850167465812  0.3493989490879099
  0.7935145257447662  0.0274844651034530  0.6331333177116352
  0.7430004701060186  0.2342757591185051  0.8949128286782426
  0.7536586219159495  0.9672977158735139  0.3959662837764649
  0.2192071037586765  0.7595318372825930  0.7418867758118556
  0.7787298210352268  0.2261893182364771  0.1324302986214413
  0.2869968925058363  0.7098352427764223  0.6312153569674644
  0.0231768692308015  0.9852217949137841  0.9967659460672060
  0.4924587139714069  0.4672957602408440  0.3898702811203753
  0.9945247602844138  0.9117000296068205  0.5597019102283518
  0.0168191981443962  0.4991384362038558  0.5629967389867920
  0.9919699537710975  0.9929730961030494  0.1123329525659902
  0.0073907256291225  0.5223637888461319  0.8743985251616392
  0.4909051600787747  0.0118259826161795  0.3772061989546439
  0.2470389839045548  0.9503263732237321  0.3706392953947619
  0.7378538627674271  0.5085584331933291  0.8636675780917045
  0.7820536475907147  0.5262112429221231  0.6129309096919832
  0.3022233809737522  0.4427541567310782  0.1348696301794631
  0.2751210724640241  0.2626753713986289  0.6308463669588042
  0.4739861339892911  0.7660739058529351  0.2481407250691781
  0.2519682107422677  0.2091412030070041  0.4946859129552872
  0.5057304289569088  0.7453214273988097  0.5096487515674253
  0.2451714996259421  0.0758256269533506  0.1257253155617885
  0.2339273388056569  0.4771814341962941  0.3813395916261074
  0.4936753326270802  0.0131999464340426  0.6274474119609464
  0.9260266007118183  0.7471124961965299  0.2374096506251752
  0.4965636955579579  0.2698301013399496  0.7519970528167551
  0.0251626411029631  0.7378153312139561  0.9809664217528176
  0.7536655107835328  0.2672539018827078  0.4958118637379333
  0.5094992540726859  0.9075371250125810  0.9672024856732478
  0.9479086762939209  0.2244954318743781  0.2219237331987467
  0.0533277860987146  0.0117033327949563  0.7419895715820877
  0.4401507015166933  0.0139222811054483  0.2648348215545105
  0.0330521344326142  0.9382040665343694  0.4009279845776972
  0.5033534858767140  0.7126782708642073  0.0313292661585891
  0.5326837302871253  0.9519610524663537  0.7706026725845027
  0.0284175596808957  0.4916022451434790  0.1387164560428904
  0.2270760242426250  0.0339300261936958  0.8785087015648680
  0.7482065607187137  0.7626775151713417  0.5076145918442647
  0.9879251938582351  0.7082134837632419  0.4835897858655788
  0.5177940471747190  0.2198009049898798  0.9703264909838331
  0.0189007197556846  0.9718723993624336  0.8645604473489941
  0.4874919784355710  0.4993345103961076  0.2465237751659941
  0.9995134990333906  0.5025469055815468  0.7392763602166919
  0.4679588481182547  0.9666730724228901  0.1302349657215039
  0.5247523381855155  0.2503751469492421  0.4887776888826523
  0.7588701985039700  0.6936163361948305  0.0002912422751105
  0.7837751944057830  0.2894703824892805  0.6140518741512736
  0.2374290030889465  0.7531730681333968  0.0064541085278842
  0.7316856909020628  0.9903386333908513  0.1303673959673317
  0.5038966903165484  0.4840055893383184  0.5186408428982043
  0.4846877995266069  0.4528504754439613  0.8833696958067867
  0.0078812023833829  0.4522403215128532  0.2499726545422209
  0.7830976761973261  0.2384024534447350  0.7828089805330825
  0.9745040172242027  0.4755804292312009  0.4413105921547385
  0.7305803626091928  0.1993248170430842  0.0124794669584540
  0.4950281972912424  0.9785057211663818  0.5119701369947965
  0.5977560512869596  0.2157195526681815  0.2367511227702999
  0.7903302646695629  0.7527408923590061  0.8618812445045472
  0.2459813371522206  0.7199137534470653  0.1285941989332954
  0.0369661587673566  0.2384768237180225  0.7185646810439318
  0.7081103435507923  0.7212718779373132  0.2776690302134229
  0.2395890273484492  0.2588650466584175  0.7776767013553666
  0.2590004384535288  0.2085578921708911  0.2304013793481148
  0.9607441812198366  0.7218597196436028  0.7586425838257060
  0.5254729448326412  0.4226986529256380  0.0449614226258693
  0.6836364646877295  0.7587182288678838  0.6201887571798177
  0.7703205032201653  0.9745215564458418  0.8804888632422262
  0.2171144658701425  0.7208241304819516  0.3652207336949856
  0.2941116539082995  0.7782350542894887  0.8550307701276051
  0.7720698068412412  0.2298439741329852  0.3097465050652393
  0.7285185611463055  0.7221101420012924  0.1132462356604299
  0.2520340443368300  0.4844487428401872  0.6403582597712361
  0.9794120232422513  0.2601153214637962  0.0125171462557163
  0.2130739767383004  0.7288901818026807  0.2428773383043040
  0.6521564624531879  0.7415063196846794  0.7455948869078870
  0.2466235824307350  0.2533451709168463  0.9942311408951222
  0.1919376746016036  0.9728387319125068  0.6263090221647810
  0.7924652822632449  0.5138980176818533  0.1208110274062379
  0.2584932332254058  0.4970730871286400  0.8871347803385903
  0.7262967351497778  0.5122872525151853  0.3587975665614065
  0.2142836058662448  0.9678574879599714  0.2517549673461186
  0.7334192931222054  0.4757608617584362  0.7457809062125103
  0.2839350101101739  0.0003547413008208  0.7391444299399844
  0.7621309708508467  0.4945361310384233  0.2313847887955549
  0.2537699857991622  0.9875273459274237  0.9951775489933037
  0.7551674865279139  0.5184753080345255  0.4919439407904088
  0.2321255132577219  0.9688164019775212  0.4954501366442708
  0.7618791092680843  0.4539570965632931  0.9997493935236229
  0.7795257430269328  0.9938807330108351  0.7564166579849847
  0.2653063092935116  0.4788435571242774  0.2529314022753742
  0.2477864566508127  0.5048608312485011  0.7575266797970188
  0.6828982851991596  0.9723656985564415  0.2498372162849669
  0.2613798357256055  0.4526836502709972  0.5156227048498394
  0.7740366985162419  0.9425837067209050  0.0003383288732322
  0.7451028291281208  0.0071331635894947  0.5061553606786175
  0.2605648717486234  0.5006024671572361  0.0050832967840498
  0.9623346351295531  0.2569880872708650  0.3748683594072143
  0.5247000810641568  0.7190287493976382  0.8811823127741417
  0.5207060778309659  0.2508811996614815  0.6219615274045956
  0.9850309678416912  0.7533913100976125  0.1177345435550925
  0.9895191578104440  0.2521913774571125  0.8767795418820257
  0.4758842010545897  0.7375767280972867  0.3767154686611329
  0.0102365599406063  0.7483091533996603  0.6281698065367131
  0.4924043297680458  0.2432052772528109  0.1256275895020411
  0.1452172029346933  0.4023488813459323  0.0514111173602022
  0.6492757025844033  0.9140892593531441  0.5560394330167416
  0.6401506304189933  0.0468025681344769  0.9625956565642563
  0.1478512774713447  0.5344666565448624  0.4709952696890450
  0.3782085329300899  0.4207158236793412  0.9649343589819817
  0.8632529621768573  0.9167236616045008  0.4699940027001411
  0.8573069607850582  0.0574273576709643  0.0500906608990713
  0.3372037278759130  0.5806227459318266  0.5598210406369654
  0.7838231957716670  0.0902206378477770  0.2125043327591501
  0.3525433486718768  0.5806391751741535  0.7087910902174051
  0.8066585703958791  0.8818411405650221  0.3004976975776474
  0.3396914296144001  0.4211870866261214  0.8074154891887947
  0.1300798016113388  0.5523624063876837  0.3035403486643674
  0.6826522497983857  0.0809527277486459  0.8137364940401687
  0.1739552909981687  0.3709668527965123  0.2013838147728538
  0.6894362213245371  0.9024172604116198  0.6975819460526086
  0.8613749114342568  0.5397051259306357  0.9496931695147665
  0.3126298247108124  0.0642752489803779  0.4474232705324400
  0.8525893968661810  0.4089886162444842  0.5354828786216206
  0.3673628604030488  0.8972646262938400  0.0441442773870580
  0.1221106467591066  0.0582943393990050  0.5364651056066015
  0.6588452688842449  0.5637481035180480  0.0411564297006665
  0.1817453656603746  0.8952679431945972  0.9373389558919543
  0.6509834756729592  0.4135501145525164  0.4490986234164250
  0.6672208633564916  0.3943866960060521  0.2799350399099634
  0.1936475040216568  0.9064687710153557  0.7968633142619077
  0.1966425266566065  0.1103718684868876  0.6953261525443024
  0.6558486523599837  0.5974722257505066  0.1885124804728698
  0.8513909754001439  0.3947211489149278  0.7072613766836202
  0.3345937793179489  0.8868942755803185  0.2070867684738678
  0.2876224103090900  0.0784032693371472  0.3017049051243496
  0.8052383521713795  0.6107371598143370  0.7815111356599016
  0.1519269671372363  0.0921642927457483  0.0411309797195750
  0.6413564091802841  0.6064641687784137  0.5399426037389971
  0.6436994047081435  0.3620824323722816  0.9564116059229785
  0.1529499320476449  0.8341361394671065  0.4506820528643410
  0.3456006155736817  0.1034685047586029  0.9521049872191309
  0.8344986343833465  0.6276943028720816  0.4381550734281072
  0.8390187913401770  0.3587124681911962  0.0525786306237279
  0.3259818115049449  0.9005663016101065  0.5608450571321207
  0.1028881445516439  0.0636393550385245  0.2023195373551107
  0.6512750203161487  0.5536366727188604  0.6847561280511915
  0.1291020691381944  0.8730232933399413  0.3043200777492501
  0.6223539655691891  0.3831335814699494  0.7977222549700662
  0.8605721741924025  0.5847529182028155  0.2813197580911459
  0.3783498300113787  0.0906678691830702  0.7894356034637313
  0.8700036052192260  0.3937848976780914  0.1860896200545734
  0.3567143858684866  0.9021016090629765  0.6815345556917454
  0.8769009867613504  0.8638829910989685  0.9542189499152681
  0.3653884945579575  0.3572567909751506  0.4637814167434893
  0.8386733249600536  0.1256584897878385  0.5426553637079725
  0.3468120069295886  0.5973384428517630  0.0592647160076245
  0.1528225057799351  0.3448232591891625  0.5578728199734191
  0.6492547704453069  0.8431991832902055  0.0471429422073665
  0.1514184813917106  0.6032285009501335  0.9627226365642211
  0.6316776248428035  0.0802257719649974  0.4578441876749583
  0.3671082636468026  0.4017873447541507  0.3059153954888264
  0.8775249580031651  0.8972984656384474  0.8071767401956299
  0.8699435278687296  0.1042056895449212  0.7146729640234722
  0.3509887419139560  0.5936545126979258  0.2129560981295996
  0.1672398753465609  0.3949923595196546  0.7091695597466396
  0.5877230845508356  0.8971276908095870  0.2005056426009623
  0.6216295535278217  0.0757994298872206  0.3090558800989998
  0.1536433095123065  0.6183326691118943  0.8061844395337753
  0.0796517787720515  0.2868236210994564  0.4235099687648877
  0.5844994985406295  0.8472844407134551  0.8516667029220404
  0.5823901731447506  0.3395979327577299  0.5728694072879355
  0.0873191377440841  0.8099010164073394  0.0652869984648909
  0.4331404671787784  0.3384245054321556  0.6694438787278513
  0.8825895788116042  0.8468316220235538  0.1482847440481440
  0.9223798409749182  0.0926772494573538  0.3811877331905862
  0.4444060003421465  0.6496953506807516  0.8271632711695961
  0.0861239351343976  0.3443039031601190  0.9154443132209485
  0.3864282829784648  0.6480001322020041  0.4215968779046843
  0.0576025571681422  0.6437550078718833  0.6760589041639213
  0.5818008276049981  0.1398642305514169  0.0893256566394871
  0.1088858256430896  0.7231019518385701  0.5747553811725152
  0.4266209820171046  0.1537371293641205  0.1819476279786657
  0.9002382399249910  0.1447707474689711  0.9176275739664389
  0.3743813664243660  0.8173720091725136  0.3327213716830583
  0.9931789302871826  0.8793218030561846  0.6668129879217363
  0.3861422089032783  0.3049347362303854  0.0739827733066200
  0.0710515979641162  0.1580348602343372  0.8271628096203643
  0.5542317506340392  0.6493144855313978  0.3320029655043889
  0.8910531755368251  0.3536218228942682  0.8483182268940939
  0.5632421598520121  0.8372927674206375  0.4092896103273892
  0.8803349205098605  0.7140385727894882  0.5950995127434627
  0.5939856322646325  0.3545789281736383  0.1561680382670731
  0.4165981424665890  0.1755467769620613  0.5778438393568134
  0.8999085724359593  0.6473671205349452  0.0797123098458694
  0.8377490647088569  0.3299556893281582  0.4072093460248701
  0.6376246051401820  0.6459826094399271  0.9166228688148977
  0.9863654518760321  0.2931263833456623  0.3040368621712636
  0.4247804049466074  0.7448294223976277  0.9389573165455054
  0.6230178541006142  0.1558449491641365  0.6534359578061961
  0.0653302999520649  0.6679594598861524  0.1658463042811209
 
 -0.12223333E-01 -0.63921041E-02  0.37014168E-02
 -0.27736889E-02 -0.33914675E-02 -0.48194790E-02
 -0.27757829E-02 -0.46611361E-02  0.39682548E-03
  0.71371609E-02 -0.39217638E-02  0.22013710E-02
 -0.74486481E-02 -0.65175387E-02  0.25999141E-02
 -0.10791428E-02  0.60869326E-02 -0.25193472E-03
  0.66066374E-02 -0.62478203E-02 -0.48825567E-02
  0.33215196E-03 -0.35478521E-02 -0.38701049E-02
 -0.25844592E-02 -0.29556474E-02  0.15828539E-02
 -0.25826629E-02  0.30587664E-02  0.12428657E-02
 -0.14601720E-02  0.34725988E-02  0.55288481E-02
 -0.17162972E-03 -0.18707555E-02  0.16250122E-03
 -0.19425770E-02  0.22164940E-02  0.40689078E-02
 -0.16912398E-04 -0.11968102E-03 -0.39859347E-02
 -0.15361986E-01  0.39166826E-03  0.11325178E-01
 -0.22834203E-02 -0.86074993E-02 -0.66742696E-03
  0.10166927E-01 -0.14015144E-02  0.70631211E-02
 -0.25079972E-02 -0.18900365E-02  0.59434760E-02
  0.26663839E-02  0.74390026E-02  0.20891622E-02
 -0.48533486E-02  0.20175351E-02  0.30766685E-02
 -0.46605432E-02 -0.10642009E-01  0.39075193E-02
 -0.12872717E-02 -0.74413348E-02  0.86386812E-02
  0.46184572E-02 -0.15127018E-01 -0.81300346E-02
  0.63032809E-02 -0.42810796E-02 -0.59542554E-02
 -0.43789727E-02  0.37689369E-02 -0.23950183E-02
 -0.10693971E-02 -0.27445497E-02  0.10466864E-02
  0.17412079E-02 -0.66006050E-03  0.60975693E-03
  0.70685806E-02  0.26787932E-02 -0.15967214E-02
 -0.78927709E-03  0.62486810E-02 -0.99754824E-02
  0.52602813E-02 -0.11114896E-02 -0.44524112E-02
  0.23836556E-02 -0.87039841E-03 -0.10218180E-01
  0.78339540E-02  0.24870889E-02 -0.32026746E-02
  0.66824297E-03  0.73287403E-02  0.67159060E-02
 -0.82710159E-03 -0.92952131E-03 -0.91184350E-02
 -0.45813401E-03 -0.37274550E-02  0.77642244E-03
  0.13969009E-02 -0.27813521E-02 -0.40799863E-03
  0.20521807E-02 -0.82161647E-02  0.72751161E-02
  0.51609095E-02  0.16783769E-02 -0.16701540E-02
  0.36722987E-02 -0.37653960E-02 -0.83379369E-02
 -0.19960193E-02  0.64022975E-02  0.14427221E-02
  0.11655543E-01 -0.47671494E-03 -0.72260748E-02
 -0.11984578E-02  0.64204199E-02 -0.39029197E-02
  0.10372805E-01 -0.42460538E-02 -0.54169367E-03
 -0.86914059E-02  0.85120733E-02 -0.11366341E-01
  0.12651608E-01 -0.60885934E-04  0.27137427E-02
 -0.50324171E-02  0.70313270E-02  0.87480473E-03
  0.37086434E-02 -0.22110794E-02 -0.48789800E-02
 -0.68059261E-02  0.12889915E-01 -0.10433414E-01
 -0.22006410E-02 -0.23363177E-03 -0.24581137E-02
 -0.10614532E-01  0.82981362E-02 -0.50952202E-02
  0.22511136E-02 -0.16472131E-02 -0.85636124E-02
  0.32416070E-02 -0.35570498E-02 -0.82312239E-02
 -0.15503724E-02  0.11567355E-02  0.13186152E-02
  0.32493806E-02  0.23631175E-02 -0.18279040E-02
  0.46268486E-02  0.78223224E-02 -0.49775964E-02
  0.27769710E-02  0.26944439E-02  0.24843202E-02
 -0.13599888E-01  0.10449997E-01  0.53985685E-02
 -0.11252185E-01  0.15524546E-02  0.33371312E-02
  0.50091055E-03  0.11405884E-01  0.55112875E-02
  0.44505288E-02  0.66027030E-02  0.18203747E-02
  0.42730763E-02  0.21769757E-02 -0.36942208E-02
 -0.48596037E-02 -0.51610060E-02  0.17651420E-02
  0.97143700E-02 -0.54166629E-02  0.39822526E-02
  0.73358499E-02  0.19946805E-02 -0.36105220E-02
 -0.12400385E-01  0.45871679E-02  0.90523347E-02
 -0.15080547E-02  0.31774765E-02  0.99323371E-02
 -0.63496043E-02  0.57363641E-02 -0.18863191E-03
 -0.20163582E-02  0.40136465E-02 -0.24120680E-02
  0.61239216E-04 -0.62172573E-02 -0.23998240E-02
  0.12494364E-02  0.29401360E-02  0.94693890E-02
  0.49927393E-03 -0.46243929E-03  0.23885074E-02
  0.40078136E-03 -0.53836019E-02 -0.26106677E-02
  0.77585319E-02  0.44056174E-02  0.45603914E-02
  0.58481357E-04 -0.33322060E-02 -0.52832333E-02
  0.26776160E-02 -0.18565984E-02  0.66565261E-02
 -0.19551195E-02 -0.93156306E-02 -0.64136367E-03
  0.29626625E-02 -0.46044611E-02  0.69121064E-02
 -0.10676728E-01  0.55647917E-02 -0.40368735E-02
 -0.18464464E-02 -0.67018091E-02  0.22889313E-02
  0.19348532E-02  0.71233017E-03  0.61360501E-02
  0.26738491E-02 -0.59615433E-02  0.10036493E-01
  0.81496538E-02  0.57051638E-02  0.79715730E-02
  0.30640743E-02 -0.20427418E-02  0.49862971E-02
 -0.13154017E-01  0.28099545E-02 -0.71636418E-04
 -0.35393916E-02 -0.37072468E-02 -0.34180350E-02
 -0.13012445E-01 -0.80349711E-02 -0.91543752E-02
  0.19660817E-02  0.86571219E-02 -0.35288760E-02
  0.26750139E-02  0.58782106E-02  0.10448682E-01
  0.10801560E-02  0.62680542E-03 -0.44836839E-03
 -0.10400583E-02 -0.38000943E-02 -0.49391800E-02
  0.38509706E-02 -0.18052578E-02 -0.36656713E-02
  0.45074763E-03 -0.25979426E-02  0.66077068E-03
 -0.80702516E-03 -0.27627602E-02  0.75180950E-02
  0.22623679E-02 -0.39227817E-02  0.14314525E-02
 -0.24273164E-02 -0.16130213E-02 -0.24218641E-02
 -0.18388936E-02 -0.51694964E-03  0.16729201E-02
  0.88697797E-03 -0.12962467E-02  0.49533971E-03
 -0.10403335E-02  0.34076155E-03 -0.24220058E-02
  0.69893019E-02  0.47308533E-03  0.21927618E-02
  0.18782111E-03 -0.15426348E-02 -0.23949330E-02
 -0.50674892E-02  0.31016224E-03 -0.24795166E-02
  0.10835783E-03 -0.54528154E-02 -0.31639029E-02
 -0.39737224E-02  0.43108407E-02  0.21419427E-02
 -0.16955304E-02 -0.15011394E-02  0.73191836E-03
 -0.27714805E-02 -0.36410895E-02  0.36896126E-02
 -0.21611466E-02  0.16578474E-02 -0.31254994E-02
  0.24745974E-02 -0.89094415E-03 -0.60947651E-03
  0.68546145E-02  0.11866344E-02 -0.15158059E-02
 -0.34820272E-03  0.21445166E-02 -0.10830581E-02
 -0.31384331E-02 -0.32302061E-02  0.28815288E-02
 -0.89443716E-02 -0.19766322E-02 -0.16211041E-02
  0.13204226E-02  0.10394463E-01 -0.90473391E-02
 -0.41251319E-02 -0.62870204E-02  0.28830560E-02
  0.17375383E-02 -0.45279848E-02  0.38833727E-02
  0.16929458E-03 -0.70179594E-02 -0.18152677E-02
 -0.99619290E-03 -0.20064867E-02  0.68514952E-03
  0.10706935E-01  0.36896339E-03 -0.11111478E-02
  0.39565704E-02 -0.49918837E-02  0.42572029E-02
  0.47195749E-02  0.73271976E-02 -0.15189185E-02
  0.19782787E-02  0.10565131E-01  0.45904304E-02
 -0.59827084E-02  0.47698285E-02  0.80040250E-03
  0.10796503E-02 -0.44250119E-04 -0.40277927E-02
  0.13211796E-02 -0.54552044E-03 -0.31945298E-02
  0.52544126E-02  0.20658242E-02 -0.75248034E-02
  0.26256568E-02  0.66526495E-03  0.22220647E-02
 -0.73867338E-02 -0.21464531E-02  0.57587654E-02
 -0.89455793E-02 -0.29381120E-02  0.25645416E-02
  0.84174287E-02  0.57777060E-02  0.34441814E-02
  0.25833318E-02  0.54883600E-03  0.72625180E-02
  0.47543787E-02 -0.32956209E-02 -0.40967228E-02
 -0.15103033E-02 -0.41083225E-02 -0.12058088E-02
 -0.84887150E-02  0.94636516E-02  0.13183440E-01
 -0.41681438E-02 -0.40989729E-02  0.15384749E-02
  0.19769917E-02  0.46248714E-02  0.30876187E-02
 -0.26147176E-02  0.26801232E-02 -0.43059367E-02
  0.29451053E-02  0.78877281E-02 -0.97303509E-03
 -0.83012847E-02  0.35003587E-02 -0.85500155E-02
  0.54676840E-02  0.37449223E-03  0.28126295E-02
 -0.72699020E-02 -0.26087415E-02  0.24998934E-02
 -0.14302976E-02 -0.57368710E-02  0.14311890E-02
 -0.50909283E-02  0.54875390E-03  0.35574843E-02
  0.16375476E-02 -0.63260838E-02  0.20358411E-02
  0.27704908E-02  0.64151111E-02  0.12331823E-02
  0.15987469E-02  0.13811826E-02 -0.70128471E-02
  0.52567151E-03  0.21205323E-02  0.22820474E-02
  0.72473822E-02  0.19221861E-02  0.94735397E-02
  0.76833898E-04  0.82565520E-02 -0.39718463E-02
 -0.37169056E-02  0.48851926E-02 -0.20007822E-02
 -0.38769928E-04 -0.36315074E-02 -0.20579024E-02
  0.20286631E-02  0.34158011E-02 -0.33260317E-03
 -0.83134504E-03 -0.29339110E-02 -0.62522019E-03
  0.23873401E-02 -0.18987333E-02  0.31581971E-04
 -0.15206555E-02  0.37653134E-02 -0.21378349E-02
 -0.25638705E-02  0.52815766E-02  0.31293093E-02
 -0.25474668E-02  0.20775156E-02  0.37775321E-02
  0.43695856E-02  0.65369620E-02  0.33203515E-02
 -0.29365791E-02  0.97723287E-03 -0.38303388E-05
  0.76903643E-02  0.40318010E-02 -0.33029186E-02
  0.18439980E-02  0.36709723E-02 -0.33622048E-02
 -0.16916366E-02 -0.65117857E-03 -0.12952033E-02
 -0.37046135E-02 -0.31217595E-02  0.38812072E-02
  0.38743470E-02  0.14954337E-02 -0.88381870E-02
  0.18380475E-03 -0.27252907E-02  0.43807810E-02
  0.20322889E-03 -0.49745670E-02 -0.64661382E-02
  0.38671563E-02 -0.32740142E-02 -0.19761243E-02
  0.40870196E-02 -0.80777804E-03  0.37710289E-02
  0.17710108E-02 -0.29314777E-02  0.69507590E-02
 -0.40400641E-02 -0.78284427E-03 -0.25857634E-02
  0.53806205E-02  0.10107517E-01  0.30029037E-02
  0.28506789E-02  0.52535154E-03 -0.23113318E-02
  0.26706338E-03  0.40256230E-02  0.18713575E-03
 -0.12221545E-02  0.52918043E-02 -0.43766453E-02
  0.16101449E-02  0.28961896E-02 -0.24004033E-02
 -0.86835137E-03 -0.24577308E-02 -0.41844217E-02
 -0.10983213E-02 -0.85083851E-02  0.25088624E-02
  0.88058652E-03 -0.46605235E-02 -0.57826594E-02
 -0.31820815E-02  0.34123367E-02  0.32078444E-02
 -0.37865993E-02  0.39168305E-03 -0.35861423E-02
 -0.42890074E-02  0.27564068E-02 -0.70218731E-02
 -0.26065205E-02 -0.60570921E-03 -0.98884839E-02
  0.40696828E-03  0.67873403E-02 -0.47434397E-02
  0.11443746E-02 -0.51773175E-02  0.12519627E-02
 -0.44897074E-02 -0.17155829E-02 -0.30279454E-02
  0.11295774E-02 -0.16648810E-02  0.25750039E-02
  0.19974889E-02  0.17430150E-02 -0.97672387E-03
 -0.10176460E-01  0.58480589E-03  0.23073607E-02
 -0.19067728E-02  0.10237181E-01  0.44236637E-02
  0.41185595E-02 -0.10412032E-02 -0.10038768E-02
 -0.27708784E-02 -0.34632138E-03 -0.12651362E-02
  0.68877550E-02 -0.91719226E-02  0.15575537E-02
  0.11325663E-02  0.68431822E-03 -0.18712200E-02
  0.50656906E-02  0.12533979E-01  0.73471598E-02
  0.25545932E-02  0.63444205E-03  0.48542075E-02
  0.43498442E-02 -0.45083761E-03  0.87900642E-03
  0.18048518E-02 -0.49734700E-03 -0.38051987E-03
  0.44438744E-02  0.13929420E-02 -0.38173603E-02
 -0.66710327E-02  0.24008056E-02  0.35025479E-02
 -0.19121135E-02  0.31491954E-02 -0.83537926E-03
  0.15177811E-03 -0.86535177E-02 -0.38878950E-02
  0.10016513E-02 -0.72821400E-02 -0.23653042E-02
 -0.19153891E-02 -0.31094915E-02  0.35712722E-02
  0.17960075E-02 -0.29193788E-02 -0.63512086E-02
  0.53465335E-02  0.26170447E-02  0.39863631E-04
 -0.61960138E-03 -0.49732917E-02  0.65720928E-02
  0.16077262E-02  0.26109248E-04  0.40455757E-02
  0.40721498E-02  0.96905813E-03  0.57716814E-03
 -0.76551083E-02 -0.43563232E-02  0.18726797E-02
  0.17135356E-02 -0.16056119E-02  0.59761048E-02
 
           1
   2.00000000000000     
  0.89841189E+00 -0.35017195E-02  0.00000000E+00  0.00000000E+00
  0.97228025E+00  0.97693315E+00  0.26579761E+00
  0.49200379E+00  0.51147726E+00  0.62481851E+00
  0.49856034E+00  0.54335482E+00  0.75707099E+00
  0.96542994E+00  0.14883643E+00  0.47561873E+00
  0.51356118E+00  0.33958435E-01  0.87359988E+00
  0.24673003E+00  0.69897415E+00  0.49862061E+00
  0.97504425E-02  0.47622990E+00  0.99311416E+00
  0.23889151E+00  0.25955319E+00  0.34910888E+00
  0.79312711E+00  0.27041413E-01  0.63325195E+00
  0.74261333E+00  0.23473427E+00  0.89500598E+00
  0.75343974E+00  0.96781826E+00  0.39638067E+00
  0.21918138E+00  0.75925141E+00  0.74189896E+00
  0.77843863E+00  0.22652157E+00  0.13273526E+00
  0.28699436E+00  0.70981730E+00  0.63091661E+00
  0.20874105E-01  0.98528051E+00  0.99761477E+00
  0.49211643E+00  0.46600549E+00  0.38982026E+00
  0.99604878E+00  0.91148994E+00  0.56023129E+00
  0.16443249E-01  0.49885512E+00  0.56344220E+00
  0.99236965E+00  0.99408820E+00  0.11248954E+00
  0.66632080E-02  0.52266622E+00  0.87462912E+00
  0.49020654E+00  0.10230744E-01  0.37749907E+00
  0.24684602E+00  0.94921092E+00  0.37128677E+00
  0.73854617E+00  0.50629089E+00  0.86305823E+00
  0.78299851E+00  0.52556951E+00  0.61248464E+00
  0.30156697E+00  0.44331912E+00  0.13469012E+00
  0.27496077E+00  0.26226396E+00  0.63092482E+00
  0.47424714E+00  0.76597496E+00  0.24818643E+00
  0.25302779E+00  0.20954275E+00  0.49456624E+00
  0.50561212E+00  0.74625811E+00  0.50890109E+00
  0.24596002E+00  0.75659015E-01  0.12539161E+00
  0.23428465E+00  0.47705096E+00  0.38057374E+00
  0.49484964E+00  0.13572761E-01  0.62720737E+00
  0.92612677E+00  0.74821108E+00  0.23791301E+00
  0.49643971E+00  0.26969077E+00  0.75131363E+00
  0.25093967E-01  0.73725659E+00  0.98102461E+00
  0.75387491E+00  0.26683698E+00  0.49578128E+00
  0.50980688E+00  0.90630552E+00  0.96774776E+00
  0.94868230E+00  0.22474702E+00  0.22179856E+00
  0.53878264E-01  0.11138899E-01  0.74136464E+00
  0.43985150E+00  0.14881986E-01  0.26494295E+00
  0.34799302E-01  0.93813261E+00  0.40038639E+00
  0.50317384E+00  0.71364069E+00  0.31036742E-01
  0.53423862E+00  0.95132457E+00  0.77056207E+00
  0.27114717E-01  0.49287821E+00  0.13786455E+00
  0.22897250E+00  0.33920899E-01  0.87871210E+00
  0.74745220E+00  0.76373151E+00  0.50768016E+00
  0.98848112E+00  0.70788204E+00  0.48322411E+00
  0.51677384E+00  0.22173310E+00  0.96954451E+00
  0.18570843E-01  0.97183738E+00  0.86437621E+00
  0.48590086E+00  0.50057840E+00  0.24614189E+00
  0.99985094E+00  0.50229999E+00  0.73863452E+00
  0.46844477E+00  0.96613987E+00  0.12961803E+00
  0.52451994E+00  0.25054854E+00  0.48887652E+00
  0.75935728E+00  0.69397057E+00  0.15424075E-03
  0.78446876E+00  0.29064295E+00  0.61367880E+00
  0.23784527E+00  0.75357697E+00  0.66403085E-02
  0.72964707E+00  0.99190509E+00  0.13077202E+00
  0.50220999E+00  0.48423830E+00  0.51889096E+00
  0.48476289E+00  0.45456022E+00  0.88378277E+00
  0.85483372E-02  0.45323007E+00  0.25010909E+00
  0.78373821E+00  0.23872878E+00  0.78253210E+00
  0.97377556E+00  0.47480679E+00  0.44144289E+00
  0.73203655E+00  0.19851286E+00  0.12777937E-01
  0.49612784E+00  0.97880472E+00  0.51169953E+00
  0.59589723E+00  0.21640717E+00  0.23742960E+00
  0.79010421E+00  0.75321720E+00  0.86262567E+00
  0.24502953E+00  0.72077364E+00  0.12858006E+00
  0.36663906E-01  0.23907847E+00  0.71838390E+00
  0.70811952E+00  0.72033991E+00  0.27748916E+00
  0.23977632E+00  0.25930577E+00  0.77838643E+00
  0.25907528E+00  0.20848857E+00  0.23058040E+00
  0.96080426E+00  0.72105272E+00  0.75844691E+00
  0.52663595E+00  0.42335906E+00  0.45303224E-01
  0.68364523E+00  0.75821873E+00  0.61979278E+00
  0.77072188E+00  0.97424325E+00  0.88098777E+00
  0.21682139E+00  0.71942772E+00  0.36517266E+00
  0.29455576E+00  0.77754484E+00  0.85554883E+00
  0.77046936E+00  0.23067814E+00  0.30944394E+00
  0.72824178E+00  0.72110554E+00  0.11341779E+00
  0.25232408E+00  0.48455552E+00  0.64081816E+00
  0.97981283E+00  0.25922169E+00  0.13269382E-01
  0.21429561E+00  0.72974539E+00  0.24347481E+00
  0.65261577E+00  0.74120011E+00  0.74596861E+00
  0.24465179E+00  0.25376638E+00  0.99422577E+00
  0.19140712E+00  0.97228302E+00  0.62605284E+00
  0.79051471E+00  0.51269357E+00  0.12012491E+00
  0.25878795E+00  0.49837079E+00  0.88687029E+00
  0.72669772E+00  0.51316840E+00  0.35958070E+00
  0.21444552E+00  0.96795145E+00  0.25172136E+00
  0.73326339E+00  0.47519123E+00  0.74541071E+00
  0.28451227E+00  0.84132918E-04  0.73886969E+00
  0.76219854E+00  0.49414670E+00  0.23143431E+00
  0.25364901E+00  0.98711321E+00  0.99574103E+00
  0.75550662E+00  0.51788728E+00  0.49205123E+00
  0.23176166E+00  0.96857461E+00  0.49526862E+00
  0.76160346E+00  0.45387961E+00  0.99987478E+00
  0.77965870E+00  0.99368643E+00  0.75645378E+00
  0.26515036E+00  0.47889464E+00  0.25274987E+00
  0.24883415E+00  0.50493175E+00  0.75769103E+00
  0.68292644E+00  0.97213446E+00  0.24965772E+00
  0.26062022E+00  0.45273014E+00  0.51543686E+00
  0.77405294E+00  0.94176633E+00  0.10119414E-03
  0.74450717E+00  0.77793592E-02  0.50631590E+00
  0.26031071E+00  0.50037745E+00  0.51381541E-02
  0.96191919E+00  0.25644229E+00  0.37514490E+00
  0.52437612E+00  0.71927726E+00  0.88094806E+00
  0.52107702E+00  0.25074765E+00  0.62191585E+00
  0.98605848E+00  0.75356919E+00  0.11762093E+00
  0.98946696E+00  0.25251284E+00  0.87669837E+00
  0.47541375E+00  0.73709252E+00  0.37693144E+00
  0.88957974E-02  0.74801286E+00  0.62804830E+00
  0.49260226E+00  0.24476341E+00  0.12494949E+00
  0.14459885E+00  0.40140646E+00  0.51627203E-01
  0.64953616E+00  0.91341051E+00  0.55633049E+00
  0.64017601E+00  0.45750575E-01  0.96245960E+00
  0.14770195E+00  0.53416588E+00  0.47104662E+00
  0.37981350E+00  0.42077113E+00  0.96485108E+00
  0.86384605E+00  0.91597538E+00  0.47031308E+00
  0.85801443E+00  0.58525706E-01  0.49976818E-01
  0.33750027E+00  0.58220646E+00  0.56016509E+00
  0.78292639E+00  0.90935636E-01  0.21256432E+00
  0.35270519E+00  0.58063254E+00  0.70848921E+00
  0.80685662E+00  0.88175937E+00  0.30025827E+00
  0.34047907E+00  0.42149675E+00  0.80685150E+00
  0.13047339E+00  0.55246213E+00  0.30370689E+00
  0.68154498E+00  0.80630974E-01  0.81416811E+00
  0.17261435E+00  0.37052643E+00  0.20157603E+00
  0.69069800E+00  0.90328334E+00  0.69784009E+00
  0.86176215E+00  0.53978740E+00  0.95023750E+00
  0.31334251E+00  0.63781235E-01  0.44711622E+00
  0.85236300E+00  0.40837278E+00  0.53539250E+00
  0.36609040E+00  0.89868323E+00  0.45132377E-01
  0.12148584E+00  0.57679903E-01  0.53658041E+00
  0.65914162E+00  0.56444137E+00  0.41387847E-01
  0.18135342E+00  0.89566969E+00  0.93701623E+00
  0.65142495E+00  0.41473249E+00  0.44902569E+00