Na88 Sn16 P8 Se96                       
   1.00000000000000     
    14.0793397336999995    0.0000000000000000    0.0000000000000000
     0.0000000000000000   14.0793397336999995    0.0000000000000000
     0.0000000000000000    0.0000000000000000   28.1586794673000007
   Na   Sn   P    Se
    88    16     8    96
Direct
  0.0100932061992694  0.0195483449112755  0.9825661834234208
  0.4669436028952756  0.2770228261215148  0.7554067100079155
  0.5403855340808523  0.9750765681593941  0.1252008406449769
  0.2795815910013780  0.2072861370075130  0.3055824360557425
  0.4524918252294593  0.9925156804874163  0.7487209847597194
  0.0024293036588831  0.4553617298065873  0.4963300516962517
  0.9991799840742293  0.5371535343513583  0.1076561230250337
  0.0146362785748353  0.3164322010806712  0.9954104931298110
  0.6901986465694371  0.7525858428141589  0.6106743430107658
  0.7564215490059530  0.2509638363836783  0.0185448518073104
  0.6172597626426674  0.7356782738410118  0.2416580630507018
  0.2351716595382304  0.4984001477802258  0.8566401188327435
  0.7498800374644324  0.4015959078353192  0.1251433929920203
  0.2184307553897966  0.9603518191397354  0.6207006219720285
  0.5009416497228446  0.0299164576199082  0.8697129102536377
  0.5048290303577772  0.4713269031299949  0.3771941699527655
  0.9788285485586730  0.0339112079520738  0.6069055907363052
  0.7348081772178678  0.5038644138327000  0.6173639161768021
  0.7881261268611639  0.0122919056136647  0.1143541642799135
  0.9972770086754634  0.4766489040497430  0.7300213880266408
  0.7057954994984904  0.2045428011944710  0.3557272797945117
  0.5403534477208276  0.9633393068325223  0.2548166024376122
  0.7756278264330516  0.7570488614838882  0.8680888896096921
  0.7023179194488788  0.2647677670822116  0.7191051725761525
  0.2443968616341358  0.2350450967401547  0.1409868525405513
  0.2119059533217055  0.1988039405278605  0.6373241426660554
  0.7656490599782526  0.7424181303117818  0.1269462002446718
  0.9716003028342812  0.4986144932405779  0.3671529149969959
  0.4786105960859156  0.4618319235433271  0.4971266336476068
  0.7416414083960844  0.2174652533343737  0.2327033158367496
  0.9804421880282588  0.1458500848087859  0.4890004926445004
  0.2309704719043761  0.7479628281724245  0.7425449013332106
  0.2710760082205411  0.6934750379437802  0.3744042952053369
  0.2683083237210063  0.2739284982898371  0.8740817523060187
  0.7349589139178146  0.0135318162593969  0.8779763866387804
  0.5081522650644645  0.2461306901987032  0.4812190891972708
  0.5306384723972825  0.3010706145191102  0.9976953408308979
  0.0276593059225855  0.2497199542483250  0.2381301483728278
  0.9797350074485801  0.9217833967665510  0.7333468640655113
  0.2527998767014085  0.7252404067530420  0.2360647947182957
  0.8165937275401959  0.7390774742401613  0.3486202907288506
  0.2023813208974542  0.2378815275452941  0.7605604948700693
  0.7046115968136949  0.7912428126881675  0.9855472828054618
  0.0135835287189930  0.7748586769978725  0.2667636528728429
  0.0151437599861451  0.5121125378032575  0.8702317125960408
  0.7225888635503563  0.7392335234927775  0.4617690470255928
  0.2484726526563151  0.7359815756278889  0.6341104722285448
  0.7718035731261554  0.4744586944087957  0.3637690793405647
  0.0146459642704792  0.0045131763143945  0.8586776020098509
  0.5302304595832331  0.5078669939827483  0.2644368376161673
  0.4853592503034018  0.5012384188413262  0.7589974816578222
  0.4852272795440069  0.2486092262361848  0.2538262301273411
  0.5121138585275417  0.9861442134317783  0.3879760401819893
  0.4655241625882269  0.7296020188508361  0.9948666452623430
  0.7687947572829206  0.2323046357481039  0.4698091577821356
  0.2928496146480776  0.7614051792962072  0.1085253545020925
  0.7436974967313947  0.4872054879722445  0.8682332890384467
  0.4557883840478383  0.4903213551649930  0.6073601084060197
  0.5087649581263212  0.0745850398992211  0.0058812199041004
  0.2386570501338291  0.2535978117422772  0.4879345218087880
  0.0242721101191943  0.0118976999820303  0.1101503782486800
  0.9957603850639010  0.7326579880076719  0.5004170561972540
  0.9962019075551237  0.6532322294796843  0.0095473130373753
  0.4517098574422926  0.7398899784053314  0.4891426513371883
  0.2890575738735102  0.9614650237574635  0.3747829767153519
  0.4923135659287081  0.7543540837101512  0.7237113239243362
  0.0331219531070966  0.9953774706989446  0.3669136447906349
  0.9660964956665096  0.2182972613963456  0.7351729510740137
  0.0617329345994442  0.9828117481143184  0.2433163624073469
  0.0907180566533490  0.5354544546361216  0.6178846494720640
  0.2098343439285596  0.4234242769115505  0.3663649920677334
  0.2442256641718548  0.7052265538027953  0.9788715584605253
  0.2916481881103936  0.4755837915669436  0.1185181208752766
  0.4710443574594022  0.9932799371401246  0.6139708136029549
  0.7315049876081404  0.2404938435715847  0.8807204414116347
  0.2060737659752565  0.7651725930713620  0.5098006862603569
  0.2085933555781058  0.6990859827316007  0.8772849402217434
  0.7676817726750770  0.9569441300638091  0.3756436852398495
  0.2792409172408343  0.9836599001935988  0.1213345256039512
  0.7270759451576212  0.7505603333413816  0.7291187341750199
  0.4960251983715941  0.4826660460736285  0.9015301812582716
  0.4823944011277781  0.0217862337510550  0.4942250928272957
  0.7284123311602133  0.2496216151145973  0.5884375129927301
  0.2424469249551211  0.2233121610006256  0.0006498925937770
  0.7180761922653075  0.0209146712456423  0.6107493670178226
  0.4967344133959747  0.4802519038000858  0.1188587860977499
  0.2366153054689374  0.9536779353459184  0.8730452609849170
  0.0166580990346461  0.4770704540996830  0.2416452588671227
  0.3119029088709139  0.9682538948091034  0.2545429715776081
  0.7500177516535295  0.4885942391668868  0.7502122627950688
  0.2228631433884144  0.9787250398682891  0.7528863425131823
  0.7745601186128090  0.4930718560543556  0.2477110430189481
  0.2545011944895704  0.9763089355480883  0.9968625913346608
  0.7395680905503836  0.4856804402476925  0.4945436219532735
  0.2343541950999659  0.0092826439470486  0.4939888555597981
  0.7249124015733108  0.5349068392642821  0.9954544902118290
  0.7155669543851557  0.9903523648211464  0.7414190566528082
  0.2676913311575509  0.4744913902599675  0.2488351134649297
  0.2671717767644817  0.4766894199804831  0.7451270103432956
  0.8174175902322819  0.9853183557764982  0.2510783962807278
  0.2404481698359733  0.5291733592635670  0.4938965748990389
  0.7767480162456672  0.0233124591282124  0.9926475023812161
  0.7253796742041253  0.0031596348038813  0.4927937875957558
  0.2450540872444438  0.4669958995148122  0.0021936180669476
  0.0014673007116458  0.2350512238750118  0.3670690988470920
  0.4901641968745233  0.7463475730208360  0.8648102182786208
  0.4822757590817922  0.2311327914822634  0.6150401980202406
  0.0261572477296699  0.7678659320454735  0.1311556443671851
  0.9815558499258121  0.2442696084114647  0.8778767455247108
  0.5262865550799120  0.7269104117230615  0.3664189461516196
  0.9817913004380494  0.7411024028569017  0.6272803255986537
  0.4881133944657428  0.2119938821183749  0.1262364339260288
  0.1510786385288989  0.3645071082641644  0.0607721199880736
  0.6071389164897794  0.8932634391695181  0.5372338504391184
  0.6600867684851528  0.1347516523598166  0.9532393938814376
  0.1367332223037563  0.6121659824481500  0.4379973663531630
  0.3489622092621937  0.3554779179957317  0.9564862093886035
  0.8548311156641920  0.9027721186737415  0.4584274555793683
  0.8899398404845861  0.1281662195045766  0.0358656251308429
  0.3450059041820945  0.6330942081227028  0.5553606490192362
  0.9201672646910943  0.0856395773965598  0.1932431831099042
  0.3517001860211309  0.5782618758190402  0.6824390123134227
  0.9135902146640152  0.9016031008698370  0.3111059614355585
  0.3736416720776660  0.3930982263043915  0.8107604748597559
  0.1668052258133747  0.5857891745485565  0.3049037113855292
  0.6262138467494291  0.0991471138074392  0.7998536806901048
  0.1672402656440996  0.3818213217386454  0.1952712892204350
  0.6026140980805547  0.8969751820420103  0.6781947984102079
  0.8254866966269492  0.6337932531150509  0.9386160069090967
  0.3252102179877849  0.1134722113756891  0.4392437937460396
  0.8431369978373678  0.3782451209641387  0.5470839133263212
  0.3760034279688061  0.8841739170347278  0.0413248572756309
  0.1428396739959605  0.1093911988189546  0.5536056552956874
  0.6199509536839415  0.6466885879524580  0.0443560480771053
  0.1483304843504212  0.8651558096405578  0.9545420317318656
  0.6423190456456431  0.3795288702559895  0.4399606697523897
  0.6739080374333827  0.3680156492525593  0.2883368324101996
  0.1330458055071775  0.8638707276696829  0.7996636542585510
  0.1167320840237764  0.0726276642016933  0.7026458123897924
  0.6843520698157828  0.5687682745033127  0.1857029482624894
  0.8269281990851693  0.4039930898712643  0.6829955187006909
  0.4099289990185517  0.8659918141605392  0.1958828525566664
  0.4052409626906795  0.0804514612646807  0.3103487120055128
  0.8555413164844122  0.6063630077444805  0.8021233585483410
  0.1505281842484945  0.0950661296479600  0.0506124936161855
  0.6222019201644720  0.5808905300555203  0.5304064928339992
  0.6492286807034632  0.4030805758977445  0.9326380160654023
  0.1286503234884538  0.8884895311092369  0.4545208565198530
  0.3156262012725403  0.0918583839620331  0.9348523455124962
  0.8523736552446725  0.5782885043694967  0.4413566723643812
  0.8511523200356519  0.4492310026150758  0.0442015287712468
  0.3516145178661176  0.9040690016984240  0.5443272187975465
  0.2198671921297098  0.0954071422544632  0.2124989763832544
  0.6312390931774947  0.6118922795108883  0.7030127696459402
  0.2061305959065795  0.8600859705102448  0.3040519631583198
  0.6463426628513481  0.3816184676138353  0.7988855764513759
  0.8819737119581021  0.5825725956580584  0.2959493658706198
  0.3300058023224842  0.1009285842334856  0.8008053299699515
  0.8796212382113614  0.3669951170430762  0.1964107803533628
  0.3295329985455787  0.8801013001174625  0.6998597073112865
  0.8622742837476963  0.8953279315320211  0.9485271260532193
  0.3393807472394325  0.4254959693065530  0.4426370088377877
  0.8266452745318417  0.1054129721510946  0.5503074647629631
  0.3632726327023569  0.5717533243433854  0.0417864514880933
  0.1566233756903443  0.4174339477788839  0.5442747202760229
  0.6713214244423529  0.9309285728554089  0.0542941833557627
  0.1357099796123317  0.5410448166332057  0.9413578983375275
  0.6221640918625935  0.1022150398888434  0.4325202065203950
  0.3703640833919979  0.3808943950943307  0.3047715533895053
  0.8106219004232860  0.8902776186861124  0.7983198913756275
  0.8165962807146054  0.0990983402701835  0.6920407051027284
  0.3748088463358087  0.5790241071773394  0.1989105981226132
  0.1527530795802085  0.3753036596906826  0.6980720659412089
  0.7030561331152266  0.8868507588057107  0.2022082975577947
  0.6874963385060873  0.0775168700265311  0.2908156630055284
  0.1349926722423852  0.5855833591410742  0.7895094695439009
  0.1051854946404949  0.1533604015892547  0.3233521062778986
  0.5924940983115345  0.6492047474947095  0.8342492553463132
  0.5943808639949864  0.3297023976165392  0.6440973482725820
  0.1408497167130590  0.8645460142423850  0.1649273323454953
  0.4002764086162606  0.1640497919365261  0.6697578237693056
  0.9488917085507729  0.6831076605232428  0.1856894783899249
  0.9333901608548001  0.3367297479818473  0.3201285571351751
  0.4178573455613644  0.8224067713540275  0.8100861381609439
  0.0949537351680359  0.1599479095007496  0.9149757866376379
  0.5925781010800154  0.6350569507626417  0.4167676093886142
  0.0974902978727095  0.8132324927259130  0.5836981835190906
  0.5958613266809817  0.3069282552662648  0.0870703130547392
  0.9064897477586679  0.6326364932362343  0.5845038161188595
  0.3850303193106136  0.1284879177505277  0.0847828892504507
  0.8763209293456261  0.3320409039958484  0.9193927125713832
  0.4189828806508842  0.8207086573868123  0.4081846226079020
  0.8826069181446047  0.8560327718535503  0.6490551787871915
  0.4110805933258273  0.3282009992780641  0.1645197749957872
  0.8859000044518407  0.1478013494053224  0.8316496019314140
  0.4493860708605549  0.6658417059029973  0.3047584976574590
  0.0856678256962670  0.3229584855915837  0.8299263434808808
  0.6281306642800573  0.8314818087010041  0.3423388646404595
  0.0425298507254120  0.6728770634896711  0.6983668903089647
  0.5816386347125727  0.1253085226087761  0.1756574988777004
  0.3888607198235240  0.3151819472501377  0.5653871223334856
  0.9182944178788270  0.8235157120024246  0.0826247544264248
  0.8759066639508236  0.1464522345856192  0.4004193255343670
  0.3687061600126517  0.6437912554521702  0.9043890939131676
  0.0697605818914313  0.3043613033671132  0.4301439236987781
  0.5605238772958674  0.8517423564869377  0.9115553601205694
  0.5560645180829162  0.1175072286964745  0.5658747268674470
  0.1285747340413581  0.6733398347976058  0.0878161439257242
 
 -0.92597279E-02 -0.30854991E-02  0.39923493E-02
  0.56567100E-02  0.67145831E-02 -0.64237107E-02
  0.43787946E-02  0.51395763E-02  0.62248239E-02
  0.46834031E-02  0.41697362E-02  0.20614200E-02
  0.80324702E-02 -0.45795765E-02  0.52342832E-02
 -0.77998983E-02  0.45969313E-02 -0.43096065E-02
 -0.80684116E-02 -0.34566389E-02 -0.47268208E-03
  0.77584761E-02  0.65190847E-02 -0.62076897E-02
  0.26848723E-02 -0.81173242E-02 -0.70488500E-03
 -0.34856680E-02  0.93835924E-02  0.12271453E-02
 -0.12712272E-02 -0.15021060E-03 -0.47314664E-02
  0.82929776E-02  0.15148516E-02  0.12611088E-01
 -0.13056646E-02 -0.61370094E-02  0.39522514E-02
  0.16453391E-02  0.25484887E-02  0.18338653E-02
  0.51578099E-03 -0.10446399E-02 -0.41368939E-02
  0.14621647E-02  0.19236933E-02 -0.61232825E-02
 -0.12264417E-03 -0.47918750E-02 -0.93531744E-02
 -0.84116809E-02  0.39307572E-02 -0.36559579E-02
  0.45342839E-02  0.40534676E-02  0.77264224E-03
  0.29346837E-02  0.58021058E-02 -0.11479452E-02
 -0.18819463E-02  0.19013295E-02  0.61324286E-02
 -0.39809967E-02  0.41257528E-02  0.78292271E-03
 -0.47094307E-02  0.14027177E-02  0.14438582E-02
 -0.46981425E-02 -0.72628898E-03  0.88834745E-02
 -0.53287622E-02  0.58221782E-02 -0.62084048E-02
  0.22979618E-03 -0.31897641E-02  0.10003129E-02
  0.46313235E-02  0.45860189E-02  0.32432182E-02
 -0.26418965E-02 -0.19690464E-02  0.19344603E-02
  0.11322605E-01  0.26191525E-02 -0.55708073E-02
 -0.35520191E-02 -0.24270444E-02 -0.13119998E-02
  0.99847996E-02  0.51074592E-02 -0.49411281E-02
 -0.27740109E-02  0.44662702E-02  0.12059310E-01
 -0.20016322E-02  0.69798095E-02 -0.13164452E-01
  0.30560496E-02 -0.26494812E-02 -0.13652129E-02
  0.89047915E-03  0.65648679E-02  0.29158649E-02
 -0.53674006E-02  0.90856128E-02  0.65950065E-02
  0.52869915E-02 -0.23730359E-02 -0.37301909E-02
  0.69415138E-03 -0.12318326E-01 -0.43791951E-02
 -0.51081373E-02 -0.47822150E-02 -0.14527424E-02
  0.33108586E-02  0.13034160E-02 -0.45635382E-02
  0.24144210E-02 -0.27708578E-02  0.76433911E-02
 -0.28522301E-02 -0.18651368E-02  0.50720798E-02
  0.71474466E-02 -0.24486435E-02  0.34386235E-02
  0.89493665E-02  0.32595514E-02 -0.54561497E-02
  0.66477964E-03 -0.34738108E-03 -0.42038898E-02
 -0.71238642E-02  0.97100231E-03  0.33860653E-02
  0.29381687E-02 -0.11077399E-01 -0.19618731E-02
 -0.71596501E-02  0.35424644E-02 -0.11281334E-01
 -0.32207274E-02  0.49612244E-02 -0.17248739E-02
  0.19094991E-02  0.49784445E-02 -0.96933102E-05
 -0.39564495E-02  0.60973851E-02  0.25966355E-02
  0.41680837E-02  0.13451413E-02  0.10319501E-01
  0.19869625E-02 -0.76227915E-02  0.21732235E-02
  0.48690269E-02  0.21081977E-02 -0.89347885E-02
 -0.58733879E-02  0.66727034E-02  0.88405697E-02
  0.92454680E-02  0.21831616E-02  0.34702724E-02
  0.40273307E-04 -0.18120814E-03  0.26096979E-02
  0.37347645E-02  0.99066967E-02 -0.50411552E-02
 -0.66061244E-02 -0.57846773E-02  0.30773218E-03
 -0.30434088E-02 -0.19589885E-02 -0.51180231E-02
 -0.74051437E-02 -0.24116812E-02  0.19493014E-02
  0.25059205E-02 -0.10608693E-01  0.11010398E-03
 -0.46006953E-02 -0.92285849E-02  0.23746445E-02
 -0.39469186E-02  0.72022750E-03  0.43607895E-02
 -0.27804169E-02  0.10146547E-04 -0.89898583E-03
  0.65713801E-02 -0.22562276E-02 -0.33186752E-02
  0.54379237E-02  0.26583746E-02 -0.30865099E-02
 -0.10373209E-01  0.47071844E-02 -0.11656242E-01
  0.22974723E-02  0.20149403E-02  0.53339575E-02
  0.72302399E-02 -0.71489118E-02  0.76436591E-02
  0.21887183E-02  0.32147678E-03  0.41771518E-02
  0.47124267E-02  0.88207460E-02  0.87631090E-02
 -0.81998487E-02  0.40873397E-02  0.81612189E-03
  0.34311034E-02 -0.64576976E-02  0.78213811E-02
  0.37765708E-02  0.42096969E-02 -0.55088248E-02
  0.14055608E-02  0.68771220E-02 -0.58874582E-02
 -0.10279111E-01  0.35312583E-02 -0.12591962E-02
  0.26129993E-02  0.51723441E-02  0.94438429E-02
  0.61952466E-02 -0.22318453E-03  0.26663853E-02
  0.26862132E-02  0.66721081E-03  0.38275425E-02
 -0.16633908E-02 -0.44778499E-02  0.24845631E-02
 -0.21075523E-02 -0.19409130E-02  0.89615774E-02
 -0.47348031E-02 -0.40685902E-03  0.55108404E-02
  0.12562010E-02  0.22918715E-02 -0.34712585E-02
 -0.28259515E-02  0.26672977E-03 -0.27961363E-02
  0.12592342E-02 -0.71296290E-02 -0.29320541E-02
 -0.35363529E-02  0.70611184E-02 -0.19508755E-02
 -0.88410409E-03  0.34446369E-02  0.37057622E-02
 -0.46236233E-03 -0.13543809E-02  0.23198674E-02
  0.39286960E-02  0.54457808E-03  0.34232603E-02
 -0.70182072E-03 -0.30056623E-02 -0.41817340E-02
 -0.21504347E-02 -0.52889080E-03  0.23085940E-02
 -0.19527682E-02  0.44234361E-02  0.40870256E-03
  0.20277666E-02 -0.74413125E-03  0.25323939E-03
 -0.85488220E-03 -0.18528137E-02  0.27474902E-02
 -0.16698904E-02 -0.97803392E-03  0.67942712E-03
  0.21059575E-02  0.12855651E-02  0.18352609E-02
 -0.26277452E-02 -0.31729177E-03 -0.14312227E-02
  0.17291931E-02 -0.10519891E-02 -0.75198405E-02
  0.11782753E-02 -0.26575594E-02  0.54209353E-03
 -0.13143050E-03 -0.73790389E-03 -0.37294504E-02
  0.26440643E-02 -0.74549183E-03  0.23245042E-02
 -0.18527342E-02  0.51577001E-03  0.30051941E-03
  0.14007586E-02  0.19769890E-02 -0.22746650E-03
 -0.54626318E-03  0.35334219E-02  0.15191179E-02
 -0.24570701E-03 -0.29410517E-02 -0.19109371E-02
  0.48325099E-02 -0.52788259E-03 -0.28797345E-03
 -0.13759992E-02  0.14993860E-02 -0.32989520E-02
 -0.85248593E-03 -0.29822346E-02  0.68523572E-02
 -0.16059443E-02  0.68986320E-02 -0.17950509E-02
 -0.15087692E-02 -0.22900456E-02 -0.23696108E-02
  0.45836566E-02  0.38277049E-03  0.51828335E-03
  0.84480796E-03  0.49763012E-03  0.23369315E-02
  0.95786338E-03  0.49457864E-02 -0.31955063E-02
 -0.85128132E-03 -0.29566286E-03 -0.14070824E-02
  0.49911717E-02 -0.63959488E-02 -0.13772416E-02
 -0.36629263E-02  0.21223595E-02  0.13002454E-02
 -0.17748106E-02  0.25443567E-03 -0.43568423E-03
 -0.17615966E-02  0.40558900E-02  0.15522736E-02
  0.16006818E-02  0.10570478E-02  0.27396986E-02
 -0.16470307E-02 -0.55031329E-03  0.11326861E-02
  0.32144933E-03  0.38184498E-02 -0.97409808E-03
  0.12078513E-02  0.12830027E-02  0.17654748E-02
 -0.48206137E-02 -0.14850589E-02  0.44243937E-02
 -0.12011377E-02  0.29001296E-02 -0.60873317E-02
  0.11861886E-02  0.46842964E-03  0.40531637E-02
 -0.43470866E-02 -0.39400545E-02  0.81915174E-03
  0.11950222E-02 -0.74669558E-02  0.70772439E-03
  0.26890300E-02  0.29205259E-02 -0.28291001E-02
 -0.31196928E-02 -0.77443658E-03  0.16472125E-04
  0.41359746E-02  0.36281149E-02 -0.22641573E-02
  0.29298361E-02 -0.34706492E-02 -0.90231313E-03
 -0.83840559E-03  0.52352190E-02 -0.41282374E-03
 -0.10208056E-02  0.12571948E-02 -0.34142023E-02
 -0.62544425E-03  0.27025043E-03 -0.51320204E-02
 -0.16293817E-02 -0.27166410E-02  0.12839299E-02
  0.25983520E-02  0.16587091E-02  0.16827159E-02
 -0.32339812E-02  0.16882271E-02  0.17662368E-02
  0.24913911E-02 -0.17913127E-02 -0.72807417E-03
 -0.24334576E-02 -0.24118594E-03 -0.47447987E-02
 -0.50543565E-03 -0.11891383E-02  0.93939115E-03
  0.21418497E-02 -0.29916616E-02  0.24557647E-02
  0.18095986E-03 -0.11270111E-02 -0.34053650E-02
  0.45289500E-03 -0.76139335E-04  0.43441564E-02
 -0.36938103E-03 -0.43389653E-02 -0.28265010E-02
 -0.19290670E-02  0.33690249E-02 -0.73123963E-02
  0.42295779E-03 -0.21188138E-02  0.26053012E-02
  0.16159784E-02  0.10749307E-02  0.25655093E-03
  0.22729192E-02 -0.21904970E-02  0.21836722E-03
  0.43385795E-03  0.63824013E-03 -0.58016598E-02
 -0.11558143E-02 -0.27659283E-02  0.20521217E-02
  0.48242435E-02 -0.13929149E-02 -0.60328388E-02
  0.27251838E-02 -0.98901484E-03  0.18977101E-02
  0.21833026E-02  0.79184628E-03  0.12766989E-02
  0.28752166E-02 -0.91918564E-03 -0.14161437E-02
  0.17594215E-02  0.17152210E-02 -0.12764733E-02
  0.14811075E-02 -0.26690182E-02  0.33852138E-02
  0.28385000E-02 -0.93304956E-03  0.68655686E-02
  0.70949192E-04 -0.81383457E-03 -0.19049803E-02
  0.13876995E-02  0.36212250E-02 -0.82291143E-03
 -0.15451512E-02  0.17122067E-02  0.20923211E-02
 -0.41100224E-02 -0.36355672E-03  0.50383301E-02
  0.40728974E-03 -0.26807089E-02 -0.38143245E-02
  0.24815063E-02  0.29068906E-02 -0.49372572E-03
 -0.10420874E-02  0.41889283E-03  0.39496096E-02
 -0.18277280E-02 -0.43585112E-02 -0.12862952E-02
 -0.31957061E-02  0.66175787E-03 -0.50021084E-02
  0.30909568E-04  0.11288972E-03 -0.10628767E-02
  0.44787428E-02  0.44402723E-03  0.13728705E-02
 -0.22001503E-02 -0.16959182E-02 -0.27453163E-02
 -0.46103707E-02 -0.21672598E-02  0.30586941E-02
  0.27264659E-02 -0.19633870E-02  0.15724247E-02
 -0.66161949E-02 -0.47499728E-02  0.38717470E-03
  0.40363446E-03  0.83433667E-02 -0.10780769E-02
 -0.18987843E-02  0.39981863E-02  0.18887884E-02
 -0.26255830E-02 -0.33060784E-02 -0.17356706E-02
 -0.27489046E-02 -0.19434857E-03 -0.10899849E-02
 -0.18802748E-02  0.41561738E-03  0.35840248E-02
 -0.44010766E-03  0.38489785E-02 -0.35369483E-02
 -0.20005196E-02  0.13796258E-03  0.14851472E-02
 -0.20366356E-02  0.41906863E-03  0.55771365E-03
  0.62911949E-04 -0.11544812E-02 -0.24447996E-02
 -0.14294107E-02  0.28655278E-02  0.33966281E-02
 -0.25517805E-02 -0.28812330E-02 -0.21113433E-02
 -0.22390989E-02 -0.10343579E-02 -0.23146257E-02
  0.35184260E-02 -0.38582148E-02 -0.15678748E-02
 -0.49075535E-03  0.25314528E-03 -0.33624949E-03
  0.14351673E-03 -0.18206001E-03  0.11678183E-02
 -0.13971286E-02 -0.24044896E-02  0.20966511E-03
 -0.66302648E-03 -0.21504879E-03  0.10714127E-02
  0.83296460E-03  0.52618165E-04  0.57944443E-04
  0.19384663E-02  0.23945254E-02 -0.46131138E-03
 -0.23760144E-02 -0.30952388E-03 -0.11204997E-02
  0.64934435E-03 -0.14788466E-02 -0.79390633E-03
 -0.95555116E-03  0.25219473E-02  0.39236762E-02
 -0.91897422E-03 -0.28957516E-03  0.27530345E-02
 -0.25688447E-02 -0.22354846E-02 -0.55475667E-02
 -0.69355628E-04  0.22441476E-02  0.32831989E-02
 -0.17043910E-03  0.44667290E-04 -0.35566290E-02
  0.21258384E-02 -0.73445049E-03  0.63085575E-05
 -0.25275805E-03  0.28984473E-02 -0.25856870E-02
 -0.69993924E-03 -0.31838205E-03 -0.27137455E-02
 -0.54419919E-03 -0.59025636E-02 -0.19754028E-03
  0.15796916E-02 -0.24278456E-02  0.46407629E-02
  0.12440468E-02  0.68761046E-03 -0.68825258E-03
 -0.21230329E-03 -0.20112373E-02 -0.48903321E-03
  0.18713363E-02  0.35213757E-02  0.19548979E-02
  0.61942291E-02 -0.83555316E-04  0.49790499E-02
 
           1
   2.00000000000000     
  0.42213398E+00 -0.16469512E-03  0.00000000E+00  0.00000000E+00
  0.87778423E-02  0.19110043E-01  0.98284974E+00
  0.46774715E+00  0.27797665E+00  0.75495046E+00
  0.54100755E+00  0.97580666E+00  0.12564297E+00
  0.28024688E+00  0.20787846E+00  0.30572885E+00
  0.45363285E+00  0.99186514E+00  0.74909276E+00
  0.13213116E-02  0.45601473E+00  0.49602396E+00
  0.99803385E+00  0.53666251E+00  0.10762255E+00
  0.15738387E-01  0.31735825E+00  0.99496959E+00
  0.69058004E+00  0.75143276E+00  0.61062428E+00
  0.75592640E+00  0.25229680E+00  0.18632011E-01
  0.61707918E+00  0.73565694E+00  0.24132201E+00
  0.23634969E+00  0.49861534E+00  0.85753583E+00
  0.74969457E+00  0.40072413E+00  0.12542411E+00
  0.21866448E+00  0.96071384E+00  0.62083087E+00
  0.50101492E+00  0.29768064E-01  0.86941908E+00
  0.50503673E+00  0.47160017E+00  0.37675926E+00
  0.97881113E+00  0.33230512E-01  0.60624127E+00
  0.73361328E+00  0.50442279E+00  0.61710425E+00
  0.78877023E+00  0.12867709E-01  0.11440904E+00
  0.99769389E+00  0.47747311E+00  0.72993985E+00
  0.70552817E+00  0.20481289E+00  0.35616284E+00
  0.53978794E+00  0.96392538E+00  0.25487221E+00
  0.77495884E+00  0.75724812E+00  0.86819144E+00
  0.70165054E+00  0.26466460E+00  0.71973613E+00
  0.24363990E+00  0.23587215E+00  0.14054589E+00
  0.21193860E+00  0.19835083E+00  0.63739519E+00
  0.76630695E+00  0.74306958E+00  0.12717655E+00
  0.97122502E+00  0.49833479E+00  0.36729031E+00
  0.48021900E+00  0.46220398E+00  0.49673096E+00
  0.74113684E+00  0.21712049E+00  0.23261013E+00
  0.98186055E+00  0.14657561E+00  0.48864954E+00
  0.23057642E+00  0.74859727E+00  0.74340143E+00
  0.27079167E+00  0.69446653E+00  0.37346928E+00
  0.26874244E+00  0.27355213E+00  0.87398479E+00
  0.73508541E+00  0.14464370E-01  0.87818349E+00
  0.50738981E+00  0.24742132E+00  0.48168751E+00
  0.53138950E+00  0.30073352E+00  0.99743040E+00
  0.27757912E-01  0.24797011E+00  0.23781911E+00
  0.97900939E+00  0.92110407E+00  0.73324368E+00
  0.25327019E+00  0.72542556E+00  0.23574066E+00
  0.81693670E+00  0.73868387E+00  0.34916317E+00
  0.20197616E+00  0.23761658E+00  0.76092074E+00
  0.70562691E+00  0.79089498E+00  0.98579151E+00
  0.14854805E-01  0.77532170E+00  0.26637612E+00
  0.15238193E-01  0.51206319E+00  0.86993313E+00
  0.72157690E+00  0.73937146E+00  0.46200955E+00
  0.24889003E+00  0.73440801E+00  0.63397113E+00
  0.77078653E+00  0.47496191E+00  0.36296781E+00
  0.14188453E-01  0.52179287E-02  0.85855509E+00
  0.53050171E+00  0.50857419E+00  0.26443615E+00
  0.48479723E+00  0.50210457E+00  0.75918191E+00
  0.48581936E+00  0.24880031E+00  0.25455918E+00
  0.51239611E+00  0.98506138E+00  0.38813040E+00
  0.46621582E+00  0.72990149E+00  0.99423204E+00
  0.76796043E+00  0.23325251E+00  0.47043707E+00
  0.29416295E+00  0.76171530E+00  0.10877183E+00
  0.74370322E+00  0.48717975E+00  0.86841865E+00
  0.45631892E+00  0.49172862E+00  0.60700206E+00
  0.50782654E+00  0.73763314E-01  0.59030769E-02
  0.23822473E+00  0.25331953E+00  0.48757101E+00
  0.23220194E-01  0.11555116E-01  0.11028883E+00
  0.99611636E+00  0.73115100E+00  0.50042488E+00
  0.99554837E+00  0.65192129E+00  0.97159747E-02
  0.45114919E+00  0.73999229E+00  0.48945238E+00
  0.28866261E+00  0.96146647E+00  0.37471913E+00
  0.49324704E+00  0.75403358E+00  0.72347561E+00
  0.33894422E-01  0.99575510E+00  0.36669442E+00
  0.96462296E+00  0.21896593E+00  0.73434505E+00
  0.62059295E-01  0.98309797E+00  0.24369521E+00
  0.91745128E-01  0.53443894E+00  0.61842755E+00
  0.21014526E+00  0.42346994E+00  0.36666168E+00
  0.24489507E+00  0.70647956E+00  0.97949397E+00
  0.29048338E+00  0.47616441E+00  0.11857609E+00
  0.47153175E+00  0.99236261E+00  0.61452634E+00
  0.73204146E+00  0.24109184E+00  0.88032917E+00
  0.20627343E+00  0.76614950E+00  0.50938252E+00
  0.20713319E+00  0.69958761E+00  0.87719550E+00
  0.76805295E+00  0.95767887E+00  0.37631444E+00
  0.28012097E+00  0.98362820E+00  0.12152391E+00
  0.72745753E+00  0.75065511E+00  0.72939059E+00
  0.49578891E+00  0.48202996E+00  0.90170665E+00
  0.48209502E+00  0.21510523E-01  0.49486160E+00
  0.72773974E+00  0.24956382E+00  0.58882893E+00
  0.24262537E+00  0.22363773E+00  0.40334279E-03
  0.71767476E+00  0.20952561E-01  0.61055077E+00
  0.49691329E+00  0.47923912E+00  0.11865053E+00
  0.23611296E+00  0.95468098E+00  0.87290670E+00
  0.16532510E-01  0.47755977E+00  0.24190846E+00
  0.31183723E+00  0.96806150E+00  0.25470774E+00
  0.75057583E+00  0.48867160E+00  0.75045540E+00
  0.22276345E+00  0.97829808E+00  0.75258933E+00
  0.77425464E+00  0.49299673E+00  0.24787501E+00
  0.25422380E+00  0.97693729E+00  0.99689162E+00
  0.73985614E+00  0.48557473E+00  0.49456161E+00
  0.23423276E+00  0.90194478E-02  0.49418400E+00
  0.72467519E+00  0.53476791E+00  0.99550275E+00
  0.71586611E+00  0.99053498E+00  0.74154941E+00
  0.26731805E+00  0.47444632E+00  0.24873346E+00
  0.26741741E+00  0.47653998E+00  0.74459291E+00
  0.81758497E+00  0.98494084E+00  0.25111690E+00
  0.24042950E+00  0.52906854E+00  0.49363169E+00
  0.77712361E+00  0.23206560E-01  0.99281260E+00
  0.72511649E+00  0.32329010E-02  0.49281513E+00
  0.24525307E+00  0.46727673E+00  0.21774620E-02
  0.13897029E-02  0.23555315E+00  0.36717700E+00
  0.49012929E+00  0.74592979E+00  0.86467449E+00
  0.48296223E+00  0.23105780E+00  0.61501974E+00
  0.25961784E-01  0.76807892E+00  0.13092133E+00
  0.98143475E+00  0.24384598E+00  0.87836344E+00
  0.52605843E+00  0.72789038E+00  0.36629145E+00
  0.98157698E+00  0.74077710E+00  0.62711202E+00
  0.48876451E+00  0.21204826E+00  0.12627325E+00
  0.15119865E+00  0.36457780E+00  0.60938103E-01
  0.60727498E+00  0.89396600E+00  0.53700689E+00
  0.65996584E+00  0.13470965E+00  0.95313945E+00
  0.13744223E+00  0.61125742E+00  0.43789955E+00
  0.34844188E+00  0.35577940E+00  0.95657856E+00
  0.85457900E+00  0.90280826E+00  0.45839651E+00
  0.88968960E+00  0.12874237E+00  0.35975877E-01
  0.34523328E+00  0.63324436E+00  0.55555524E+00
  0.91993330E+00  0.85561404E-01  0.19332363E+00
  0.35174585E+00  0.57880429E+00  0.68236983E+00
  0.91376179E+00  0.90178535E+00  0.31123136E+00
  0.37295689E+00  0.39288727E+00  0.81107472E+00
  0.16663460E+00  0.58620114E+00  0.30447135E+00
  0.62638235E+00  0.99213655E-01  0.80014156E+00
  0.16662275E+00  0.38126163E+00  0.19532947E+00
  0.60278385E+00  0.89591449E+00  0.67824507E+00
  0.82586868E+00  0.63420812E+00  0.93841507E+00
  0.32476706E+00  0.11336220E+00  0.43924496E+00
  0.84372452E+00  0.37876050E+00  0.54692310E+00
  0.37641962E+00  0.88368090E+00  0.41260770E-01
  0.14272058E+00  0.11013487E+00  0.55357633E+00
  0.61980595E+00  0.64686718E+00  0.44113551E-01
  0.14824164E+00  0.86519420E+00  0.95417752E+00
  0.64208759E+00  0.37914297E+00  0.44005186E+00