Na88 Ge16 P8 Se96                       
   1.00000000000000     
    13.9614333504000001    0.0000000000000000    0.0000000000000000
     0.0000000000000000   13.9614333504000001    0.0000000000000000
     0.0000000000000000    0.0000000000000000   27.9228667008000002
   Na   Ge   P    Se
    88    16     8    96
Direct
  0.2854669957509129  0.0834481603516634  0.1069945569598135
  0.4855130441549315  0.4567882849641570  0.3774397682662309
  0.5233782214789501  0.2601934508689931  0.9940250387117654
  0.8566742887709454  0.0586067170099430  0.3503121803118075
  0.2239999356742723  0.0247792545376670  0.8643671592908799
  0.9431827177951707  0.4102769347097584  0.4398917915725893
  0.0297221241189968  0.5071208983362610  0.1208614797661112
  0.1751520742548317  0.2769199987493179  0.2796169197379272
  0.7747353701275953  0.6443358220196306  0.6249440780328418
  0.7402139322342616  0.2472736117285851  0.8689769264414551
  0.7443882649179097  0.7347082529105513  0.3678345190724242
  0.2059055400022841  0.3792130151394928  0.9084568589056253
  0.7635384033786647  0.9839561263265282  0.1277622144446950
  0.2287095672407663  0.7446388621258270  0.5478450286875866
  0.9443555441607787  0.0211437703191392  0.7707965648779310
  0.1662145080465555  0.4813597675877003  0.3749404437836911
  0.2294015528206152  0.9959032499582798  0.6379220067585306
  0.9763016800913566  0.4845138645142337  0.6143672819284577
  0.5212913113522583  0.9654032830846684  0.1303036964348735
  0.8151631471109217  0.4640069101069185  0.8822683847661554
  0.5034774782841770  0.9679468628665886  0.4234769331293544
  0.2842988012305634  0.2376585630600586  0.3939036689192599
  0.7321422697613145  0.7033667102891964  0.8693225525446973
  0.7262738207610179  0.3678076380117031  0.6140769903333566
  0.2816186513844315  0.8052614900248917  0.1060516572281477
  0.2108808806916926  0.2475632898399489  0.7927300801529150
  0.7268700158287812  0.7988865760019440  0.0000033931137653
  0.7243271901161460  0.5181203989634874  0.3835209225435157
  0.4613846463206690  0.7567488926238998  0.4977692554509979
  0.4907781594984716  0.9831692027644815  0.9847060633745279
  0.0134201045435735  0.5273929316025670  0.5188219930254205
  0.3811671361282395  0.7403959161624929  0.7654839764339558
  0.0231285678587110  0.7230456544950219  0.2490137919567543
  0.4295321884747189  0.2504097012070775  0.7587850982439398
  0.9987625447336477  0.0667804967360434  0.9620004955033851
  0.4845823953183949  0.0498270800904391  0.5177997127827709
  0.5267200436742517  0.7663165810959783  0.0309503119851899
  0.5310630838091194  0.2462569794305244  0.2561424156794044
  0.9573493876087905  0.7165290724970266  0.7765593117496905
  0.5103714263430689  0.7441405077510009  0.2423837544654170
  0.0256199363754278  0.0241359269348346  0.2415229692915982
  0.5311224361335403  0.4919633214743326  0.7521843557429359
  0.4890967715017179  0.9333054221778964  0.7505816241375844
  0.9811566880192988  0.5115923140869370  0.2519647916332596
  0.2429722163834510  0.2112479724616947  0.0195362300504607
  0.7452895563484666  0.6995313762574557  0.4888302592525050
  0.9962806531187237  0.8051332934346423  0.4827491005402578
  0.7625282227584870  0.2409635223967001  0.0034786263550281
  0.9932617858553237  0.9893087691917322  0.6553282832058811
  0.5267711571846976  0.5443795948486836  0.1529769150121883
  0.0335181574758630  0.4753476520206211  0.7591218974320944
  0.5175525099938771  0.9858426692479871  0.2648908093695791
  0.3181873802164646  0.2505196199217608  0.5105618547066656
  0.9998028952999315  0.7925335862115077  0.9859981064869507
  0.7155522649557684  0.2436539758451191  0.5025869144874840
  0.2309069791609695  0.7620228453545441  0.9761549536495251
  0.0051894253449970  0.2629480193738882  0.0130117616255059
  0.5065516247807555  0.4894387571900715  0.5148766898675795
  0.5120623236605751  0.5026281013864281  0.0254341811633140
  0.9948795565216492  0.0615284143234049  0.4449613280199926
  0.5083919106349777  0.0377434959235234  0.8714974566758703
  0.9667000297728374  0.2049330899555931  0.5203621908737349
  0.0163307309420659  0.5173120536451720  0.0073849548719670
  0.4653118202403307  0.9478191221298710  0.6350031544977370
  0.8462068739050058  0.2512010978751772  0.2578546693728964
  0.7075908402866765  0.7545729771917657  0.7401666090153214
  0.2930647033938363  0.7742821313334776  0.2652064274601189
  0.6145305145288326  0.1289925819627958  0.6868757564937821
  0.7620243152681422  0.7560803772339724  0.2271279841912361
  0.8166034953707108  0.2572644462404299  0.7430035691886709
  0.7800042684238145  0.2361143975525744  0.1398952418135785
  0.1478906135011594  0.7556339693368957  0.7247090894997827
  0.2832213059920803  0.5008200874043839  0.1257648528209213
  0.7661963372969781  0.9212632257004371  0.6153129169680822
  0.7444764269451413  0.0059328956523686  0.8757245712641581
  0.2014813903118235  0.7433681191995386  0.3762696208762467
  0.3394114315881788  0.5750434306984703  0.8887117753116238
  0.6922053942393519  0.2481401270577394  0.3825965415034039
  0.0269798948926241  0.0170211361457226  0.1293690203883600
  0.2388174206077932  0.4840945143830338  0.6325083439032093
  0.5346805771636295  0.5043969932782082  0.8767921834178811
  0.3013782542961061  0.9968006917835567  0.3646493566637962
  0.4981647397943396  0.4974376835294121  0.6275226202391718
  0.2683117066239860  0.2875803797670124  0.1667777425453311
  0.2381343233671024  0.2148057121360209  0.6545160360046419
  0.7705419628502683  0.5699727873997874  0.1270567541031982
  0.1785160017214542  0.7568100026121184  0.8642839929729043
  0.4871010514524908  0.4806131407622963  0.2528837465878272
  0.2753025427349268  0.0020568915412263  0.2458036910027924
  0.7697804418522128  0.4847461885776331  0.7417440985140128
  0.2189302013813179  0.9842051114541100  0.7572902285485813
  0.7375580404060472  0.4902482700544109  0.2593007493198162
  0.2413971873985957  0.9859713053905330  0.9896173318037836
  0.7516460218656151  0.4802972390592715  0.5065530883432494
  0.2413161002571812  0.9978194507932638  0.4987548176338834
  0.7820319252672737  0.5351010112723876  0.0016396426087575
  0.7558164472467174  0.9745227348136072  0.7509632132519638
  0.2803890209534293  0.5084717916533071  0.2471894143062744
  0.2877043683911215  0.5102103364410456  0.7482473382069441
  0.7850960928456456  0.9910925049121060  0.2423790557846146
  0.2752777121418037  0.4783052601065660  0.4962795679593371
  0.7475512616332737  0.0416988088794511  0.9991734221492838
  0.7337285130930138  0.0038788283074344  0.4903166122371572
  0.2592902845280432  0.4982587982178958  0.0099300204294093
  0.0496933159737619  0.2456474658740772  0.3886201595653587
  0.4945506650870165  0.7603312238553395  0.8834888661266602
  0.4886421115109513  0.2750584317704087  0.6340767377326177
  0.9924825284373475  0.7513304685858707  0.1274391722804820
  0.9941190718912208  0.2396316039991371  0.8772281653201101
  0.4822061966766205  0.7225930804262766  0.3736701682406552
  0.9707003452140058  0.7363467569717839  0.6232070334234204
  0.5296161531186270  0.2427566134088197  0.1191293634444392
  0.1652410379547826  0.4134993200325114  0.0589590541844368
  0.6371481697258593  0.8790555817257638  0.5220261795535641
  0.6519695499168526  0.1399679261037627  0.9496138663955347
  0.1717004674715453  0.6184804266439637  0.4549095378776805
  0.3674638044506636  0.3909215542215331  0.9726255245984980
  0.8275131537866045  0.9116127470277439  0.4371351654264038
  0.8632720517624911  0.1179566366519282  0.0507810852003617
  0.3485823414621267  0.5858791521321413  0.5549034274558272
  0.8873047343090120  0.1043584131067835  0.1968451513521430
  0.3803079800722277  0.5671335881494584  0.6854850522259589
  0.8885281711888824  0.8825810587875830  0.2838068806948360
  0.3823098309791602  0.4402016970252725  0.8155039916840658
  0.1794905193443321  0.6313695952338989  0.2950771188785704
  0.6256263668433810  0.0769304884861371  0.7942600758854661
  0.1590707478669134  0.4436886387306860  0.2086611921306218
  0.6318600623727280  0.9098363023301720  0.6945742669359051
  0.8729248002098651  0.6106717094486547  0.9482560073196763
  0.3495045001614868  0.0965372144041940  0.4545700440328385
  0.8699592221676261  0.3728664203402601  0.5468746680616401
  0.3565250271335662  0.8953596933175888  0.0348098072469360
  0.1157639134900946  0.0630651027917099  0.5426021099436333
  0.6663566968741400  0.6156075937741305  0.0452282112432696
  0.1379873926519302  0.9047753055285345  0.9340635821056081
  0.6475878057661825  0.4046348275474936  0.4607005725847100
  0.6405952165007772  0.3936641944078714  0.3117508763044962
  0.1147389875188860  0.9060580638804467  0.8022264291550258
  0.1281682774874398  0.0872855953618726  0.7076997259599843
  0.6564405016260814  0.5991339900245828  0.2074542642951140
  0.8619228380876333  0.4098334029333001  0.6891014889522697
  0.3840511187092791  0.9159153354609424  0.1994492063299565
  0.3816997417069194  0.0958079931317463  0.3034018715529468
  0.8667818337782676  0.5593978965886429  0.8019835684725379
  0.1208721624153307  0.0552677647608309  0.0394294163452239
  0.6686348381727967  0.5763174122424906  0.5630380106173969
  0.6719664757898550  0.4544050297609480  0.9520825076341085
  0.1529955045153640  0.9036096376223849  0.4291160370589878
  0.3279225626455464  0.1054919513208910  0.9510876680518849
  0.8577717680511140  0.5758618729180599  0.4425207172286647
  0.8521825214554025  0.4326862111735761  0.0644422005722440
  0.3632845220798248  0.9055741968721110  0.5443276727943349
  0.2049929799347378  0.1319600760824744  0.2087439113151423
  0.6643733448171791  0.6021194221027319  0.7040785152187151
  0.1760233748105770  0.9135313001013161  0.2945810145718707
  0.7107624404668238  0.4015882706911888  0.8105907739353334
  0.8349902293948828  0.5991688886270188  0.3158707396827798
  0.3425809999062635  0.0926452429728241  0.7942613785405731
  0.8294350567547167  0.4084014497946381  0.1971925895092581
  0.3066737437771997  0.8690077397593933  0.7144856537462358
  0.8455819725841868  0.9249386975534524  0.9539401637896712
  0.3861745361987504  0.3963045449188647  0.4528483885646989
  0.8232441721517486  0.0849232479811453  0.5546052726312575
  0.3489396018005613  0.6227753109624213  0.0534197597591319
  0.1546897517880271  0.3963555672938610  0.5473291192590916
  0.6344314023637714  0.9431098843630672  0.0468680597591403
  0.1805839930952193  0.5827315659116487  0.9439357023820519
  0.6358526575200448  0.1000816497667736  0.4429277111176051
  0.3588782235608002  0.3650241255182822  0.2877899603022954
  0.8229032509945906  0.8723529730140247  0.8071640051284105
  0.8320050301745210  0.0902195928651200  0.7016062245545286
  0.3767851954709911  0.6194467623596898  0.2056829060539559
  0.2164786604258868  0.3662678643860793  0.7168011361634877
  0.6714768633269235  0.9206549895849224  0.1927346235786065
  0.6994101352574386  0.1224284382757962  0.2943378724044974
  0.1956053670591403  0.6225045251839312  0.7848529104946552
  0.1107926940458236  0.1376038974986398  0.3388106710630587
  0.5595708365170895  0.6656079687019070  0.8268121218797195
  0.5670028722201057  0.3149335477731412  0.7012193787260471
  0.1159902106595588  0.8416490642680295  0.1640248360576310
  0.4077914511117227  0.1273964605553489  0.6671809460652273
  0.9159377812601697  0.6246381764840223  0.1755126441168167
  0.0151097106018296  0.3783658174024792  0.3475463388676156
  0.3881107728664044  0.8678072464838300  0.8503647945776520
  0.1224069752425979  0.1772611271869955  0.9096372576503003
  0.5532914820080578  0.6245570320485910  0.4207022841181311
  0.0330996959821267  0.8593689008759484  0.5802372833801469
  0.4106485989118713  0.2075967377639857  0.0752749662771020
  0.8950468275910861  0.6587176053897692  0.5643386777929421
  0.4641608643150600  0.3713792454787941  0.1574759828662665
  0.9143948902023253  0.3202802463794984  0.9310117769856285
  0.3837401708173485  0.8015114878848131  0.4207245692442503
  0.8929120424361364  0.8216133764850020  0.6752299607547824
  0.6358184554242301  0.3022246292888620  0.0748121617113098
  0.8919220549600707  0.1393679818824592  0.8406361507346171
  0.4108925195182733  0.6306456879697988  0.3253286132229737
  0.0505686819158665  0.3190671133342391  0.8130607959095252
  0.5706948687999955  0.8294048008118579  0.3369174727624440
  0.0505575334504103  0.6300997772816220  0.6674904043597520
  0.5885491390654570  0.1306447026870989  0.1687363390566627
  0.3781809648084091  0.3382407789541114  0.5895374625982225
  0.8905695989964239  0.8355614904630275  0.0938254099813629
  0.8850798255001585  0.2451370689587191  0.4233502385347055
  0.4456447304116209  0.6638121932589226  0.9504492595228458
  0.1252211244342380  0.2964093675287598  0.4646670457983933
  0.6140791984506031  0.8574943498646045  0.9076982352714440
  0.6052483645297211  0.2063823186809608  0.5991610831353138
  0.0773620817486331  0.6715534619596542  0.0706374432102545
 
  0.55305298E-02  0.82002588E-03 -0.35533514E-02
  0.43864203E-02  0.80008659E-02 -0.93735285E-02
 -0.89815754E-02  0.95363465E-02  0.48647738E-02
  0.21871750E-02 -0.68782499E-02  0.25853965E-02
  0.17066842E-02  0.63516479E-02  0.25487591E-02
 -0.75707924E-03 -0.22799677E-02 -0.61656035E-02
 -0.61364554E-02 -0.11530799E-01 -0.38379049E-02
  0.46363241E-02  0.11179847E-01 -0.20857804E-02
  0.18522205E-02 -0.11704136E-01 -0.51352593E-02
 -0.50711975E-02 -0.65423544E-02  0.88140676E-03
 -0.10038986E-01  0.23896717E-02  0.31008246E-02
 -0.88154505E-02  0.12810239E-02 -0.12265684E-01
  0.64170788E-02  0.43833676E-02 -0.74728108E-03
 -0.66381788E-02  0.78756429E-02 -0.58891292E-02
  0.11516762E-02  0.47033220E-02 -0.38475468E-02
  0.49098499E-02  0.25155554E-02 -0.10437720E-01
  0.50954920E-02 -0.12817315E-02  0.90218797E-03
  0.36985961E-03  0.43948811E-02  0.20826679E-02
  0.11912182E-02 -0.27234405E-02 -0.27423716E-03
 -0.84486207E-02  0.25638757E-02 -0.35934686E-02
  0.39409290E-02 -0.18077571E-02  0.11216570E-01
  0.45615760E-02 -0.13628719E-02  0.18361915E-02
  0.32614528E-02 -0.17322285E-02 -0.41800121E-02
  0.88156896E-02 -0.57922917E-02  0.24119493E-02
  0.55931450E-02 -0.37817012E-02  0.25704374E-02
  0.36439245E-02  0.10850866E-01  0.98735672E-02
 -0.65295662E-02 -0.23587952E-03  0.53738130E-02
 -0.26614444E-02 -0.75303807E-02  0.31451768E-02
  0.12137516E-02  0.40834553E-02  0.56805010E-02
  0.10598882E-02 -0.30697844E-03 -0.25654107E-02
  0.49971710E-02  0.77598901E-02  0.50670396E-02
 -0.30422214E-02  0.13029762E-02 -0.10027582E-01
 -0.64403913E-02  0.39372216E-02  0.34010077E-03
 -0.65862993E-02  0.41646272E-02 -0.36668571E-02
  0.33030224E-02  0.15680215E-02  0.57474737E-02
 -0.14530478E-02  0.78783484E-02  0.95673399E-02
 -0.10627485E-01  0.70512302E-02 -0.19087632E-02
 -0.80454955E-02 -0.25297793E-02  0.16575381E-01
  0.16667360E-02 -0.17766323E-02  0.10089224E-01
  0.70116734E-02 -0.26702779E-02  0.15063544E-02
 -0.97106671E-02 -0.14606043E-02  0.20543363E-02
  0.35535241E-02  0.17074771E-02 -0.28291837E-03
 -0.75821022E-02 -0.38687552E-02  0.69897468E-02
  0.47079610E-02  0.54272874E-02 -0.44286551E-02
 -0.26512843E-02  0.86453164E-03  0.80203305E-02
 -0.32663687E-02 -0.56459451E-02  0.12226896E-01
 -0.11908115E-01 -0.32801456E-02 -0.72791907E-02
  0.40292088E-02  0.76439618E-02  0.84597285E-03
  0.52822955E-02 -0.10308818E-01  0.55564177E-02
 -0.12261332E-02  0.64925386E-02 -0.76155278E-02
  0.56520070E-02  0.22488532E-02  0.45676944E-02
  0.49400797E-02  0.35957033E-02  0.61256944E-02
 -0.15931730E-02  0.44277796E-02  0.34091392E-03
  0.50983516E-02 -0.53760714E-03  0.96027685E-02
  0.48582430E-02 -0.48611342E-02 -0.23965567E-02
 -0.42050610E-03  0.73417746E-02 -0.31891111E-02
  0.10358331E-03 -0.23935108E-02  0.18253478E-01
  0.69120312E-02 -0.96099553E-02  0.34855689E-02
  0.74273033E-02 -0.78757174E-02 -0.69091850E-02
  0.90890327E-02 -0.43744677E-02  0.28338270E-02
  0.54370414E-03  0.42663943E-03 -0.37813148E-02
 -0.81139263E-02  0.10541746E-02  0.28639207E-02
  0.23890034E-02 -0.10268542E-01  0.65361160E-02
  0.25587695E-02  0.81904165E-02  0.59848725E-04
 -0.56438468E-02 -0.31423621E-02 -0.47857786E-02
  0.33426431E-02  0.23388305E-02  0.90207266E-02
  0.12226210E-01 -0.57585808E-02 -0.11123147E-01
  0.62686604E-02 -0.27294389E-02  0.28772242E-02
  0.83653213E-02 -0.33328664E-02 -0.13965088E-03
  0.10431424E-01  0.12341797E-02 -0.51500606E-02
 -0.83427020E-02  0.61683913E-02 -0.23801578E-02
 -0.92943280E-02  0.26032811E-02 -0.47427958E-02
 -0.82390144E-02  0.36160750E-03  0.65549061E-02
 -0.63174365E-02  0.84000552E-02  0.13205782E-02
  0.59172430E-03 -0.25806250E-02 -0.34755108E-02
  0.94377694E-02  0.83951418E-03  0.23256726E-02
 -0.37737146E-02 -0.73296564E-02 -0.73907933E-02
 -0.24125705E-02 -0.33859950E-02 -0.28279493E-02
 -0.91732063E-02  0.80006613E-02 -0.25729100E-02
 -0.11325563E-02 -0.40632374E-02  0.39052796E-02
 -0.47321163E-02 -0.29133825E-03 -0.25611915E-02
 -0.83339578E-02  0.26565255E-02  0.33774372E-02
  0.39209354E-02 -0.31610061E-02 -0.29350083E-02
  0.93786200E-02  0.67384460E-02  0.16554226E-02
 -0.62270474E-02 -0.74966729E-02  0.32310037E-02
  0.14689231E-02 -0.57027951E-03 -0.13955901E-03
  0.13688570E-01  0.17730523E-03 -0.28128544E-02
  0.28846367E-02  0.73554646E-02  0.75489656E-02
 -0.99780630E-03  0.32266725E-02  0.17258844E-02
 -0.18994640E-02  0.59078253E-02  0.70874176E-02
 -0.22151649E-02 -0.43841220E-03 -0.20749948E-02
 -0.15834748E-02 -0.94748294E-03  0.79293458E-03
 -0.21846828E-02 -0.47101198E-02 -0.65090611E-03
  0.28450263E-02  0.26541751E-02 -0.62464463E-03
  0.41364438E-02  0.39018708E-02 -0.44330155E-02
  0.24061915E-02 -0.68675526E-02 -0.18198422E-02
 -0.17377955E-02 -0.63725739E-03 -0.58033535E-03
  0.63506478E-02  0.17749629E-02  0.76096355E-02
  0.60295432E-03  0.36832962E-02  0.35979354E-02
 -0.79944894E-03 -0.37997069E-02 -0.87785226E-02
  0.52999248E-02  0.35547571E-02  0.40092612E-02
 -0.21797402E-02  0.47399697E-03  0.14413987E-02
 -0.25314956E-02 -0.17813793E-02  0.11591242E-02
  0.25485116E-02 -0.29531518E-02 -0.37552480E-03
  0.39591715E-02 -0.35284125E-03  0.40471370E-02
 -0.30208041E-02  0.61316447E-02  0.32698341E-02
 -0.61972517E-03  0.81156447E-02 -0.12052577E-01
  0.41311057E-02 -0.33605676E-02  0.16809941E-02
 -0.14389680E-02 -0.33579749E-02 -0.60440899E-02
  0.40378473E-02 -0.66242266E-02  0.55775909E-02
  0.81186393E-03 -0.12092413E-01  0.19620475E-02
  0.42669749E-02  0.16807814E-02 -0.27251069E-02
  0.64133333E-03  0.41431364E-02  0.45528012E-02
  0.29508034E-02 -0.22364394E-02 -0.97710332E-04
 -0.37214507E-02 -0.27262446E-02  0.23831488E-02
  0.12538503E-02  0.32696475E-02 -0.46134619E-02
  0.52459231E-03  0.17268502E-02 -0.25674856E-02
  0.21855039E-02  0.13716971E-02  0.30404496E-02
  0.15382031E-02 -0.11838930E-02 -0.45245914E-03
  0.29225512E-02 -0.22228086E-02  0.13754364E-02
 -0.46252013E-02 -0.69659614E-03 -0.83322151E-03
 -0.15541766E-02 -0.14809110E-02 -0.37980218E-02
  0.28607438E-02  0.18786689E-04  0.12137546E-02
 -0.22215486E-02  0.37053430E-02 -0.23090844E-03
 -0.51191840E-02  0.23311240E-02  0.11304318E-02
  0.39717447E-02  0.19438922E-02 -0.26916652E-02
 -0.66416298E-03  0.31260702E-02 -0.25153826E-02
  0.45788575E-02  0.14553970E-02  0.14277082E-02
  0.15942819E-02  0.52732024E-03 -0.24669213E-02
  0.18416448E-02 -0.34569743E-02 -0.52025157E-03
  0.47869541E-02 -0.47433318E-03 -0.23078229E-02
 -0.29555504E-02  0.32572554E-02 -0.32814572E-02
 -0.27610923E-02 -0.16235225E-02 -0.17338057E-02
 -0.23260683E-02  0.26120649E-02  0.16623322E-02
  0.51605344E-02  0.18893382E-02  0.11751924E-03
  0.17153026E-02 -0.65621036E-02  0.48437341E-03
 -0.14120869E-02 -0.85468965E-03  0.33455445E-03
  0.61818121E-02  0.30326217E-02  0.44166520E-02
 -0.92534093E-03  0.15876559E-02 -0.45315760E-02
 -0.83343921E-03 -0.42571616E-02  0.72343956E-02
 -0.32809225E-02  0.48080320E-02 -0.10686254E-02
 -0.44039433E-02  0.19453583E-02 -0.10115666E-01
  0.23206937E-02 -0.26881646E-02 -0.19942331E-02
 -0.13197562E-02 -0.47305525E-02 -0.12753810E-02
 -0.13539208E-03 -0.77867962E-02 -0.16939791E-02
  0.57880597E-03 -0.14142790E-02  0.62577460E-04
 -0.43545156E-02 -0.37807742E-03 -0.44855605E-02
 -0.36069628E-02 -0.21364195E-02 -0.10946561E-02
 -0.37301440E-02  0.25532965E-02 -0.15915774E-02
  0.19431592E-03  0.32483342E-02  0.90241353E-02
 -0.61217223E-02  0.28897538E-02  0.11556324E-02
  0.52121797E-02 -0.51543515E-02  0.92041944E-03
  0.16416036E-02  0.37089626E-02  0.10045704E-02
 -0.48947564E-03 -0.18331104E-02 -0.26774390E-02
  0.24283702E-06  0.22477306E-02  0.60585781E-02
 -0.24133424E-02  0.44802409E-02 -0.30830207E-02
  0.13128779E-02  0.13694718E-02 -0.70549691E-02
  0.12944661E-02  0.69347054E-02 -0.32845268E-02
  0.50294322E-02  0.12078544E-03 -0.64842290E-03
 -0.23982057E-02  0.58607124E-02  0.31006363E-02
 -0.97243506E-02  0.19609343E-02 -0.30490151E-02
 -0.14141098E-02 -0.42427052E-02 -0.11279432E-02
 -0.99911276E-04 -0.16157314E-02  0.10462262E-03
  0.14594021E-03 -0.34397848E-02  0.13024292E-02
 -0.21267951E-02  0.60109374E-03  0.61995542E-02
 -0.22887132E-02  0.28874101E-02  0.10896256E-02
  0.74000967E-02  0.19602571E-05 -0.21688442E-02
 -0.30536404E-03 -0.11527119E-02 -0.17876838E-02
 -0.27776464E-02 -0.11501335E-02 -0.20123202E-02
  0.40028416E-02 -0.43479818E-02 -0.42250986E-02
  0.21705809E-02 -0.20276144E-02 -0.14706062E-02
  0.48550488E-02 -0.11856155E-02  0.15619904E-02
 -0.25290216E-02  0.19703076E-02 -0.23371694E-02
 -0.98807066E-03  0.21236818E-02  0.31828046E-02
 -0.19769518E-02 -0.16131918E-02 -0.14335842E-02
  0.62281586E-02 -0.33701390E-02 -0.29112597E-02
 -0.54005856E-02 -0.88605770E-04 -0.10246918E-02
 -0.26848143E-02 -0.62085420E-02 -0.61694927E-03
 -0.59982758E-02  0.38083848E-02  0.72484277E-04
 -0.15175628E-03 -0.58353752E-02 -0.50430047E-02
  0.50716834E-02 -0.24669389E-03 -0.20074780E-04
  0.35602549E-02 -0.39645689E-02  0.59587008E-03
  0.18877885E-02 -0.57705197E-02 -0.25999360E-02
  0.15373201E-02 -0.38725825E-03 -0.18097152E-03
  0.65072011E-03  0.19879781E-02  0.59196776E-02
 -0.32038035E-02 -0.86115663E-02  0.77601545E-03
 -0.14882218E-02  0.34176502E-02 -0.22403305E-02
 -0.57070099E-02 -0.20812914E-02  0.29238262E-02
 -0.30450935E-02  0.31738144E-02  0.23052298E-02
  0.41565385E-02  0.87594132E-03  0.77260853E-03
 -0.48788846E-02 -0.32365623E-02 -0.42679165E-02
  0.91057348E-03  0.17624948E-03 -0.29763601E-02
 -0.10237590E-02 -0.56411522E-02 -0.20384136E-02
  0.53151574E-03  0.56575943E-02  0.39870570E-02
 -0.60670831E-02 -0.46714851E-02  0.60647430E-02
 -0.17957374E-02 -0.30781406E-03 -0.97091968E-03
 -0.84858380E-03 -0.13618575E-02 -0.29153242E-02
 -0.39950706E-02  0.28345295E-02 -0.33309815E-02
 -0.98815323E-05 -0.99966474E-03 -0.15813533E-02
 -0.28191554E-02  0.31529742E-02  0.67222177E-02
  0.21971899E-02 -0.34173456E-03  0.14674458E-02
  0.72137103E-02 -0.17035041E-02 -0.40920692E-03
 -0.27355891E-02 -0.75748967E-03  0.15869083E-02
  0.12757866E-02  0.44793878E-02  0.54449152E-02
  0.18925190E-03 -0.31661697E-02  0.12574215E-02
  0.75784355E-04  0.38849573E-02 -0.42175893E-02
  0.49054048E-02  0.30306632E-02  0.34623502E-02
 -0.10042001E-02  0.35417974E-02 -0.15438156E-02
 
           1
   2.00000000000000     
  0.46531285E+00 -0.15299802E-02  0.00000000E+00  0.00000000E+00
  0.28625925E+00  0.83565631E-01  0.10674005E+00
  0.48614141E+00  0.45793442E+00  0.37676838E+00
  0.52209159E+00  0.26155955E+00  0.99437348E+00
  0.85698761E+00  0.57621396E-01  0.35049736E+00
  0.22424442E+00  0.25689139E-01  0.86454972E+00
  0.94307426E+00  0.40995033E+00  0.43945017E+00
  0.28843066E-01  0.50546909E+00  0.12058659E+00
  0.17581624E+00  0.27852153E+00  0.27946752E+00
  0.77500070E+00  0.64265918E+00  0.62457626E+00
  0.73948747E+00  0.24633641E+00  0.86904006E+00
  0.74295016E+00  0.73505058E+00  0.36805662E+00
  0.20464271E+00  0.37939652E+00  0.90757832E+00
  0.76445766E+00  0.98458405E+00  0.12770869E+00
  0.22775864E+00  0.74576706E+00  0.54742321E+00
  0.94452052E+00  0.21817530E-01  0.77052098E+00
  0.16691785E+00  0.48172013E+00  0.37419283E+00
  0.23013149E+00  0.99571964E+00  0.63798663E+00
  0.97635466E+00  0.48514344E+00  0.61451645E+00
  0.52146196E+00  0.96501315E+00  0.13028405E+00
  0.81395287E+00  0.46437419E+00  0.88201100E+00
  0.50404202E+00  0.96768790E+00  0.42428033E+00
  0.28495226E+00  0.23746333E+00  0.39403519E+00
  0.73260948E+00  0.70311857E+00  0.86902316E+00
  0.72753668E+00  0.36697788E+00  0.61424975E+00
  0.28241988E+00  0.80471975E+00  0.10623577E+00
  0.21140288E+00  0.24911770E+00  0.79343728E+00
  0.72593464E+00  0.79885279E+00  0.38829722E-03
  0.72394593E+00  0.51704166E+00  0.38374620E+00
  0.46155852E+00  0.75733385E+00  0.49817613E+00
  0.49092999E+00  0.98312523E+00  0.98452231E+00
  0.14135958E-01  0.52850455E+00  0.51918492E+00
  0.38073133E+00  0.74058257E+00  0.76476574E+00
  0.22205970E-01  0.72360967E+00  0.24903815E+00
  0.42858869E+00  0.25100629E+00  0.75852246E+00
  0.99923571E+00  0.67005119E-01  0.96241216E+00
  0.48437424E+00  0.50955667E-01  0.51848498E+00
  0.52519764E+00  0.76732668E+00  0.30813595E-01
  0.52991055E+00  0.24589458E+00  0.25732964E+00
  0.95758815E+00  0.71627457E+00  0.77728196E+00
  0.51137586E+00  0.74375799E+00  0.24249165E+00
  0.24228866E-01  0.23926693E-01  0.24167011E+00
  0.53163148E+00  0.49220792E+00  0.75216409E+00
  0.48801062E+00  0.93275122E+00  0.75108227E+00
  0.98183111E+00  0.51236978E+00  0.25164759E+00
  0.24259242E+00  0.21137182E+00  0.20110693E-01
  0.74482164E+00  0.69872258E+00  0.48970602E+00
  0.99457479E+00  0.80466341E+00  0.48222772E+00
  0.76310541E+00  0.24205853E+00  0.35392199E-02
  0.99401848E+00  0.98783201E+00  0.65572627E+00
  0.52659551E+00  0.54530966E+00  0.15243145E+00
  0.34327817E-01  0.47566980E+00  0.75944906E+00
  0.51826019E+00  0.98635776E+00  0.26532957E+00
  0.31795916E+00  0.25115391E+00  0.51058627E+00
  0.53324317E-03  0.79245657E+00  0.98668591E+00
  0.71624822E+00  0.24295761E+00  0.50241526E+00
  0.23084674E+00  0.76307457E+00  0.97592653E+00
  0.52042638E-02  0.26260514E+00  0.14319183E-01
  0.50754179E+00  0.48806211E+00  0.51512635E+00
  0.51312630E+00  0.50149989E+00  0.24939305E-01
  0.99618158E+00  0.60901764E-01  0.44516430E+00
  0.50846980E+00  0.37804613E-01  0.87122662E+00
  0.96553770E+00  0.20508410E+00  0.52056732E+00
  0.16672960E-01  0.51584107E+00  0.78531100E-02
  0.46567837E+00  0.94899241E+00  0.63500744E+00
  0.84539838E+00  0.25075095E+00  0.25751188E+00
  0.70806968E+00  0.75490802E+00  0.74081273E+00
  0.29481613E+00  0.77345720E+00  0.26440972E+00
  0.61542851E+00  0.12860159E+00  0.68708184E+00
  0.76322266E+00  0.75560294E+00  0.22711798E+00
  0.81809782E+00  0.25744124E+00  0.74263469E+00
  0.77880916E+00  0.23699803E+00  0.13972476E+00
  0.14655918E+00  0.75600689E+00  0.72436938E+00
  0.28204105E+00  0.50087189E+00  0.12623435E+00
  0.76529135E+00  0.92246655E+00  0.61540750E+00
  0.74456119E+00  0.55632166E-02  0.87547563E+00
  0.20283337E+00  0.74348838E+00  0.37643620E+00
  0.33887084E+00  0.57399344E+00  0.88818240E+00
  0.69185979E+00  0.24765508E+00  0.38239399E+00
  0.25665817E-01  0.18167245E-01  0.12918473E+00
  0.23865518E+00  0.48351245E+00  0.63278806E+00
  0.53400269E+00  0.50435526E+00  0.87660874E+00
  0.30018440E+00  0.99718124E+00  0.36489127E+00
  0.49872642E+00  0.49698486E+00  0.62731240E+00
  0.26965521E+00  0.28854567E+00  0.16689631E+00
  0.23724229E+00  0.21373180E+00  0.65474746E+00
  0.77075239E+00  0.56989109E+00  0.12704676E+00
  0.18047691E+00  0.75683540E+00  0.86408252E+00
  0.48751428E+00  0.48166682E+00  0.25342445E+00
  0.27515961E+00  0.25191181E-02  0.24592731E+00
  0.76950834E+00  0.48559249E+00  0.74225174E+00
  0.21861288E+00  0.98414231E+00  0.75714161E+00
  0.73733120E+00  0.49011254E+00  0.25935754E+00
  0.24108423E+00  0.98529657E+00  0.98957071E+00
  0.75205358E+00  0.48067745E+00  0.50650835E+00
  0.24190865E+00  0.99837840E+00  0.49843730E+00
  0.78237662E+00  0.53411722E+00  0.15092948E-02
  0.75556750E+00  0.97443145E+00  0.75092165E+00
  0.28129876E+00  0.50872606E+00  0.24773446E+00
  0.28779074E+00  0.51073798E+00  0.74850504E+00
  0.78498157E+00  0.99054819E+00  0.24175029E+00
  0.27603694E+00  0.47881449E+00  0.49656673E+00
  0.74723901E+00  0.41766710E-01  0.99927666E+00
  0.73336587E+00  0.36236426E-02  0.49039964E+00
  0.25965536E+00  0.49783575E+00  0.99031231E-02
  0.50260474E-01  0.24559692E+00  0.38891004E+00
  0.49411793E+00  0.76120959E+00  0.88372307E+00
  0.48855333E+00  0.27622101E+00  0.63321346E+00
  0.99307432E+00  0.75084906E+00  0.12755957E+00
  0.99391294E+00  0.23915057E+00  0.87679525E+00
  0.48278463E+00  0.72164415E+00  0.37406967E+00
  0.97081665E+00  0.73461450E+00  0.62334757E+00
  0.53022740E+00  0.24299739E+00  0.11893418E+00
  0.16533291E+00  0.41409283E+00  0.59285153E-01
  0.63757088E+00  0.87873521E+00  0.52201918E+00
  0.65143645E+00  0.13957739E+00  0.94978456E+00
  0.17188008E+00  0.61894881E+00  0.45457909E+00
  0.36753895E+00  0.39116893E+00  0.97244163E+00
  0.82782623E+00  0.91180925E+00  0.43735294E+00
  0.86349240E+00  0.11778704E+00  0.50748677E-01
  0.34900100E+00  0.58556073E+00  0.55500194E+00
  0.88664217E+00  0.10425862E+00  0.19678547E+00
  0.38008534E+00  0.56692145E+00  0.68521302E+00
  0.88893798E+00  0.88258375E+00  0.28389382E+00
  0.38199159E+00  0.44073249E+00  0.81548745E+00
  0.17875719E+00  0.63170353E+00  0.29515809E+00
  0.62619533E+00  0.77208954E-01  0.79406728E+00
  0.15897561E+00  0.44413645E+00  0.20848103E+00
  0.63251599E+00  0.91004479E+00  0.69467653E+00
  0.87315318E+00  0.61074725E+00  0.94807931E+00
  0.34976832E+00  0.96041997E-01  0.45453278E+00
  0.87064496E+00  0.37279847E+00  0.54670937E+00
  0.35610164E+00  0.89582630E+00  0.34574770E-01
  0.11536838E+00  0.62832530E-01  0.54247792E+00
  0.66602348E+00  0.61598178E+00  0.45347277E-01
  0.13872665E+00  0.90504596E+00  0.93407200E+00
  0.64783353E+00  0.40369479E+00  0.46073527E+00