Na88 Sn16 P8 S96                        
   1.00000000000000     
    13.4813327813000008    0.0000000000000000    0.0000000000000000
     0.0000000000000000   13.4813327813000008    0.0000000000000000
     0.0000000000000000    0.0000000000000000   26.9626655626000016
   Na   Sn   P    S 
    88    16     8    96
Direct
  0.0371229333859534  0.0342845145006867  0.1386573182583236
  0.5328000733794305  0.5114616104848535  0.6415389621720451
  0.5315888584457416  0.5052398377481739  0.7726923629522423
  0.0397086489896880  0.9712742971186308  0.3862853533277967
  0.2150509344857285  0.0180489450474718  0.8824259037644173
  0.0069302346785187  0.4642755332415127  0.3449916257284196
  0.9766186876546472  0.4965761573413143  0.1320839040687170
  0.2441277739630667  0.2503164258593757  0.1425141229599743
  0.7413877832614728  0.0339352578909294  0.6162654445674597
  0.7614475853879120  0.2365424057642083  0.8720980918930076
  0.7519938617845279  0.7598761778522407  0.3744086608137658
  0.2517138179253081  0.2571312323216491  0.8703914563663322
  0.7664685766242664  0.0340337208385534  0.1232162105294541
  0.2740929126285298  0.7410984356962477  0.6393425697233586
  0.9908117830127914  0.9595914873995198  0.7486691567882140
  0.2937455904906147  0.5080131787467388  0.3857761323763353
  0.9728146644851191  0.0186742394169503  0.6232508692021188
  0.9785272868715966  0.4594165947177474  0.6196002238620102
  0.3489726348033992  0.0397232791586795  0.1259641560243646
  0.0489161810110235  0.4793365696000785  0.8740761543876079
  0.5129565501673056  0.0171826163874806  0.3616714288139214
  0.2604831888337966  0.2577415838431700  0.3639009519311063
  0.7763775002047332  0.7455277412490141  0.8729579213127409
  0.7507693254660108  0.3779285401896829  0.6226194566816436
  0.2370932088873586  0.7005622984112347  0.0003686402849256
  0.2193050088228065  0.2517573333456811  0.6148742812236252
  0.7405742268892794  0.4950897721135535  0.1327429763688276
  0.7176746211330737  0.2657736622104496  0.3614865228485851
  0.2766577024682988  0.7624187705517360  0.5082799223547062
  0.4787983850717542  0.2465784699942395  0.9694130883906326
  0.0258176111506967  0.4877738161336829  0.4932718096449297
  0.4810632728009946  0.9528719631044897  0.7399667995372012
  0.0164757666780337  0.7708695052928868  0.2668497074540876
  0.5253064838666107  0.2504464029334046  0.7549087116670590
  0.0028876802860264  0.0531518565728330  0.9892454451524733
  0.5315213982683141  0.2456771100625493  0.4713963240044118
  0.4990123198606570  0.7595719581391543  0.0120111135647723
  0.4539810626876822  0.2768297264323005  0.2326613777004073
  0.0696216539921329  0.7282572317077033  0.7588598568567532
  0.5237669737216408  0.7485432551593623  0.2451874692975210
  0.9812562790908754  0.0454950283425675  0.2806673611812273
  0.5452361602783792  0.7452103256898017  0.7257412903496201
  0.4922855162162953  0.0256402978272841  0.8765516071754058
  0.9936577009575476  0.5215488465919883  0.2299281344728170
  0.2489680762227104  0.2452288668048437  0.0066739052788011
  0.7139582582606108  0.7139705032273000  0.5012046248451142
  0.0327315554898084  0.7442482941899183  0.4942741750705436
  0.7263979377496608  0.2909319295125531  0.0016286853931926
  0.9722658456982252  0.2371790634189773  0.7303466000198822
  0.4783343749786219  0.5291820115448432  0.2644946872550974
  0.0366539806598977  0.4998958953142132  0.7580942217906991
  0.4866014974474457  0.0138240648384729  0.2383968032898585
  0.2223746907542303  0.2631939599440092  0.4897610957723098
  0.7540448298254472  0.7730712795054098  0.0065557199956211
  0.7628119442289351  0.2171694399589822  0.5120636815559477
  0.0020482633509746  0.7757631869303968  0.9982697481378019
  0.9623019024663296  0.2852874109231329  0.0189290866931940
  0.5016073021983625  0.5610196009840888  0.5043378516186388
  0.5033539332997523  0.4587930857650557  0.9979166316003268
  0.0149484099278013  0.9829002579713778  0.5091044922126540
  0.5017272801161780  0.0219907448264339  0.0173045955873790
  0.0079258065576712  0.2340895793404586  0.5000681140808726
  0.0113790298251853  0.5046540654751633  0.0049896123131266
  0.5165149532296033  0.9837565129661375  0.5053362782305694
  0.0341114434827064  0.2519467848168607  0.2299768198425226
  0.7915858593742526  0.7199540622443595  0.7468260931118404
  0.2504357953289466  0.7451186902033505  0.2561515798389071
  0.7274099234951490  0.2419679233233514  0.7262138993773233
  0.7425784391417886  0.7430430783249750  0.2632734460704890
  0.2612731705255033  0.2440918288827172  0.7510613431471780
  0.7299196659896545  0.2289210162228741  0.2154409595041837
  0.2863245493294682  0.7798781461350910  0.7729042207395557
  0.2543271439236205  0.5452208873927065  0.1288834852264716
  0.4946731999916700  0.9919804595357400  0.6309534052015849
  0.7834116587864192  0.0026372700906574  0.8722918498641323
  0.2099610031914825  0.7401521037082800  0.3917589283972148
  0.3359808120901320  0.5463942673476376  0.8848966124963729
  0.7771137756245583  0.0103706903683081  0.3784156598375575
  0.7459087255711815  0.7754641504655241  0.1142959911619843
  0.2900725776344318  0.4900092776828976  0.6371258157031566
  0.7296482450887682  0.4994808787667338  0.8680380630799746
  0.2952464784289461  0.9797767534388718  0.3713960266212378
  0.7556824876756441  0.7247744853555026  0.6053838140654535
  0.2358305965079718  0.8298157644459155  0.1166165678557225
  0.2283355272315229  0.9931072612436480  0.6289884462958615
  0.4958771978380360  0.5084695111584859  0.1128534864453172
  0.2716358011740885  0.7640956928760200  0.8830336717662077
  0.6906675970096640  0.5341774100472555  0.3624937515716016
  0.2610486833903085  0.0048289211117163  0.2583090827636944
  0.7859130473402033  0.4841386660276318  0.7574212081826680
  0.2448906215462761  0.0075040708211045  0.7502605561102401
  0.7330426226448602  0.4768808851810500  0.2514746624406877
  0.2609221312350519  0.9842798277857480  0.0000318351591789
  0.7699355500152726  0.4820062941431701  0.4867912919234596
  0.2688499128877561  0.0191139334134326  0.5018859438121380
  0.7430340019373055  0.5155910141123198  0.9932289479183515
  0.7290865425189306  0.9774317980932705  0.7493785028650062
  0.2348948384153396  0.5023675521876038  0.2528913345347564
  0.2766609299164677  0.4891594862070672  0.7534524242502824
  0.7676881944870069  0.9862165804165536  0.2516739665422581
  0.2687435296344015  0.5223967461184170  0.5199529709082307
  0.7497540728424020  0.0349904391246357  0.0033127530431355
  0.7705438227346959  0.9652964703511291  0.5000836807679157
  0.2471528243043872  0.4689635224539970  0.9986504852666420
  0.0085831249564965  0.2086035108852039  0.3722458731967819
  0.5051309950939248  0.7671330580206204  0.8740552719524770
  0.4967242183142901  0.2474872408772507  0.6292158207893138
  0.0152662688656443  0.7566014760710704  0.1291889195748893
  0.9829047344275135  0.2501816659637651  0.8736925142976545
  0.4964927563316057  0.7456567615148945  0.3844425644977623
  0.0140883213524780  0.7375340382515643  0.6309216051292080
  0.4927866206372017  0.2733662904551391  0.1083318623044322
  0.1236763534817699  0.3865507750096958  0.0506685515358470
  0.6692463588839638  0.8787425274601791  0.5535816390576318
  0.6438442516029821  0.1299222359556479  0.9507078380907991
  0.1641962603276849  0.6068397835574855  0.4573539348318820
  0.3454201336487250  0.3745120749726287  0.9410060559530183
  0.8653936316355680  0.8527254896624040  0.4506573475515661
  0.8584583912515019  0.1310777729690281  0.0576873765081470
  0.3819932869408205  0.6121137874155269  0.5736606745860591
  0.8853625895363627  0.0722490615548822  0.1993248912314530
  0.4014095396417529  0.5887868026878343  0.7161592848327588
  0.8659816111127386  0.9052759166776663  0.3178453748813097
  0.3643211464560973  0.3802545945331312  0.8064805638828326
  0.1477420299974092  0.6049962399001936  0.3072739716064796
  0.6324480032300295  0.0980782753871655  0.7980666690980444
  0.1366073041331776  0.4081886983047838  0.1919780229408624
  0.6573067207010407  0.8990309714576021  0.6795649870435658
  0.8556934343647854  0.6374081326995394  0.9465074769232797
  0.3738618717299365  0.1276017604652163  0.4480366503299143
  0.8738107487016173  0.3638204519073418  0.5367992626084486
  0.3717451723115624  0.8835302495673965  0.0559506874021038
  0.1454023035818211  0.1096304810169513  0.5453889825269597
  0.6607871546097809  0.6234753456708060  0.0474764928215984
  0.1664242971441785  0.8804509638326390  0.9498259832164507
  0.6619554402958018  0.3903944209232020  0.4345134653963584
  0.6292066435472489  0.3742055192558099  0.2920435165041639
  0.1408371334076408  0.8935067519787785  0.7962853451316919
  0.1465516792341509  0.1146271374520608  0.7000945811388342
  0.6407683520581553  0.5984700216048695  0.2059822627763209
  0.8721203926778918  0.3721017267008561  0.7036071342790914
  0.3442347422920067  0.9111747226730899  0.1963259083097103
  0.3707459180424768  0.1073688623683702  0.3086097707209980
  0.8842815289912094  0.5789988654595085  0.8085433810134192
  0.1626323287779059  0.0760223582818992  0.0539926255887282
  0.6689555884274625  0.5560263187763462  0.5568492622417033
  0.6369775051859830  0.4050124172153637  0.9430991441551572
  0.1759377868244575  0.9001607781203305  0.4473758052503272
  0.3455407814021460  0.0985181436736524  0.9383672190825628
  0.8664114534321550  0.5921213620846302  0.4346326388609028
  0.8572004498371441  0.4351157615158243  0.0525012454719714
  0.3634756181645641  0.9226497290337683  0.5645942802652395
  0.1580356997977688  0.1037464430329225  0.2034884400406559
  0.6932719040308992  0.5767185720243737  0.7022415100209720
  0.1466938058939140  0.9059348086912310  0.3141511010684988
  0.6674369904305166  0.3751635562244536  0.7955068130041574
  0.8482652540313311  0.5966251347667256  0.2949837644802376
  0.3406802182940619  0.0987665239671659  0.8012548737827345
  0.8426733503872665  0.3880798629237758  0.1956542869024489
  0.3263699550274736  0.8853841508248037  0.6995798693308545
  0.8615618566924512  0.9263125888865872  0.9524792296901319
  0.3878117056277689  0.4248819730790245  0.4617871650850465
  0.8660183945261738  0.0828437376305695  0.5482168704653461
  0.3565110601488977  0.5633803686780418  0.0419910538874603
  0.1559112720520973  0.4069985190941885  0.5706228302288435
  0.6578287335353387  0.9282212034219198  0.0568294234829681
  0.1540710510470129  0.5798280393561952  0.9448930514856518
  0.6582163259818191  0.0796014789632508  0.4556849039341856
  0.3554554483467154  0.3976023703031492  0.3000372397774846
  0.8382313899340124  0.8767697616951228  0.8012649344613274
  0.8399206496785578  0.0813624468070254  0.6996242759321266
  0.3488119637004061  0.6287555319934297  0.2025590580054630
  0.1529639119353310  0.3853443454388642  0.7085062067645601
  0.6656501404938893  0.8977318235777378  0.1979343988573151
  0.6729347278240259  0.0974016699729481  0.2997725391613627
  0.2091859995610224  0.6151248974573069  0.8107188985572598
  0.1272263563053105  0.1212876544419459  0.3477156976701159
  0.5888564062185355  0.6746712896456925  0.8319115564282922
  0.5735313816592558  0.3403227561865720  0.6754423269581000
  0.0992500789663365  0.8413486505140432  0.1816475484575577
  0.4085881520718955  0.1699059904955015  0.6790495589525350
  0.9173193461329868  0.6783985453837430  0.1662124122445668
  0.9400364381312508  0.2621405921542114  0.3082592919600163
  0.4260278288621055  0.8690960097843533  0.8243977964482480
  0.0895165466601622  0.2006069139933755  0.9341781161215947
  0.5919340345762362  0.6564105237142341  0.4162917257627978
  0.0979380651828013  0.8435986175816416  0.5844154817700568
  0.5924436493742339  0.3653235481957575  0.0799243159134818
  0.9463961421946974  0.6439546757691500  0.5829119395314635
  0.4128814626820868  0.1980673890737408  0.0578740831021813
  0.9062058260173043  0.3573131563054068  0.9119195758523304
  0.4130460059403924  0.8326651606168330  0.4248629250200675
  0.9219151354392863  0.8169535545307306  0.6767185056304342
  0.3965970082628337  0.3669905593523927  0.1485501064644497
  0.9027126753801524  0.1481523563396498  0.8376014784575192
  0.4089223304099373  0.6521294312866627  0.3432943078167179
  0.0748803720411735  0.3229791412369992  0.8165836823992219
  0.5830866849432180  0.8354363736433437  0.3338096746060477
  0.1168661636581579  0.6415865117877787  0.6666791568454699
  0.5530305964446314  0.1597621306013550  0.1545914590953251
  0.4141909756363163  0.3171683653176512  0.5774647776917350
  0.9345304605898563  0.8492499656904744  0.0823505465417236
  0.9372269082327576  0.1268654427668633  0.4248151467813656
  0.4406144086361652  0.6894750783341157  0.9335733538522187
  0.0712413840749097  0.3323942313004012  0.4102209779864287
  0.6165616583794696  0.8364781203065642  0.9160656314831074
  0.6087526236464115  0.1620248213256390  0.5975963356692257
  0.1006461474861169  0.6784245435497125  0.0792526475956448
 
 -0.38814168E-02  0.67094635E-02 -0.77857724E-02
  0.42626848E-02 -0.90100679E-02 -0.38511868E-02
 -0.63529538E-03 -0.43448907E-02  0.18758036E-02
 -0.47309754E-02 -0.13394328E-02  0.33374160E-02
 -0.63139181E-02  0.30008153E-02  0.31680060E-02
 -0.98769993E-02  0.23565169E-02 -0.28188461E-02
  0.32404754E-03  0.58793932E-02  0.84208646E-03
 -0.88858373E-02 -0.62102932E-02  0.29510628E-02
  0.85946907E-02  0.47523072E-02  0.17586679E-02
  0.15493154E-03 -0.27214110E-02  0.10172594E-01
 -0.33485300E-02  0.55047069E-02 -0.10016367E-02
  0.10367852E-02 -0.50747122E-02  0.12835532E-01
  0.49821982E-02  0.14455537E-01 -0.27222263E-02
 -0.10173303E-02 -0.22077293E-02  0.17603106E-02
  0.54636859E-02  0.12631022E-01  0.29598069E-03
  0.94245117E-03  0.33251181E-03  0.36391576E-02
 -0.20254733E-02 -0.24088269E-02  0.23505723E-02
  0.15473613E-01  0.25233661E-02  0.40375806E-02
  0.36076559E-02  0.37894242E-02  0.12814042E-02
  0.67475966E-02  0.48883846E-02 -0.30843949E-02
 -0.18500896E-02  0.59427880E-02  0.78743349E-03
 -0.69157108E-03  0.28219479E-02  0.11550641E-01
 -0.53688444E-02  0.11389491E-02 -0.20529214E-02
 -0.12827809E-01 -0.38571828E-02 -0.22815181E-02
  0.20908682E-02  0.86942002E-03 -0.63128610E-03
  0.14313430E-01  0.73142324E-03 -0.16635258E-02
 -0.18046913E-02  0.15341100E-04  0.93571721E-02
  0.44716592E-02  0.27220580E-02  0.49811863E-02
  0.17963788E-02  0.14377459E-03 -0.43323990E-02
  0.69102459E-02 -0.24531565E-02 -0.19286540E-02
 -0.46729666E-02  0.42116427E-02  0.70450149E-02
 -0.30429918E-02  0.33219594E-02  0.79581158E-03
 -0.61781636E-02  0.43453324E-02 -0.15418789E-02
  0.14080991E-03 -0.41905452E-02 -0.62601068E-03
 -0.26353738E-02 -0.79040088E-02 -0.64672347E-02
 -0.35645639E-02  0.44322049E-02 -0.21731591E-02
  0.50311251E-02  0.54252588E-03  0.61971275E-02
  0.23525998E-02  0.31298514E-02  0.62580876E-02
 -0.10599032E-01 -0.26999239E-02  0.46390262E-02
 -0.27370154E-02  0.44305487E-03 -0.70726301E-02
  0.71224106E-02 -0.97475204E-02  0.19606501E-02
  0.40797601E-03 -0.31622987E-03 -0.43481327E-02
 -0.41490362E-02  0.80091991E-02  0.40198229E-02
 -0.49574959E-02 -0.56005970E-03  0.25455217E-03
  0.31578552E-02 -0.36593964E-02 -0.62053991E-02
 -0.58292758E-02 -0.63320904E-02 -0.21992199E-03
 -0.53224463E-02 -0.30086617E-02 -0.98678287E-05
  0.15226053E-02  0.36873405E-02  0.62727280E-02
  0.51556438E-02  0.44807508E-02  0.71209124E-03
  0.32953626E-02 -0.50544582E-03  0.11261622E-03
 -0.62790363E-02 -0.18532993E-02  0.30274181E-02
  0.34378722E-02  0.34602097E-02  0.81950504E-02
  0.22908267E-02  0.18692013E-02  0.22401667E-02
 -0.45957829E-02  0.86964582E-02 -0.71348610E-02
  0.60602108E-02 -0.72418719E-02 -0.59836058E-02
 -0.48661286E-02  0.82326366E-02  0.58877577E-02
 -0.45213747E-02 -0.54267859E-02  0.40488204E-02
 -0.39112574E-02 -0.75186986E-03 -0.32108493E-02
 -0.11657628E-02  0.10842846E-01 -0.33754697E-03
 -0.43389999E-02  0.23119573E-02  0.35900806E-02
  0.34942150E-02  0.30373458E-02  0.95766268E-02
 -0.28694480E-02 -0.16805521E-02 -0.28316095E-03
 -0.19271156E-02  0.51142099E-03 -0.15984728E-02
 -0.49808727E-02 -0.10047183E-01 -0.12713789E-02
  0.45539655E-02 -0.93836223E-03  0.57031878E-02
  0.65506691E-03  0.48058393E-02  0.32891680E-02
  0.12866573E-02  0.42128441E-02 -0.40544744E-02
 -0.36741482E-02 -0.59726015E-04  0.65901386E-02
  0.82670738E-02  0.12583082E-01 -0.27821169E-02
 -0.50234001E-02  0.75644987E-02  0.21764159E-02
 -0.65064192E-02  0.10138836E-01 -0.17693180E-02
  0.43087912E-02 -0.30195371E-03 -0.19566538E-02
  0.46297337E-03  0.32001309E-03  0.10386823E-01
  0.10402984E-01  0.56131233E-02  0.16086801E-02
  0.61898466E-02  0.91671171E-02 -0.21995843E-02
 -0.93562770E-02 -0.30320031E-03 -0.54562672E-02
  0.22260073E-02  0.20411950E-02 -0.29981699E-03
  0.33290144E-02 -0.34668282E-02  0.84568837E-02
  0.32876005E-02 -0.91018415E-03 -0.10392657E-02
 -0.87416201E-02 -0.77906992E-02 -0.53915430E-02
 -0.78689883E-03  0.20578720E-03 -0.73287151E-02
 -0.26156394E-02  0.66887169E-02  0.66885059E-02
  0.41099749E-02 -0.10019885E-01 -0.50774587E-03
  0.84141035E-02 -0.45369781E-02 -0.76009294E-02
  0.42156049E-02 -0.38029435E-02  0.41555815E-02
  0.28225252E-02 -0.24650919E-02  0.14421179E-02
  0.43257884E-02  0.19457281E-02 -0.33311514E-02
  0.43142161E-02  0.46669702E-02  0.71569923E-02
  0.33095043E-03 -0.27294979E-02  0.79347188E-03
  0.15530037E-02  0.24083234E-03  0.53501765E-03
 -0.27718181E-03 -0.58245355E-03  0.79451655E-03
  0.19379831E-02 -0.27616181E-02 -0.24789966E-02
 -0.36460496E-03  0.50285423E-02 -0.51309775E-03
 -0.11340597E-02 -0.15400095E-02 -0.51639728E-03
  0.27199855E-02 -0.21850384E-02 -0.14395795E-02
 -0.72387085E-03  0.24187997E-02  0.37522916E-04
  0.33567504E-02 -0.23577131E-03 -0.37129340E-02
 -0.16992037E-02  0.16671124E-02 -0.97985843E-03
 -0.49662186E-03 -0.53214641E-02  0.33944274E-03
  0.41936860E-02 -0.14798128E-02  0.90959870E-03
 -0.16122730E-02 -0.50713692E-03 -0.16169329E-02
  0.38641536E-03 -0.23889055E-02  0.32432270E-02
  0.25628441E-02  0.14051414E-02 -0.16585315E-02
 -0.57035562E-03 -0.31437856E-02  0.78923136E-03
 -0.56869827E-02  0.40123673E-02  0.16109924E-02
 -0.52061243E-03 -0.74950155E-02  0.35271329E-02
  0.68619899E-02  0.83321455E-02  0.45350596E-02
  0.51497127E-03  0.67888598E-02 -0.18469029E-03
  0.48425932E-03  0.43831604E-02 -0.45913408E-02
  0.67369512E-03 -0.28152842E-02 -0.16625466E-03
 -0.14607835E-02  0.17451645E-02  0.21660754E-02
 -0.10106763E-02 -0.11086314E-02  0.56046949E-03
 -0.23725505E-02 -0.34544564E-02 -0.11048422E-02
 -0.57640700E-02 -0.31066544E-02 -0.42970551E-02
  0.12227951E-03 -0.88100785E-02  0.45755128E-02
 -0.66254157E-02  0.41558087E-02  0.25316676E-02
 -0.92491300E-03  0.17973566E-02  0.94882908E-03
  0.14609406E-02  0.96111022E-03  0.89845925E-03
 -0.43589664E-02 -0.20852671E-02  0.18510660E-02
 -0.33613379E-02 -0.14677062E-02 -0.12574101E-02
  0.16055234E-02 -0.26967201E-03 -0.40379705E-02
 -0.15913976E-02 -0.31869482E-02 -0.49213346E-03
 -0.36415585E-02 -0.52451370E-02 -0.36491317E-02
 -0.40483092E-03  0.67591870E-02 -0.21361759E-02
 -0.63063298E-03  0.28562649E-02 -0.14437938E-03
  0.35850268E-02  0.40029604E-02 -0.58841645E-03
  0.43700194E-02 -0.40563047E-02  0.41397713E-02
 -0.65398650E-03  0.98496286E-03  0.29873645E-02
 -0.15645244E-02  0.54585742E-02 -0.55370684E-02
  0.32797594E-02  0.48909455E-03  0.67799086E-02
  0.88184303E-02  0.51399989E-02  0.10701339E-03
 -0.15558941E-03 -0.17640511E-02 -0.15603928E-02
  0.53154961E-02  0.40474799E-03  0.29589910E-02
 -0.23287893E-02 -0.53365186E-02  0.49209437E-02
  0.68504292E-02 -0.23165891E-02 -0.38921705E-03
  0.33735416E-02 -0.62413406E-02 -0.48233100E-02
 -0.77765250E-02  0.51281272E-02  0.37801435E-02
  0.24837754E-02  0.86440066E-02  0.29068004E-02
 -0.90407365E-02 -0.39434007E-02  0.44917927E-02
 -0.73121950E-02  0.70581950E-02 -0.12602802E-01
  0.23616922E-02 -0.47570760E-02 -0.35212959E-02
  0.54475718E-02 -0.30539195E-02  0.53317241E-02
 -0.25863714E-03 -0.48788023E-02 -0.32614027E-02
  0.10338429E-02  0.13923883E-02 -0.39460106E-02
  0.62213567E-03  0.38024391E-02  0.48421716E-03
 -0.43554669E-03  0.58800749E-02 -0.40770498E-02
 -0.77747938E-02  0.27731186E-02 -0.37511821E-03
 -0.59321916E-02  0.55733972E-02 -0.58088884E-03
 -0.19983128E-02 -0.91940176E-03 -0.53289612E-02
 -0.68953143E-03  0.40795795E-02  0.34111714E-02
  0.71862022E-02 -0.17122272E-02 -0.42244859E-02
 -0.34017458E-02  0.80069143E-03 -0.27774287E-02
  0.59549800E-02  0.16634788E-02 -0.21183412E-02
 -0.49594558E-02  0.73840789E-02 -0.25506832E-02
 -0.54036486E-02 -0.56986828E-02 -0.48106053E-02
 -0.30966384E-02 -0.11810943E-01  0.22452058E-02
  0.28752575E-02 -0.20076574E-02 -0.28608557E-02
 -0.23066354E-03 -0.37378805E-02 -0.68283375E-02
 -0.36808517E-02  0.17237590E-02 -0.31843073E-02
  0.19117545E-02  0.35106444E-02  0.47580084E-02
 -0.33940737E-02 -0.32752229E-02  0.16521205E-03
  0.61045410E-02  0.82737724E-03 -0.23762836E-02
 -0.60415117E-03  0.24278206E-02  0.20742810E-02
  0.76200922E-02 -0.18385786E-03  0.32631256E-02
  0.11004126E-01  0.30251236E-02  0.27972208E-02
 -0.52276470E-02  0.36058290E-02  0.32713720E-02
 -0.40573614E-02  0.70968191E-02 -0.27103616E-03
  0.75167829E-02 -0.83299384E-02  0.17363652E-02
  0.20174067E-02 -0.44292813E-02 -0.26827628E-02
  0.10745083E-02 -0.97122326E-02 -0.37620958E-02
  0.30237236E-03  0.17569917E-02  0.60262095E-02
 -0.82094036E-03 -0.93785948E-03 -0.38663526E-02
  0.17428350E-02  0.74589358E-03 -0.47606037E-02
 -0.76158818E-02  0.58992430E-02  0.57351312E-02
 -0.11637986E-01 -0.65475749E-03 -0.10198299E-02
 -0.25444318E-02  0.90616977E-02  0.73017955E-05
 -0.59268698E-02  0.17665937E-02 -0.36306280E-02
  0.19937833E-02 -0.73349344E-03 -0.43880073E-02
 -0.13597739E-02 -0.45650013E-02 -0.56388890E-02
 -0.39612731E-02 -0.62439588E-02  0.95468717E-02
  0.23573151E-02  0.52590059E-02 -0.45113902E-02
  0.93449021E-02 -0.28607899E-02 -0.14149796E-02
 -0.21813011E-02  0.57083974E-02 -0.38705152E-02
  0.41745295E-02 -0.80006779E-03 -0.84178430E-02
 -0.34934071E-02 -0.10287851E-02  0.71711506E-02
 -0.25994632E-02 -0.34569729E-02 -0.22118135E-02
 -0.54707395E-02  0.35123426E-02 -0.14321363E-02
  0.21336640E-02  0.65370005E-02 -0.60468787E-02
 -0.13329037E-02  0.14974049E-02  0.57918660E-02
  0.21005324E-02 -0.31294739E-02  0.56053540E-02
 -0.77808210E-02 -0.86988017E-02 -0.51005672E-02
 -0.61146920E-02  0.71757041E-02 -0.92597107E-03
 -0.19378297E-02 -0.40434101E-02  0.52788680E-02
 -0.34901519E-02 -0.11031700E-01 -0.13917806E-01
  0.15282454E-02 -0.20578028E-02 -0.82348812E-03
 -0.61551047E-03  0.10779358E-01 -0.38673282E-02
  0.73626232E-02  0.12936036E-02 -0.14722677E-02
 -0.37124063E-02  0.40576935E-02  0.29690570E-02
 -0.41391831E-02 -0.53269122E-02  0.95346737E-03
  0.61420833E-02  0.16302136E-02 -0.22281472E-02
 -0.39468834E-02 -0.50234876E-02 -0.46192389E-02
  0.13756698E-01 -0.33887646E-02  0.62742631E-02
 -0.79336058E-02  0.27589278E-02  0.39238757E-02
 -0.62097248E-02 -0.19662740E-02 -0.68294761E-03
  0.20723721E-02 -0.10425533E-01  0.60959364E-03
  0.38578778E-02 -0.80748703E-02  0.60301039E-02
 -0.30871323E-02 -0.24014389E-02 -0.68395254E-02
  0.38389104E-02 -0.68006069E-02  0.79791244E-02
 
           1
   2.00000000000000     
  0.86971114E+00  0.69066376E-04  0.00000000E+00  0.00000000E+00
  0.36547112E-01  0.35279885E-01  0.13807980E+00
  0.53343246E+00  0.51012494E+00  0.64125329E+00
  0.53149461E+00  0.50459526E+00  0.77283150E+00
  0.39006793E-01  0.97107559E+00  0.38653291E+00
  0.21411424E+00  0.18494126E-01  0.88266090E+00
  0.54649494E-02  0.46462513E+00  0.34478253E+00
  0.97666676E+00  0.49744838E+00  0.13214637E+00
  0.24280953E+00  0.24939511E+00  0.14273302E+00
  0.74266283E+00  0.34640278E-01  0.61639590E+00
  0.76147057E+00  0.23613868E+00  0.87285266E+00
  0.75149710E+00  0.76069282E+00  0.37433436E+00
  0.25186763E+00  0.25637838E+00  0.87134355E+00
  0.76720770E+00  0.36178247E-01  0.12301428E+00
  0.27394199E+00  0.74077091E+00  0.63947314E+00
  0.99162234E+00  0.96146534E+00  0.74869111E+00
  0.29388541E+00  0.50806251E+00  0.38604607E+00
  0.97251418E+00  0.18316882E-01  0.62342523E+00
  0.98082285E+00  0.45979094E+00  0.61989972E+00
  0.34950784E+00  0.40285453E-01  0.12605921E+00
  0.49917209E-01  0.48006178E+00  0.87384736E+00
  0.51268208E+00  0.18064249E-01  0.36172984E+00
  0.26038059E+00  0.25816023E+00  0.36475774E+00
  0.77558101E+00  0.74569671E+00  0.87280564E+00
  0.74886628E+00  0.37735631E+00  0.62245022E+00
  0.23740340E+00  0.70069128E+00  0.32181360E-03
  0.22142845E+00  0.25186584E+00  0.61475089E+00
  0.74030650E+00  0.49509205E+00  0.13343706E+00
  0.71833801E+00  0.26617749E+00  0.36185601E+00
  0.27692420E+00  0.76244010E+00  0.50795856E+00
  0.47982354E+00  0.24621454E+00  0.96927003E+00
  0.25124361E-01  0.48839863E+00  0.49379439E+00
  0.48061183E+00  0.95336479E+00  0.74002583E+00
  0.15559216E-01  0.77151415E+00  0.26673534E+00
  0.52532737E+00  0.24982472E+00  0.75486228E+00
  0.24967139E-02  0.51979271E-01  0.98876573E+00
  0.53099258E+00  0.24633464E+00  0.47123513E+00
  0.49975870E+00  0.75965244E+00  0.12470796E-01
  0.45433008E+00  0.27729405E+00  0.23312558E+00
  0.68049253E-01  0.72785669E+00  0.75920396E+00
  0.52336093E+00  0.74860898E+00  0.24466285E+00
  0.98231291E+00  0.44048952E-01  0.28081280E+00
  0.54529668E+00  0.74516341E+00  0.72541876E+00
  0.49166999E+00  0.26828489E-01  0.87684978E+00
  0.99292224E+00  0.52146576E+00  0.22994702E+00
  0.24943655E+00  0.24468598E+00  0.62136096E-02
  0.71309347E+00  0.71303112E+00  0.50118831E+00
  0.31941953E-01  0.74380195E+00  0.49427344E+00
  0.72662382E+00  0.29147896E+00  0.20939753E-02
  0.97303070E+00  0.23784380E+00  0.73039942E+00
  0.47882325E+00  0.52910703E+00  0.26450304E+00
  0.35722465E-01  0.49962095E+00  0.75831879E+00
  0.48711152E+00  0.14337398E-01  0.23900468E+00
  0.22271454E+00  0.26347126E+00  0.48992726E+00
  0.75336303E+00  0.77436143E+00  0.60264800E-02
  0.76371100E+00  0.21609508E+00  0.51161984E+00
  0.13263572E-02  0.77698453E+00  0.99870648E+00
  0.96163114E+00  0.28448233E+00  0.19229415E-01
  0.50102705E+00  0.56090806E+00  0.50409968E+00
  0.50318099E+00  0.46040166E+00  0.99789159E+00
  0.14304705E-01  0.98324324E+00  0.50937079E+00
  0.50224566E+00  0.22441345E-01  0.18014958E-01
  0.75001145E-02  0.23384026E+00  0.50004711E+00
  0.11093136E-01  0.50472994E+00  0.48710430E-02
  0.51577602E+00  0.98226598E+00  0.50524197E+00
  0.34787039E-01  0.25180758E+00  0.23039986E+00
  0.79168304E+00  0.72066702E+00  0.74707007E+00
  0.25062668E+00  0.74574368E+00  0.25585083E+00
  0.72686485E+00  0.24195906E+00  0.72670273E+00
  0.74380489E+00  0.74490982E+00  0.26306708E+00
  0.26052793E+00  0.24521405E+00  0.75122278E+00
  0.72895442E+00  0.23042515E+00  0.21530972E+00
  0.28696377E+00  0.77983335E+00  0.77275908E+00
  0.25439583E+00  0.54526836E+00  0.12965394E+00
  0.49621652E+00  0.99281318E+00  0.63107273E+00
  0.78432994E+00  0.39972420E-02  0.87212869E+00
  0.20857297E+00  0.74010712E+00  0.39135420E+00
  0.33631105E+00  0.54669709E+00  0.88487437E+00
  0.77760765E+00  0.98563750E-02  0.37904296E+00
  0.74639645E+00  0.77532912E+00  0.11421890E+00
  0.28877573E+00  0.48885350E+00  0.63672589E+00
  0.72953151E+00  0.49951141E+00  0.86749444E+00
  0.29485844E+00  0.98076905E+00  0.37189216E+00
  0.75629222E+00  0.72328800E+00  0.60534615E+00
  0.23707886E+00  0.82914269E+00  0.11605276E+00
  0.22896093E+00  0.99254308E+00  0.62929669E+00
  0.49629593E+00  0.50810381E+00  0.11296046E+00
  0.27227755E+00  0.76438435E+00  0.88278658E+00
  0.69130763E+00  0.53486977E+00  0.36302463E+00
  0.26109778E+00  0.44239911E-02  0.25836794E+00
  0.78614344E+00  0.48417439E+00  0.75746089E+00
  0.24484950E+00  0.74176619E-02  0.75031949E+00
  0.73333013E+00  0.47647119E+00  0.25129078E+00
  0.26086804E+00  0.98502583E+00  0.99999378E+00
  0.76976731E+00  0.48177783E+00  0.48675299E+00
  0.26925343E+00  0.18789776E-01  0.50177916E+00
  0.74292661E+00  0.51594985E+00  0.99323173E+00
  0.72958453E+00  0.97739682E+00  0.74910309E+00
  0.23464276E+00  0.50261487E+00  0.25281865E+00
  0.27658725E+00  0.48837003E+00  0.75347760E+00
  0.76831034E+00  0.98599705E+00  0.25174144E+00
  0.26850434E+00  0.52232151E+00  0.51983303E+00
  0.74981140E+00  0.34636037E-01  0.35533247E-02
  0.77092403E+00  0.96550493E+00  0.49996066E+00
  0.24706821E+00  0.46849713E+00  0.99870903E+00
  0.77394424E-02  0.20919876E+00  0.37236537E+00
  0.50505376E+00  0.76602115E+00  0.87431690E+00
  0.49774222E+00  0.24872334E+00  0.62955222E+00
  0.15342667E-01  0.75760863E+00  0.12917522E+00
  0.98297658E+00  0.25083192E+00  0.87335194E+00
  0.49659270E+00  0.74523910E+00  0.38443023E+00
  0.13871609E-01  0.73779294E+00  0.63108228E+00
  0.49263668E+00  0.27320182E+00  0.10837344E+00
  0.12332438E+00  0.38603830E+00  0.50586598E-01
  0.66839124E+00  0.87828165E+00  0.55326290E+00
  0.64386239E+00  0.12861523E+00  0.95104723E+00
  0.16321336E+00  0.60745631E+00  0.45754173E+00
  0.34528292E+00  0.37477872E+00  0.94107644E+00
  0.86561037E+00  0.85286807E+00  0.45072399E+00
  0.85781172E+00  0.13076842E+00  0.57824682E-01
  0.38149462E+00  0.61189605E+00  0.57356740E+00
  0.88560077E+00  0.72209055E-01  0.19902537E+00
  0.40117345E+00  0.58831401E+00  0.71612278E+00
  0.86544137E+00  0.90449778E+00  0.31757469E+00
  0.36426109E+00  0.38125734E+00  0.80632211E+00
  0.14764847E+00  0.60541998E+00  0.30726326E+00
  0.63297985E+00  0.98672128E-01  0.79802302E+00
  0.13725561E+00  0.40758693E+00  0.19228510E+00
  0.65720970E+00  0.89917709E+00  0.67978658E+00
  0.85546133E+00  0.63821793E+00  0.94609676E+00
  0.37434843E+00  0.12767432E+00  0.44853956E+00
  0.87511899E+00  0.36458299E+00  0.53680720E+00
  0.37172209E+00  0.88326855E+00  0.55834943E-01
  0.14619087E+00  0.10969053E+00  0.54560847E+00
  0.66044167E+00  0.62268366E+00  0.47841512E-01
  0.16744058E+00  0.88010729E+00  0.94979711E+00
  0.66245592E+00  0.38946850E+00  0.43415569E+00