Na88 Ge16 P8 Se96                       
   1.00000000000000     
    13.9614333504000001    0.0000000000000000    0.0000000000000000
     0.0000000000000000   13.9614333504000001    0.0000000000000000
     0.0000000000000000    0.0000000000000000   27.9228667008000002
   Na   Ge   P    Se
    88    16     8    96
Direct
  0.2441299649721811  0.9843335929546109  0.1335846244151997
  0.3064637547432924  0.5816077642186146  0.3833121837981529
  0.4800959698280832  0.5390875233071504  0.9538167547588662
  0.7727981360843905  0.0052334227563000  0.3833863055817559
  0.9987449138074700  0.2535496971503687  0.7366960647613537
  0.8411291520882337  0.7725777031357537  0.3501160652767485
  0.2396446764389085  0.5314532831872124  0.1153509741681326
  0.0133665865427312  0.2718142299190092  0.2348810073760836
  0.6257318020532142  0.4464819752371731  0.6259757195443790
  0.7075883224459099  0.5649913319063370  0.8795866076811096
  0.7687399170813790  0.7699922777301125  0.2196033015191820
  0.2591226349792394  0.5187599267081033  0.8629859009208718
  0.5351305009726177  0.3940391173233307  0.0388097011293605
  0.3411458151991660  0.7046708536475131  0.4835308885514063
  0.9476359231188246  0.0033441547592589  0.7714703333483880
  0.2752170121097386  0.2528196124838835  0.3678845637235884
  0.2795519108394636  0.7180568431035214  0.6345439062308899
  0.9902754394079055  0.4547148777935118  0.6211376335009342
  0.4981357486819981  0.0067648983275274  0.1352873373851808
  0.6996953516928313  0.8246039115418882  0.8860012603688275
  0.0524913217154690  0.9983746958067610  0.3934693948261930
  0.3799668334365163  0.1734763272252443  0.2070075527217103
  0.3144228744113320  0.1805467279861643  0.8773545058137967
  0.8173368471025877  0.2175094848141372  0.6339283414177218
  0.2768416203344868  0.7373688918363007  0.9733291676919863
  0.2318600983759202  0.2125782507722604  0.6506109249618005
  0.7547788210670818  0.7921130333023263  0.0085638914801001
  0.8047863493972647  0.4644297983329384  0.3654088645671064
  0.7563965618783492  0.7054053345267888  0.4876954137358379
  0.5220311098545894  0.9638962500077095  0.9818463194748702
  0.0228120932362900  0.4620868988083104  0.5017291603923334
  0.7834314077789296  0.3418877348398988  0.8815926810960281
  0.0203690241278863  0.7783932643601686  0.2590098806006729
  0.4130272092359633  0.2705973010644092  0.7372417097124543
  0.9977518278609582  0.6363421467304496  0.0175576509501050
  0.5021282463700782  0.8923713227258261  0.6248337802953775
  0.4872639410670088  0.7581059632355915  0.0976168727618155
  0.5304142092388787  0.2468585940821887  0.2863548741927366
  0.8754417968499596  0.1413809049424954  0.9314504753641626
  0.5094104741830046  0.9808462608681928  0.2797708339759667
  0.0195924445021754  0.0683375506992503  0.1302906407718696
  0.4843742225902714  0.5375081464280467  0.7965699875478347
  0.4667226456709614  0.9976211808666372  0.7491103090376049
  0.1635463639491260  0.3826633119845635  0.4118501142623737
  0.5165969658537312  0.5410265269687518  0.1302522187391961
  0.7762665471669313  0.5911828389479917  0.6361370728837533
  0.0387443712800651  0.7474297047314564  0.4976028425436763
  0.7311968820791096  0.3243893954314899  0.0189173728089228
  0.0077995269884874  0.9561608383241846  0.5323029634617592
  0.0525704456461943  0.5275868356639367  0.1275501495237179
  0.9972575159815023  0.4711302045987665  0.7599301175955501
  0.5320804046869005  0.0415355267963525  0.3873876698244748
  0.3057810337946383  0.2394744356818979  0.5199669254419444
  0.9683092761436035  0.5470548401901134  0.9046225103912431
  0.4797183167653000  0.0854091028229148  0.5340589512056932
  0.2955565110670227  0.9263370845073423  0.8928394243751882
  0.0130608990072381  0.9506485354386873  0.0169418638649487
  0.5275411081684344  0.4523599261365582  0.3834498622121157
  0.5126710776422401  0.7860157769191133  0.7685307463995066
  0.9761155090097213  0.2239648002761452  0.5211552302209049
  0.6921845565545504  0.0714899938156353  0.8800735588564963
  0.4983634987204483  0.8875585175394505  0.4685520588077366
  0.9969542704393739  0.2564230529967996  0.0184430207009528
  0.2103283180972066  0.9796079906939869  0.6363558269995402
  0.7520417945913200  0.2659009210951027  0.2118369333930995
  0.8183278865650657  0.7052981498838675  0.7708302715148736
  0.2243550608651607  0.7396813978920038  0.1815328836750056
  0.6885027453206645  0.2376393079646370  0.5103598763450794
  0.8161205883875488  0.9650220063947017  0.1344170868470180
  0.1771332146584992  0.1709646156736443  0.8014225524889980
  0.4815352455163531  0.5048918089321965  0.2468770313001514
  0.0440196352860714  0.7253211435076589  0.7440208150724995
  0.7609087943622834  0.5478570604999887  0.1182526747641569
  0.7463633418298078  0.9221367829627353  0.6241105429593871
  0.7443835102191947  0.2214277476691623  0.7570711507620741
  0.2927921347737792  0.9800669362897504  0.3753625675373383
  0.2741280484696444  0.2549741849883262  0.9999680259355672
  0.7466189751401707  0.2315951045081954  0.3876580169123985
  0.6694098488396185  0.1298739601515440  0.1029002837806170
  0.3238139454554206  0.4777480096441900  0.6281208764982913
  0.2948975970322588  0.7085055800748473  0.7652966336830320
  0.0305053031597657  0.0484195161972704  0.2815103570445335
  0.5023924705682407  0.4196658153140809  0.5153971995033457
  0.2076959578791218  0.2613678162436592  0.1258306389101516
  0.9774317946691401  0.9414459153257814  0.6523540654057957
  0.9921966612482577  0.4734683862737394  0.2842941880671737
  0.0253492067294770  0.9436595152755420  0.8750807502068421
  0.3154150167933645  0.7419775116967248  0.2929160668155992
  0.2727268764641134  0.0164303192561588  0.2580431146362170
  0.7291392221281976  0.4751210108263840  0.7545557765917669
  0.2055243656026605  0.9420246504660421  0.7495910334201199
  0.7585963778956351  0.5109125919021167  0.2376726817895863
  0.2575727265215374  0.0049364946739456  0.0046158933813058
  0.7487674270888559  0.4583474911146556  0.4886942659487580
  0.2764649769752536  0.9658749000789321  0.5066378251562023
  0.7469284597475456  0.5716634949880118  0.9930155291582841
  0.7288523526949479  0.9598451334456916  0.7549854846659748
  0.2382242748696249  0.4970837697158552  0.2569006091305438
  0.2751824781692708  0.4746022472946476  0.7541882156369631
  0.7652571325247547  0.0134340427505037  0.2540128311717663
  0.2620259033459056  0.4903975706385018  0.5130991456595736
  0.7409730834161330  0.0244813721217977  0.0033558577949610
  0.7605384359681623  0.9873842432873160  0.5075961085480395
  0.2614260811444233  0.4773296455864835  0.9997675421288584
  0.0132778788200248  0.2438997708677076  0.3824292971541888
  0.4779542765538956  0.7651877017906243  0.8931716875297564
  0.5130145216763508  0.1827355080701925  0.6346062218997364
  0.0325796995782611  0.7706219923079972  0.1295771017982802
  0.9992657976829520  0.2741319365568571  0.8709887765012555
  0.5329847101960111  0.7373684511331975  0.3779094058472090
  0.0217487807016237  0.7095338968033781  0.6255430386456650
  0.4941346920450757  0.2882785850012969  0.1403756811077433
  0.1458116301518012  0.3739735125881828  0.0435970451168667
  0.6671944775611878  0.8645673959111925  0.5484746068400169
  0.6644292975238105  0.1556263219166270  0.9699008861271116
  0.1768714663609172  0.5963538601436251  0.4632429762549439
  0.3479768597425246  0.3739353956977112  0.9365739992795801
  0.9039328860073779  0.9208789405735034  0.4630175726854058
  0.8631084391918610  0.1076261430620152  0.0440615422341657
  0.3731438567561601  0.5855591310261489  0.5528047086093474
  0.8532195572034399  0.1035626143575614  0.2002842435350105
  0.3934509667576343  0.5766824248828103  0.7156153747428495
  0.8762470028175743  0.9224120494448484  0.2945357111413405
  0.3407209067066641  0.3615093550093311  0.8009914319863964
  0.1421787073534472  0.6131273875672943  0.3100743770265316
  0.6336276615362819  0.0812820704726742  0.7842124562652422
  0.1229064594775470  0.4191118129174585  0.2132632402659097
  0.6495875172168039  0.8540858936688861  0.7098097869431013
  0.8470293666171006  0.6811216177286646  0.9347580521071467
  0.3740305198340452  0.0794017824527591  0.4601509787810484
  0.8301221954162039  0.3538843571703104  0.5424791245612280
  0.3794824663999463  0.9266363481401456  0.0611946856813433
  0.1669366772940716  0.0758349528607856  0.5518040008655862
  0.6437299763830103  0.6211704893711222  0.0529636083820926
  0.1495776319430409  0.8914961884864069  0.9650141738871787
  0.6441144808305022  0.3674066210957625  0.4393264539454920
  0.6700422865952299  0.4003370171502088  0.2902904922198994
  0.0683092242501667  0.8627768349517591  0.7938071591185775
  0.1174930421223918  0.0822778094222683  0.7103090089781620
  0.6506784465866308  0.6287748889352556  0.1988752444989141
  0.8267249243936216  0.3999919463879340  0.6882896327485034
  0.3584753262960564  0.8925461913595156  0.2208482406741178
  0.3646875058630641  0.1110073831383205  0.3110060346975206
  0.8465431506749311  0.5389525252440549  0.8121118681717518
  0.1398010666895088  0.1062000829714166  0.0458528893407413
  0.6615731653225218  0.5639947995830332  0.5379129556604334
  0.6682047175426481  0.4600251490694857  0.9502867918872392
  0.1678231319865000  0.8837374611478850  0.4561563127997551
  0.3791700981803762  0.0784534427232076  0.9558469200348062
  0.8619923978286880  0.5617584630363364  0.4432880585627926
  0.8516769318252103  0.4637918199118053  0.0405955559261588
  0.3708014378493439  0.8444211612442600  0.5506289790074268
  0.1669872205758459  0.1240616227040269  0.2035122458690633
  0.6665140838129456  0.5961213507173465  0.7110775741562840
  0.1628875848098519  0.9089156268322596  0.3057554987011866
  0.6233526173668735  0.3881041678636071  0.7971192530332988
  0.8408595684154504  0.5971674069556231  0.2954942347277539
  0.2910979668954348  0.0325548547613052  0.8033195459380091
  0.8735727356949056  0.4362025891369457  0.1891861131550265
  0.3318392266124136  0.8587561168794408  0.6999270753656840
  0.8251926732405740  0.9373440826918711  0.9429301595416865
  0.3831803753696952  0.3905463031281421  0.4431632962563442
  0.8617494112709174  0.0540088623091515  0.5746766643106911
  0.3729165929640827  0.5613639017499792  0.0312936055064976
  0.1727024408081237  0.3760435856081725  0.5577271556496084
  0.6574231778320376  0.9300962967899572  0.0624218509307396
  0.1560071993644443  0.5761415900367421  0.9628630350769826
  0.6621664794429909  0.0883814102528659  0.4577648346141284
  0.3436361572931625  0.4447271358741168  0.3179218481739377
  0.8266993294686372  0.8830061190262750  0.8177199206001845
  0.8322336653677040  0.0494595457798387  0.7013955380641337
  0.3373612515594376  0.6057751897802756  0.2001723249498762
  0.1852876695076620  0.3997672555029914  0.6962019631759848
  0.6571534450283302  0.9236855928299883  0.2104848770786744
  0.6626692256942588  0.0940219301622917  0.3103764449738803
  0.1614124804494348  0.5722399356504462  0.7912904196484641
  0.1200458983202481  0.2959095406862216  0.3286953125083791
  0.5119723804999484  0.7802113624063546  0.9682389615296334
  0.5667108989173465  0.2976878061851103  0.6874097275560331
  0.0916417032498020  0.8968307984783240  0.1736665745850610
  0.4049926611786859  0.0926903964924364  0.6612933796760231
  0.9439219739038682  0.6687430415350031  0.1816735701548935
  0.9394914960294418  0.3683143550093554  0.4107936798243292
  0.5042339788059270  0.9238375043492202  0.8725753173492626
  0.9306738851752705  0.3455777457999070  0.9387903676457687
  0.5896355469602006  0.6299332546851081  0.3307228338103464
  0.1004748444576101  0.8319029168929031  0.5959296440225598
  0.4371597969694420  0.2073057865057735  0.0726944016486738
  0.9484857008722293  0.6242320856986641  0.5692803481674527
  0.3989156685949665  0.3863104055331523  0.1691265444389597
  0.0656877658490332  0.1451709634697479  0.8945423953622434
  0.5766769463174118  0.6941055702118015  0.4456022794973215
  0.9036052790701319  0.7643942666402320  0.6652473636602360
  0.6192796873087795  0.3942391493560766  0.1352921209299772
  0.0923186816881919  0.3556485305033080  0.8335141706600311
  0.3612310719043532  0.7816507443659513  0.3807984826285897
  0.8838526035712247  0.2157387891705603  0.8215526374124131
  0.6103862124722301  0.8724458191060284  0.3527395138174939
  0.1144303048831015  0.5906261083751352  0.6542635759116150
  0.5693270121835572  0.1742371141594173  0.1870127652544149
  0.4429346019437473  0.2732961753615797  0.5773801676697048
  0.9462941362986216  0.8207835481582449  0.0722272636960650
  0.9021010750908063  0.1699844673416350  0.3504759085320316
  0.5709306471982484  0.6866610780975579  0.8464166894868879
  0.1006579135196731  0.1726260265020993  0.4399307472659053
  0.3112724819101286  0.7442444301369674  0.8790080441394922
  0.6409467755608939  0.0971173561059046  0.6071909371516978
  0.1418252251076020  0.6995216528806868  0.0869182254056133
 
 -0.66285368E-02 -0.77211385E-02 -0.26866418E-02
  0.45901318E-02  0.98915928E-02 -0.36305478E-02
 -0.76905212E-02 -0.17252247E-01 -0.94045061E-02
  0.16387266E-02  0.14933005E-01 -0.56913484E-02
 -0.70158067E-03 -0.29627313E-03 -0.43814192E-02
 -0.34005919E-02  0.40584605E-02  0.10750287E-02
 -0.66876866E-02  0.11148819E-02  0.22530851E-02
  0.27711771E-03  0.17685743E-02 -0.30281500E-02
 -0.46442139E-02 -0.10498267E-02  0.64597305E-02
 -0.20539099E-02 -0.41844839E-02  0.52181483E-02
  0.52137068E-02 -0.56584059E-02 -0.11142969E-01
 -0.11480058E-01  0.12549321E-01  0.48228733E-02
 -0.59276887E-03 -0.77402476E-02 -0.54154784E-02
  0.11719683E-02  0.58993118E-02 -0.15607303E-02
  0.96105791E-02  0.37105834E-02  0.76955907E-02
  0.28335209E-02  0.24931967E-02 -0.57344951E-02
 -0.49702325E-02  0.58464256E-02  0.23221405E-02
  0.12966927E-01  0.12346746E-01 -0.17402890E-02
 -0.35460650E-02  0.39665557E-02 -0.12802319E-01
  0.47318574E-02  0.28904563E-02 -0.10221831E-01
 -0.45709059E-02 -0.23955455E-02 -0.26502556E-03
  0.32252719E-03  0.10946103E-02  0.72817268E-02
  0.25632841E-02  0.76872811E-02  0.86857748E-02
  0.99166474E-02 -0.56591747E-02 -0.60463065E-02
 -0.55758590E-02 -0.12119072E-01 -0.43710619E-02
  0.69587323E-02 -0.13856606E-01 -0.52413723E-02
  0.71004545E-02 -0.30054189E-02 -0.51464370E-02
 -0.60234039E-02 -0.64574033E-02  0.81102937E-02
  0.23283915E-02 -0.97420653E-02  0.26988770E-02
  0.32262438E-02 -0.14196383E-02 -0.10661539E-01
  0.46529777E-02  0.37976979E-02  0.72236238E-02
  0.70513841E-02 -0.31243636E-02 -0.11682269E-01
  0.11417454E-01 -0.11489415E-02 -0.19076181E-02
  0.64534384E-02  0.80216659E-02  0.14860087E-02
  0.23578679E-03  0.44253970E-02 -0.11471812E-01
  0.57273195E-02 -0.20853462E-02 -0.74521875E-02
  0.17460918E-02  0.19555130E-03  0.11188603E-02
  0.14580570E-02 -0.11021409E-01  0.72119137E-02
 -0.10203998E-01  0.13271041E-01  0.10983830E-01
  0.11585641E-01  0.25515491E-03  0.13374049E-02
 -0.68110987E-02  0.12724082E-01  0.41663208E-02
  0.42232638E-03 -0.87076661E-02  0.32623429E-03
  0.14696891E-01  0.37555434E-02 -0.70527022E-02
  0.16476526E-02  0.35886479E-02 -0.11995030E-01
 -0.15298817E-02  0.53222098E-02 -0.17497602E-02
  0.55322433E-02  0.38836554E-03 -0.14628281E-02
  0.35393409E-02  0.18811750E-02  0.87984230E-02
 -0.73077998E-02 -0.42734262E-02  0.77765250E-02
  0.14294682E-02 -0.96812667E-02  0.69416892E-03
  0.14132510E-01 -0.51279511E-03 -0.31710038E-02
 -0.24720031E-02 -0.38436308E-02 -0.88804545E-02
  0.70487393E-02 -0.10334555E-01  0.52029827E-02
  0.11113327E-01  0.60900656E-02  0.25622647E-02
 -0.42717621E-02  0.17786602E-02 -0.84986373E-02
 -0.58136113E-02  0.14395978E-02 -0.41202531E-02
  0.17508588E-02  0.50965312E-02 -0.67569644E-02
 -0.37645662E-02 -0.84914342E-03 -0.22226447E-02
 -0.39443292E-02  0.17921864E-03  0.15881685E-01
  0.65352432E-02  0.18044895E-02  0.46791156E-03
 -0.38319449E-02 -0.41080205E-03  0.90134706E-03
  0.34759206E-02 -0.11498484E-01  0.10087264E-01
  0.39794293E-02 -0.21670796E-02  0.19736739E-02
  0.14779935E-02 -0.83823214E-03  0.26351192E-03
 -0.59276080E-02 -0.48643381E-02 -0.14731731E-02
  0.20014397E-02  0.10855406E-01  0.15000069E-02
 -0.14375463E-02  0.43096297E-02  0.16456290E-01
  0.47277694E-02 -0.22811585E-02  0.59362597E-02
 -0.91436227E-03 -0.30236461E-02  0.62748508E-04
  0.83016647E-02 -0.72910660E-02 -0.13273930E-02
 -0.20348260E-02  0.47446198E-02 -0.37055892E-03
  0.17792015E-02  0.60801776E-02 -0.19413097E-02
 -0.61023111E-02  0.10855286E-02 -0.38377247E-02
  0.16511751E-01  0.81301172E-02 -0.43264389E-02
 -0.13513449E-01  0.72562176E-02  0.78589834E-02
 -0.48207465E-02  0.13378640E-01  0.24088476E-03
  0.74697464E-02 -0.87427505E-02  0.27800890E-02
 -0.63115785E-02 -0.32899871E-02  0.29840461E-02
 -0.36902903E-02 -0.10087486E-01  0.66486976E-03
 -0.51683835E-02  0.98462840E-03 -0.55433312E-02
 -0.15651682E-01  0.13683579E-01  0.21544392E-02
 -0.93861079E-02  0.77390210E-03  0.73101516E-03
  0.14250471E-02  0.33979926E-02 -0.94109080E-03
 -0.48350751E-02  0.31073818E-02 -0.17426880E-02
 -0.81565632E-02 -0.22703106E-02  0.53338424E-02
  0.53607563E-02  0.82411141E-03  0.81089608E-03
  0.15870833E-02 -0.15407306E-02  0.46470218E-02
 -0.10985074E-02 -0.63103679E-02  0.11047506E-01
  0.12530352E-01  0.13651895E-02 -0.71622733E-02
 -0.65569808E-03  0.25780239E-02 -0.27305298E-02
 -0.30713927E-02 -0.11801279E-02 -0.38138973E-02
  0.28045162E-02 -0.46063257E-02 -0.79663680E-03
  0.26019178E-02  0.22941682E-02  0.31722772E-02
 -0.48247745E-02 -0.14025540E-02  0.30540115E-02
  0.48642572E-02 -0.15404157E-02  0.50060948E-02
 -0.33356927E-02 -0.18217722E-02 -0.19016935E-03
 -0.54457231E-02 -0.23053752E-02 -0.21576444E-02
  0.21930122E-02  0.24904821E-02 -0.55546604E-03
  0.38330427E-02  0.92730080E-05  0.72180334E-02
  0.18541076E-02  0.98382249E-03 -0.18041431E-02
  0.60258691E-03 -0.10258493E-02  0.11862956E-02
 -0.41991993E-02  0.89505389E-02 -0.97124516E-03
  0.19884707E-02 -0.29104398E-02 -0.57519191E-02
  0.35736908E-03  0.93944962E-03  0.42537504E-02
 -0.56027437E-03 -0.71606378E-02 -0.11756527E-02
  0.47178320E-02 -0.39790855E-02  0.19961265E-02
 -0.28125639E-02 -0.85243892E-02 -0.93270109E-02
  0.38305318E-02  0.32070326E-02 -0.93394786E-02
 -0.42993562E-03  0.24600532E-03  0.38962014E-02
 -0.44606968E-02  0.96220879E-03  0.53189169E-02
 -0.65344677E-02 -0.21466365E-02 -0.39159091E-04
  0.38323768E-02  0.41438263E-02  0.11622464E-01
  0.24241891E-02  0.31869984E-02 -0.11416874E-02
 -0.41644788E-02  0.38006016E-03 -0.69953565E-03
 -0.19657461E-02  0.12650136E-02 -0.85417297E-03
 -0.28328046E-02 -0.44027855E-02  0.27511086E-02
 -0.74523306E-03  0.12064874E-02 -0.18142788E-02
  0.74737333E-03 -0.18844656E-02 -0.24214831E-02
  0.58834085E-03 -0.18275175E-02 -0.63269299E-04
 -0.14668253E-02 -0.32858386E-02  0.32276985E-02
  0.31515033E-02  0.64538897E-03  0.43240532E-02
  0.20807713E-02 -0.27195155E-02 -0.39471731E-03
 -0.44577720E-02  0.14320205E-02 -0.49623380E-02
  0.49122061E-02 -0.42436716E-03 -0.10816124E-02
 -0.25188116E-02  0.25356660E-02 -0.62525827E-02
  0.33035703E-03  0.46561524E-02 -0.32062596E-02
 -0.18988719E-02 -0.21198801E-03  0.40882885E-03
 -0.38064450E-02  0.33035541E-02  0.16039944E-02
  0.59046472E-03  0.57248027E-02 -0.37373905E-02
 -0.26489136E-02 -0.75672646E-03 -0.39900474E-02
 -0.27261770E-02 -0.22157217E-02  0.47626986E-02
  0.56839605E-02  0.15615614E-02 -0.73817991E-03
 -0.31678015E-02 -0.44562698E-02  0.11659537E-02
  0.61481322E-03  0.55137981E-02  0.59421537E-02
  0.43088923E-02 -0.14657109E-02  0.31835027E-02
  0.10861922E-02 -0.40197284E-03  0.31889018E-02
 -0.37118765E-02 -0.26831607E-02  0.35775901E-02
 -0.65410652E-02 -0.19149088E-02  0.82550349E-03
  0.63105314E-02 -0.18055728E-02 -0.79897586E-02
  0.14066435E-02  0.22334070E-02  0.13629943E-02
  0.14033134E-02 -0.89839198E-02  0.73995621E-02
  0.17488438E-02  0.22720723E-03 -0.24851992E-02
 -0.30379021E-02  0.50293455E-02  0.61444771E-02
  0.61805669E-02  0.62759445E-03 -0.74436374E-03
 -0.59127141E-03  0.57666205E-02 -0.29682557E-03
  0.37295523E-03 -0.33734591E-02  0.44217190E-02
 -0.42591812E-02 -0.43487401E-02  0.38595924E-02
 -0.59581443E-03  0.19689288E-03 -0.35710724E-02
 -0.31153071E-02  0.30898377E-02  0.10640798E-02
 -0.20948447E-02  0.29910217E-02  0.34813326E-02
  0.76114059E-02 -0.39119288E-02 -0.29735626E-03
 -0.29774692E-02 -0.30488514E-02  0.17515082E-02
 -0.31106577E-02 -0.15054277E-02 -0.23521829E-02
  0.43119150E-02  0.38362270E-04 -0.18025780E-02
  0.10914560E-02  0.30350273E-02 -0.52727839E-03
  0.64286449E-02 -0.57323578E-02 -0.23982339E-02
  0.76556071E-03  0.12301393E-02  0.92248368E-03
 -0.31187185E-02 -0.77334283E-03 -0.96312884E-03
  0.23291567E-02  0.16155137E-02  0.33422997E-02
 -0.21465416E-02 -0.63977662E-03  0.15739044E-04
 -0.11709638E-02  0.22894419E-02 -0.34274286E-02
  0.13231109E-02 -0.34657678E-02 -0.51630082E-03
 -0.15007869E-02 -0.31901388E-02 -0.42058497E-02
 -0.36125438E-02 -0.26871751E-02 -0.21539908E-02
  0.91795875E-03  0.28026340E-02 -0.23966695E-02
 -0.66660096E-02 -0.34915858E-02  0.81074933E-04
  0.25388560E-02  0.67458409E-02 -0.93895097E-04
  0.16106151E-02 -0.57638713E-03  0.24078197E-02
 -0.18284407E-02 -0.11824461E-02  0.15785283E-02
 -0.31064403E-02 -0.25992221E-02  0.47554562E-02
 -0.75299834E-03 -0.18941731E-02 -0.11067273E-02
  0.55977978E-03  0.33063790E-03  0.12682722E-02
 -0.39100003E-02  0.32552101E-02 -0.10361713E-01
  0.10812708E-02  0.21453040E-02 -0.32196104E-03
 -0.13904649E-02  0.57157131E-03  0.13968452E-02
 -0.12786892E-03 -0.75775502E-03  0.35625443E-02
  0.11904057E-02 -0.50493808E-02 -0.42751021E-02
  0.25099066E-02 -0.65429294E-03 -0.13346475E-02
 -0.35032712E-02 -0.46407919E-03 -0.19139477E-02
  0.25353536E-02  0.53807921E-02 -0.49234050E-02
 -0.18831751E-02  0.23530346E-02  0.44041310E-03
 -0.24828635E-02  0.33070665E-02 -0.35275355E-02
  0.10752328E-02  0.12749199E-02  0.62814118E-02
  0.11978273E-02  0.41227299E-03  0.38449787E-02
 -0.85405991E-03  0.40170824E-02 -0.14638115E-02
 -0.11684738E-02 -0.66710215E-05 -0.10560590E-02
  0.36658658E-02 -0.50601161E-02 -0.11726264E-02
  0.97097526E-03  0.59077696E-03 -0.45383795E-03
 -0.16419917E-02  0.31901768E-02  0.18593591E-02
 -0.25968530E-02 -0.46045849E-03 -0.47142454E-02
  0.55381511E-02  0.29160392E-02  0.43147788E-02
 -0.32848044E-02  0.24433712E-03  0.28059913E-02
 -0.95828312E-03 -0.15337468E-02  0.10227114E-02
 -0.45701665E-03 -0.95173648E-03 -0.36773131E-02
 -0.29139499E-02  0.22021069E-02 -0.19429916E-03
  0.37721848E-02  0.27088133E-02 -0.21860777E-02
  0.51387166E-02  0.19559057E-02 -0.30222997E-02
 -0.16743364E-02  0.15566557E-03 -0.13970615E-02
 -0.30571394E-03 -0.16020562E-02 -0.17286957E-02
 -0.10170668E-02  0.16136903E-02  0.50503752E-02
  0.28618724E-02 -0.39502977E-03  0.35760431E-02
 -0.41106513E-02 -0.16193127E-02  0.47533654E-02
  0.23723344E-03 -0.40518419E-02  0.23176887E-03
  0.38380668E-02 -0.42322199E-02  0.34796749E-02
  0.28475031E-02 -0.41495192E-02 -0.37570459E-02
 -0.27254582E-02  0.23579891E-02 -0.33668073E-02
 -0.22068889E-02  0.34339588E-02  0.14600838E-02
 -0.60168743E-03 -0.20065388E-02 -0.48264466E-03
  0.87221818E-03  0.32624305E-02  0.41017042E-03
 
           1
   2.00000000000000     
  0.44078444E+00 -0.16953430E-02  0.00000000E+00  0.00000000E+00
  0.24318042E+00  0.98322753E+00  0.13339219E+00
  0.30712130E+00  0.58302475E+00  0.38305214E+00
  0.47899429E+00  0.53661611E+00  0.95314315E+00
  0.77303289E+00  0.73726021E-02  0.38297866E+00
  0.99864441E+00  0.25350726E+00  0.73638224E+00
  0.84064201E+00  0.77315908E+00  0.35019307E+00
  0.23868665E+00  0.53161299E+00  0.11551235E+00
  0.13406284E-01  0.27206758E+00  0.23466411E+00
  0.62506651E+00  0.44633159E+00  0.62643840E+00
  0.70729410E+00  0.56439190E+00  0.87996036E+00
  0.76948679E+00  0.76918170E+00  0.21880518E+00
  0.25747810E+00  0.52055764E+00  0.86333134E+00
  0.53504559E+00  0.39293031E+00  0.38421813E-01
  0.34131370E+00  0.70551594E+00  0.48341910E+00
  0.94901266E+00  0.38757024E-02  0.77202154E+00
  0.27562292E+00  0.25317677E+00  0.36747383E+00
  0.27883992E+00  0.71889435E+00  0.63471023E+00
  0.99213297E+00  0.45648357E+00  0.62101298E+00
  0.49762777E+00  0.73331144E-02  0.13437036E+00
  0.70037320E+00  0.82501797E+00  0.88526911E+00
  0.51836531E-01  0.99803153E+00  0.39345041E+00
  0.38001304E+00  0.17363313E+00  0.20752911E+00
  0.31479007E+00  0.18164794E+00  0.87797663E+00
  0.81875742E+00  0.21669880E+00  0.63349527E+00
  0.27604287E+00  0.73563281E+00  0.97301609E+00
  0.23285695E+00  0.21059327E+00  0.65023551E+00
  0.75579597E+00  0.79168250E+00  0.81952734E-02
  0.80392349E+00  0.46350476E+00  0.36598977E+00
  0.75673011E+00  0.70400977E+00  0.48788872E+00
  0.52249327E+00  0.96369288E+00  0.98108268E+00
  0.23478641E-01  0.46263093E+00  0.50224656E+00
  0.78444153E+00  0.34144016E+00  0.88075593E+00
  0.22004595E-01  0.77822868E+00  0.25887325E+00
  0.41395168E+00  0.27174642E+00  0.73734815E+00
  0.99778560E+00  0.63697609E+00  0.16735972E-01
  0.50294870E+00  0.89207259E+00  0.62430001E+00
  0.48751407E+00  0.75813398E+00  0.97697012E-01
  0.53062308E+00  0.24527976E+00  0.28687143E+00
  0.87398006E+00  0.14328200E+00  0.93223720E+00
  0.51107014E+00  0.98088281E+00  0.27986663E+00
  0.18616743E-01  0.70160298E-01  0.13058906E+00
  0.48443472E+00  0.53626076E+00  0.79659335E+00
  0.46882800E+00  0.99815917E+00  0.74860515E+00
  0.16378239E+00  0.38317739E+00  0.41099096E+00
  0.51637781E+00  0.54178894E+00  0.13012689E+00
  0.77705905E+00  0.59123847E+00  0.63603230E+00
  0.39251388E-01  0.74769919E+00  0.49823304E+00
  0.73015003E+00  0.32377722E+00  0.19474373E-01
  0.80043008E-02  0.95477398E+00  0.53235268E+00
  0.54594953E-01  0.52751338E+00  0.12732302E+00
  0.99690340E+00  0.47057960E+00  0.75929405E+00
  0.53309015E+00  0.40055084E-01  0.38776034E+00
  0.30737304E+00  0.24034685E+00  0.52015045E+00
  0.96769734E+00  0.54730964E+00  0.90401379E+00
  0.47888551E+00  0.85615328E-01  0.53376383E+00
  0.29580732E+00  0.92706717E+00  0.89235545E+00
  0.12521618E-01  0.95052689E+00  0.16782665E-01
  0.52697608E+00  0.45238560E+00  0.38458740E+00
  0.51360726E+00  0.78627427E+00  0.76856426E+00
  0.97556658E+00  0.22390595E+00  0.52121979E+00
  0.69268249E+00  0.69842816E-01  0.88079607E+00
  0.49893356E+00  0.88724808E+00  0.46869342E+00
  0.99716600E+00  0.25630297E+00  0.18461895E-01
  0.20947918E+00  0.97891117E+00  0.63625031E+00
  0.75232850E+00  0.26745598E+00  0.21194437E+00
  0.81812196E+00  0.70591551E+00  0.77200897E+00
  0.22503232E+00  0.73935462E+00  0.18195807E+00
  0.68837176E+00  0.23720617E+00  0.51036437E+00
  0.81730982E+00  0.96397755E+00  0.13432201E+00
  0.17684172E+00  0.17164429E+00  0.80139601E+00
  0.48179012E+00  0.50576281E+00  0.24673798E+00
  0.43145468E-01  0.72547665E+00  0.74374593E+00
  0.76327413E+00  0.54902171E+00  0.11794279E+00
  0.74442752E+00  0.92317625E+00  0.62467345E+00
  0.74369293E+00  0.22334426E+00  0.75708840E+00
  0.29386219E+00  0.97881452E+00  0.37556169E+00
  0.27322390E+00  0.25450289E+00  0.18176087E-03
  0.74609033E+00  0.23015005E+00  0.38770564E+00
  0.66866947E+00  0.13001501E+00  0.10250324E+00
  0.32157181E+00  0.47970821E+00  0.62827519E+00
  0.29355302E+00  0.70861644E+00  0.76534899E+00
  0.30709444E-01  0.48906285E-01  0.28144295E+00
  0.50169984E+00  0.42011095E+00  0.51527238E+00
  0.20652752E+00  0.26104259E+00  0.12621268E+00
  0.97819973E+00  0.94156397E+00  0.65241215E+00
  0.99242401E+00  0.47324767E+00  0.28462704E+00
  0.25191844E-01  0.94275554E+00  0.87587204E+00
  0.31721001E+00  0.74217308E+00  0.29240306E+00
  0.27263295E+00  0.16799626E-01  0.25784754E+00
  0.72869924E+00  0.47495196E+00  0.75428260E+00
  0.20592612E+00  0.94136479E+00  0.74953397E+00
  0.75896911E+00  0.51124124E+00  0.23789990E+00
  0.25688157E+00  0.47355763E-02  0.48346397E-02
  0.74946424E+00  0.45812682E+00  0.48905283E+00
  0.27598713E+00  0.96561393E+00  0.50662420E+00
  0.74614835E+00  0.57133325E+00  0.99286099E+00
  0.72916651E+00  0.96020190E+00  0.75494570E+00
  0.23877337E+00  0.49708510E+00  0.25741761E+00
  0.27544808E+00  0.47474318E+00  0.75405899E+00
  0.76534345E+00  0.13287088E-01  0.25409780E+00
  0.26142436E+00  0.49167975E+00  0.51302958E+00
  0.74125794E+00  0.24064446E-01  0.29438715E-02
  0.76058963E+00  0.98751882E+00  0.50790079E+00
  0.26134582E+00  0.47630387E+00  0.99968333E+00
  0.13953717E-01  0.24332976E+00  0.38257227E+00
  0.47755137E+00  0.76396657E+00  0.89250363E+00
  0.51356325E+00  0.18319492E+00  0.63393727E+00
  0.32518111E-01  0.77065723E+00  0.12985617E+00
  0.99862679E+00  0.27426977E+00  0.87136975E+00
  0.53204864E+00  0.73706094E+00  0.37790660E+00
  0.22297775E-01  0.71012751E+00  0.62637551E+00
  0.49448196E+00  0.28873513E+00  0.14029391E+00
  0.14521506E+00  0.37402796E+00  0.43546940E-01
  0.66691288E+00  0.86474861E+00  0.54841343E+00
  0.66402349E+00  0.15499562E+00  0.97009794E+00
  0.17676471E+00  0.59652669E+00  0.46311303E+00
  0.34808392E+00  0.37366544E+00  0.93640056E+00
  0.90401717E+00  0.92061715E+00  0.46301304E+00
  0.86289831E+00  0.10715544E+00  0.44292729E-01
  0.37359532E+00  0.58565158E+00  0.55311442E+00
  0.85351763E+00  0.10317304E+00  0.20025597E+00
  0.39281238E+00  0.57688756E+00  0.71525994E+00
  0.87695069E+00  0.92235126E+00  0.29445824E+00
  0.34036008E+00  0.36187259E+00  0.80054359E+00
  0.14222603E+00  0.61379439E+00  0.30984473E+00
  0.63335564E+00  0.81251703E-01  0.78424174E+00
  0.12236118E+00  0.41958505E+00  0.21337813E+00
  0.64967210E+00  0.85490598E+00  0.70954209E+00
  0.84664991E+00  0.68101322E+00  0.93447226E+00
  0.37363999E+00  0.79084376E-01  0.46049211E+00
  0.83093643E+00  0.35410805E+00  0.54242625E+00
  0.37902867E+00  0.92599798E+00  0.61278198E-01
  0.16702475E+00  0.76624814E-01  0.55222961E+00
  0.64434723E+00  0.62096052E+00  0.53191630E-01
  0.14973323E+00  0.89143861E+00  0.96524258E+00
  0.64358275E+00  0.36702225E+00  0.43958270E+00