Na88 Ge16 P8 Se96                       
   1.00000000000000     
    13.9614333504000001    0.0000000000000000    0.0000000000000000
     0.0000000000000000   13.9614333504000001    0.0000000000000000
     0.0000000000000000    0.0000000000000000   27.9228667008000002
   Na   Ge   P    Se
    88    16     8    96
Direct
  0.7970571101328912  0.2869646260629748  0.1266522972577248
  0.2352330562070103  0.2288995461569843  0.6106678402358816
  0.4908441848155186  0.2642899517338768  0.9757023086377850
  0.7902142441184089  0.0343838192054398  0.3906275859767293
  0.4717498262541752  0.9854633128372683  0.8545846917458964
  0.2118813594692124  0.7600627265341207  0.3744129130753198
  0.1082546766220868  0.5607874771368760  0.1334075636791672
  0.2615386400660822  0.4137570392202661  0.1326158311246614
  0.5517852518675321  0.2363720635062931  0.7662808923944954
  0.8065926236058932  0.2151122317761815  0.7811075822610789
  0.7952854195407233  0.7511702154572991  0.3904571459496494
  0.2629686392102399  0.6547542971445494  0.8645127469915916
  0.5022732891752268  0.5159941838724562  0.9914069523808553
  0.1980359700027828  0.0274267062515982  0.3725330087268715
  0.5165615078367931  0.7774394954322367  0.7507496685017947
  0.5399217568800864  0.5157636710743263  0.3811602763669238
  0.4740929524446502  0.5380565361928569  0.4954293031548145
  0.7995647681307129  0.7097843394880231  0.5152869090059152
  0.7230517922008610  0.2440217050201771  0.2598575062840181
  0.0318008923123387  0.4565757477886818  0.9017035837381773
  0.9993698967492761  0.0231821197114334  0.3339593409621477
  0.2213091219967779  0.2507372608067012  0.2577831753479373
  0.7465765556252366  0.2791625204039584  0.9965586613168225
  0.7273709891979934  0.2118086534384515  0.6372268828379514
  0.4881877591347054  0.9892260864773372  0.1395832965788943
  0.9986055106050404  0.0070653485976231  0.7564760917680607
  0.4484685740111384  0.5030129498443201  0.1244802518882225
  0.2300230479396472  0.5244234080785144  0.3818651329692406
  0.5411853723000967  0.8718307627758607  0.4786195673120446
  0.2448738359178188  0.7573409341863899  0.9897365680452018
  0.2746066201405303  0.7524353643655829  0.6350109971403811
  0.5255871791002583  0.4853029417513475  0.7464110092052215
  0.9064142664274384  0.7121720524357938  0.2425619978262827
  0.2695185648846904  0.2076041687778282  0.7385753110977419
  0.7130719078894422  0.0443854388647518  0.1346392464503319
  0.4621985169057918  0.0016511193587322  0.3702812121631516
  0.7227156758620490  0.4889406554205465  0.1334835524893114
  0.7413541996921644  0.7485734561972369  0.1555618122673573
  0.2604205422337775  0.7232926374002205  0.7601716203876411
  0.6888294989434265  0.7332210660604793  0.2617504144973448
  0.9614726116461475  0.4651784205280592  0.2821130625688530
  0.4982197077665818  0.5038519913877164  0.8488745624941351
  0.5320768895674933  0.7756485231258604  0.0107226592087506
  0.9792897852711993  0.4675570122026143  0.6327939013782244
  0.0153060790152912  0.0737654008397034  0.1224099116733494
  0.4903148148176270  0.2510812753598909  0.4975770300935990
  0.0250985614379403  0.7112700097516909  0.5109363649882273
  0.9741026921344423  0.2905156730455555  0.0149036388804818
  0.5077920749533590  0.9729126501701092  0.5972588245857172
  0.4573796536976535  0.2224572442704140  0.2683793441071149
  0.0011969652984286  0.4603282679354657  0.7510756543917604
  0.4968335193882185  0.8546488101477271  0.2600696732320501
  0.2451645131019401  0.2736733254376041  0.5011031546424570
  0.8148634009608806  0.7499996145373594  0.0388660640634893
  0.9964412102760853  0.2854608822624445  0.5030350812560942
  0.2315964148431878  0.7756333485476562  0.0978657526513473
  0.2732734928735926  0.2414253805638854  0.0169040671352793
  0.4607598685167011  0.5095973049847464  0.6174964152213370
  0.9765798802358362  0.0750511420949642  0.9564553323961463
  0.2709529669664661  0.0014474036250148  0.6222817336162239
  0.7773931852836102  0.0032141262188413  0.8885833863610495
  0.9941100281506179  0.5061862226937697  0.5034043568431856
  0.9919658424647024  0.8795332896244116  0.0449593873284605
  0.5063684930373665  0.0087670017277559  0.7398660166184989
  0.9844276380379072  0.2499393489872179  0.2485033322363653
  0.7004758761050361  0.7686632500434218  0.6377160515338749
  0.1638577673029473  0.7383301837357759  0.2424283700765764
  0.0365648511538172  0.2512090689044668  0.7302555332544550
  0.7651475529991945  0.4123047026097031  0.3732206905271600
  0.0193241946882576  0.7609403053431180  0.7629629746870904
  0.7413699858716435  0.2284040363623738  0.5080386608728357
  0.2894405785230892  0.7424235264701698  0.4919019595707297
  0.2605830745875345  0.0098462353773697  0.1232767744860483
  0.8208498557956169  0.9777386421958003  0.6256571321442511
  0.0172633211108560  0.0221347403291761  0.6345474664174368
  0.2320245998674880  0.2726100705360344  0.3874109579532551
  0.1676290868517371  0.0322394393064498  0.8709086444027424
  0.9879073910944349  0.5473023527337848  0.0111335807723683
  0.7363122428077054  0.7674925213350218  0.8915545687509285
  0.2344601564446483  0.5199693742839623  0.6321464203400964
  0.7840419477316584  0.4960651101025860  0.8696265509960208
  0.0187440617629979  0.9649395674709008  0.2330086003634119
  0.7646960575191571  0.5109943716637390  0.6229738190778917
  0.5050834865356977  0.0558331040281967  0.9859879385983741
  0.0094248855942022  0.9839065698304097  0.5065304873663260
  0.2483604330373181  0.2987211527051322  0.8770862973595218
  0.7555216902148575  0.7438451964410149  0.7592788169033932
  0.4466169374432750  0.5147871332605006  0.2496676177628129
  0.2494461501589003  0.0132463683416766  0.2551944441664077
  0.7643907176782618  0.4840368468836213  0.7478329242249165
  0.2560403090065477  0.9784598689599471  0.7574132755221527
  0.6920302174022518  0.4919787662751395  0.2557468440343458
  0.2554386812729594  0.9843815654792341  0.9922232251251626
  0.7322073966108371  0.4764565457520034  0.4982187169918543
  0.2574624804453735  0.0022025190777217  0.5002499003586310
  0.7321028392853249  0.5453938187463004  0.0067091101004276
  0.7713086517513166  0.9966939809743171  0.7454166467165104
  0.1928902127686553  0.5068046952569548  0.2434308375130846
  0.2870171769824129  0.4714130346031954  0.7467966729047880
  0.7718938141843762  0.9883927559159262  0.2546016691385768
  0.2423341967501496  0.5000343389339629  0.5046514887428606
  0.7390681207555674  0.0091676369519631  0.0133016660094268
  0.7424040436695039  0.0006495204207946  0.5059223787454444
  0.2669386343342962  0.5119552564096725  0.0028597383756031
  0.0037179479385115  0.2547537749059039  0.3784968947961157
  0.5044724354576113  0.7589049499367561  0.8807624417494797
  0.4829988862738772  0.2472533521509891  0.6237463563913147
  0.9652681848954747  0.7565394652469665  0.1237193711573915
  0.9946390755860903  0.2540636803312686  0.8699897232535209
  0.4640434538823128  0.7396046070743840  0.3738918527249708
  0.0140631631201983  0.7595781948209831  0.6282689531063120
  0.5061773079543096  0.2586779128564946  0.1136995182128419
  0.1548924503922895  0.4048077075992980  0.0489133047725789
  0.6684087327184624  0.8803790999950574  0.5500664212863928
  0.6873024314687612  0.1220924311720567  0.9466184042512754
  0.1363501555178161  0.5960480886743772  0.4588700983213607
  0.3642753008458832  0.4080263824168885  0.9584713703812595
  0.8297844519397354  0.8943076987545856  0.4607904246959471
  0.8421254057742706  0.1162327524229212  0.0540952348870080
  0.3300632391883351  0.5988682755020884  0.5538295820872884
  0.8703221568229731  0.0975147606717031  0.2136932017031389
  0.3647291730377289  0.6020881847728323  0.7047892562223447
  0.8598000106917845  0.8708037657268726  0.3015442066354385
  0.3747523870774855  0.3849958907661044  0.8024728156220639
  0.0990640633567894  0.5998161418545878  0.2998671468034798
  0.6662306479255330  0.0721300260457527  0.8032011069240670
  0.0951214018303554  0.3796140784326150  0.1952241801159744
  0.6757946270108852  0.9239576621165601  0.6834501174505977
  0.8318721239248023  0.6425526852300245  0.9540519206474862
  0.3371846810362957  0.1113792499676996  0.4537493051794528
  0.8423941597159932  0.3928790838276475  0.5508538041825725
  0.3499264771199016  0.9101772880841646  0.0486866756240409
  0.1552276650619835  0.1000799704994704  0.5510127539021064
  0.6237021258877098  0.6363787519106083  0.0564772596048089
  0.1460183615835478  0.8968115261629038  0.9355823648220848
  0.6341106952953180  0.3828985157473930  0.4506277439564102
  0.6170012061799791  0.3832193772829607  0.3128354744367732
  0.1440919683172760  0.8786074391438046  0.7987304682864622
  0.1679600250731815  0.0736607236935578  0.7013616384954596
  0.6028472112697268  0.5947564115480755  0.2038471604429435
  0.8528240442906225  0.3854716038743818  0.6935005943738473
  0.3464431663451135  0.9200941599050722  0.2020097539715457
  0.3419445078693825  0.1083965804920149  0.3121500063083160
  0.8885722840777696  0.5756640739980372  0.7905711576623823
  0.1526541602199375  0.0967028521622132  0.0383158215401294
  0.6520947539213162  0.5965710037993646  0.5436891871346214
  0.6819144108970590  0.4261437244714714  0.9378629634687836
  0.1451849581345637  0.8992638771938241  0.4521311289171264
  0.3410668281272730  0.1064698506789803  0.9440170935022617
  0.8377804236495418  0.5649019839489036  0.4438134336964938
  0.8423504418871867  0.4319899423219685  0.0454441830404509
  0.3641245306627224  0.8966844865869597  0.5394186823902802
  0.1515861763410485  0.1146325013736398  0.2036504347665997
  0.6741959706312135  0.6044775977581065  0.7028154729388172
  0.1466555241834764  0.9082706327262074  0.2962787255364169
  0.6566935132377901  0.4028950165097063  0.8029625518545324
  0.8049427019500441  0.5891960552702080  0.3100756893451095
  0.3291738291516106  0.0913374915514678  0.8077082694115717
  0.8194560012307843  0.3989924072575113  0.2133493992771209
  0.3649080573121847  0.8862851921145477  0.7073141247171844
  0.8489763193268909  0.8961869756633997  0.9738841532631489
  0.3529629453681474  0.4180369496309275  0.4604374214211113
  0.8562504349195769  0.1063317402905454  0.5472236445748568
  0.3457268373466525  0.6187173452976837  0.0545093314098091
  0.1452241008581367  0.4188987846053703  0.5579158830397781
  0.6233400092769936  0.9324125390186472  0.0640775465497482
  0.1508261843860016  0.5858640782084641  0.9581563332579052
  0.6377017801813533  0.0874666385581351  0.4537507367621786
  0.2955435134163746  0.4192742699217800  0.2977669346316634
  0.8532329451423561  0.8902119437188506  0.8039806005921915
  0.8659636481854659  0.1106129147647465  0.7012010730226781
  0.3009320913898959  0.6116889779755154  0.1976626202207092
  0.1842578212306534  0.3713168456683287  0.6914868143899396
  0.6527145590618074  0.9071338780793389  0.2036291098767722
  0.6658187577126675  0.0793592560429564  0.3047631972773895
  0.1729450972981683  0.5580965406350199  0.7912308370100671
  0.9005592179699248  0.3067159937034390  0.3284056593733767
  0.5805318306757424  0.6642743614410908  0.8312237062628515
  0.3793196938315955  0.3240211133576468  0.5767356299736486
  0.8727581871555737  0.8827263257412358  0.1139542325677818
  0.5631716825663635  0.3405443780995946  0.6765574737725817
  0.9004330284584875  0.6311081444963689  0.1595279343727918
  0.9368558759611565  0.1473497743624590  0.4308040165138779
  0.3978271185407383  0.8124640803962433  0.8321723982151227
  0.9298179107069828  0.1106017396365224  0.8504159002769852
  0.5381991357145748  0.6615695265992261  0.4289427911996724
  0.9083084460051145  0.8222214512132137  0.6824835761326445
  0.6064148597068216  0.1798037612496581  0.1560959302603295
  0.1011206615046366  0.6736648971538352  0.6791665370968415
  0.4213114501335773  0.1641990081452731  0.0689107325196777
  0.0957682947588644  0.2192670637574561  0.9386853276227606
  0.3684682053442513  0.8521678358635510  0.4078595246864096
  0.0797580211672922  0.8836727838297456  0.5849278787295941
  0.5893148604196331  0.3690674257110899  0.0740782950275080
  0.8667935397995458  0.3502052008310841  0.8909822300755731
  0.3742770932829496  0.6539001084719264  0.3207995434809118
  0.0837551087962205  0.3300775229089144  0.8141967032105875
  0.5932595205294504  0.8244113896196352  0.3494711795087445
  0.9237528060749113  0.6451470799594671  0.5916008355393589
  0.4143292198733544  0.3334962095126713  0.1729405786629286
  0.4018339800058790  0.1453268340415572  0.6690487590808391
  0.0427090502693172  0.7091270078809317  0.0545645161002777
  0.1163682118027718  0.1771711096955000  0.3320993700596738
  0.4444560044187366  0.6656749664935263  0.9283036713751210
  0.0749985552783304  0.3693058566021638  0.4202283279418613
  0.5789533174150966  0.8720264088163960  0.9240366776220912
  0.5962068336694675  0.1762351301747331  0.5806623784547944
  0.0824893144375490  0.8362752400794794  0.1570772472166582
 
 -0.15539584E-03  0.25539793E-02 -0.21808474E-02
  0.16158559E-02  0.36525084E-02 -0.20211273E-02
  0.18717772E-03 -0.31532798E-02  0.59658663E-02
 -0.15839634E-02  0.37091715E-02 -0.16186071E-01
 -0.91761311E-04  0.98901014E-02 -0.11708385E-02
  0.44531736E-03 -0.16543333E-02  0.66798367E-02
  0.81224530E-03  0.23074551E-02  0.66935212E-03
  0.78151997E-02 -0.10748957E-03 -0.23613234E-02
  0.31906850E-02 -0.32711288E-02 -0.23816876E-02
 -0.24470843E-02  0.72613514E-03  0.11542998E-01
  0.82389941E-03  0.52018804E-02  0.74398149E-02
 -0.35707774E-02 -0.55433558E-02  0.59626496E-03
  0.24596579E-02 -0.76576575E-03 -0.33137488E-02
  0.59502219E-02  0.53206371E-02 -0.31205795E-02
 -0.25844286E-02 -0.22455869E-02 -0.11032004E-01
 -0.22878573E-02 -0.25594529E-02  0.27859579E-02
  0.58363245E-02 -0.12847567E-02  0.52751247E-02
  0.16150906E-02  0.13527829E-02  0.11377923E-01
 -0.12722303E-02 -0.54020335E-02 -0.58495424E-03
 -0.43771767E-02 -0.54748941E-02  0.35040433E-02
  0.88991089E-03  0.76900339E-02  0.93201893E-02
 -0.12782762E-01  0.19598610E-02  0.76022644E-02
 -0.24419646E-03  0.16840411E-02  0.13956685E-01
  0.13855026E-01 -0.85375475E-02 -0.24377773E-02
 -0.45626582E-02  0.87257239E-03  0.53634932E-02
 -0.31940619E-02  0.76820992E-03 -0.17237994E-02
  0.53500758E-03 -0.68593561E-02 -0.56210375E-02
 -0.47718072E-02 -0.71022139E-02  0.95364114E-02
  0.67456875E-02  0.83145774E-03  0.19280267E-02
 -0.40927763E-02 -0.10135168E-01 -0.48903357E-02
  0.37966874E-03  0.29365644E-02  0.29117208E-02
 -0.16797582E-02  0.36846052E-02  0.37879320E-02
  0.40521319E-02  0.43565802E-02 -0.41552927E-02
 -0.56144351E-02  0.19539042E-03  0.51380701E-02
 -0.46846448E-02 -0.72993678E-02  0.18000109E-03
 -0.59477181E-02 -0.80550508E-02 -0.76679962E-02
  0.62277261E-02 -0.33389456E-02  0.67694000E-03
 -0.10893854E-02  0.54595732E-02  0.62867059E-02
  0.37267945E-03 -0.47231678E-02  0.65407904E-02
 -0.69252145E-02  0.45434812E-02  0.68394433E-02
  0.39449921E-02  0.64854453E-02 -0.84302703E-03
  0.62068844E-02  0.68958481E-02 -0.24597332E-02
 -0.29197238E-02 -0.15506538E-02  0.28777900E-02
  0.45689246E-02  0.82139336E-02 -0.24142442E-02
 -0.79237935E-02 -0.20286480E-02 -0.39488224E-02
  0.52810541E-03  0.42689570E-02  0.44471234E-03
  0.17145447E-02 -0.43212744E-02 -0.62319635E-03
 -0.15665564E-02 -0.22634099E-02 -0.65121206E-02
  0.58500833E-03  0.44813087E-02  0.24197460E-02
  0.27093978E-02 -0.41667128E-02 -0.13745990E-02
  0.31320899E-02  0.65505079E-02 -0.15193836E-04
 -0.29226077E-02  0.13553205E-02  0.78114300E-02
  0.23778179E-02 -0.68126280E-02  0.67108374E-02
 -0.61535959E-02  0.11653330E-01 -0.15997193E-02
  0.28664903E-02  0.78249343E-02  0.33228852E-03
 -0.48024607E-02 -0.34175891E-02  0.40006307E-02
  0.77832551E-02 -0.31789059E-02 -0.14258349E-01
  0.61289470E-02 -0.67800723E-02 -0.29741084E-02
  0.45717586E-02 -0.61559732E-02  0.71806379E-03
 -0.22698080E-03 -0.36836117E-02 -0.72985552E-02
 -0.33917606E-02 -0.30807900E-02  0.69088680E-02
  0.26813406E-02 -0.43246380E-02 -0.47818663E-03
  0.14501091E-01 -0.55378923E-03 -0.36001345E-02
 -0.23930077E-02  0.24837834E-02 -0.67675994E-02
 -0.94271270E-02 -0.70629915E-02  0.43783226E-02
  0.67056594E-02 -0.19689421E-02 -0.36201897E-02
  0.57614097E-02  0.28409166E-02 -0.66609873E-02
 -0.26004252E-03  0.10431394E-01 -0.77958389E-02
 -0.36752821E-02  0.10880087E-01 -0.51660629E-02
 -0.93922760E-02 -0.87443051E-02 -0.33896172E-02
  0.76426114E-02 -0.48407371E-03 -0.15718673E-02
 -0.38989988E-02  0.45389239E-03  0.20186174E-02
  0.32075333E-02 -0.55780919E-02  0.74913566E-02
  0.92839302E-02 -0.14759633E-02  0.49658691E-02
  0.49784332E-02 -0.29830533E-02 -0.39146383E-02
 -0.78869332E-02  0.19959904E-02 -0.11903160E-03
  0.13158328E-02  0.25742407E-02 -0.88195620E-02
  0.10821417E-01  0.61045786E-02 -0.92007577E-02
  0.95423347E-02  0.27545177E-02 -0.79795687E-05
 -0.14989670E-02 -0.59128574E-03 -0.11927465E-02
  0.33818609E-02  0.41815559E-02  0.45442480E-02
 -0.44516557E-02  0.32408085E-03  0.11859160E-01
 -0.32300966E-02  0.60725330E-02 -0.57671277E-02
 -0.66848579E-02  0.75884548E-02 -0.41302018E-02
 -0.45659970E-03 -0.26170438E-02 -0.41572641E-02
 -0.35640247E-02 -0.42181116E-02 -0.37374862E-02
  0.42393822E-02 -0.72174303E-02  0.90403635E-02
 -0.65058145E-02  0.32319850E-03 -0.38552112E-03
 -0.20100838E-02  0.27768628E-02 -0.18376558E-02
 -0.30975373E-02 -0.51927649E-02  0.14555317E-03
  0.93852810E-03  0.28671122E-02  0.19133516E-02
 -0.77335549E-02  0.53631376E-04  0.21334689E-02
  0.20754361E-02 -0.78179316E-03 -0.42573736E-03
  0.16175210E-02  0.30499372E-02 -0.20308191E-02
 -0.74067278E-03 -0.27777862E-02 -0.14919521E-03
  0.39904220E-02  0.12835900E-02  0.74749597E-03
 -0.31715958E-02  0.18652648E-03  0.24569636E-02
  0.44253280E-03  0.41219402E-03  0.41490816E-02
  0.21705452E-02  0.37545107E-02 -0.27317051E-02
 -0.40161429E-02  0.12617274E-03 -0.21050571E-02
 -0.37555243E-02 -0.42570860E-02 -0.12729816E-02
 -0.10765859E-01  0.64228822E-02  0.35829627E-03
 -0.24696125E-02  0.56977198E-02 -0.78967474E-03
 -0.24680400E-03  0.25430332E-02 -0.34223789E-02
 -0.93179273E-04 -0.33822152E-02  0.58466694E-02
  0.26129442E-02 -0.17335216E-02  0.34235089E-02
  0.49807961E-02  0.23678878E-02 -0.33535703E-02
 -0.21371132E-02 -0.83584696E-03  0.31661856E-02
  0.47610250E-02  0.16203593E-03 -0.20496106E-02
  0.30226740E-02 -0.34742289E-02  0.54520041E-03
  0.27128484E-02  0.29374509E-02  0.51734652E-02
 -0.30784884E-02 -0.97638593E-03 -0.24365156E-02
 -0.21075572E-03 -0.88802969E-03  0.18728603E-02
 -0.27903965E-02  0.32740492E-03 -0.27644497E-02
  0.11827128E-02 -0.25859355E-02 -0.21460443E-02
 -0.73550090E-04 -0.11464820E-02 -0.44415718E-02
  0.24949454E-02 -0.24895049E-02  0.15913151E-02
 -0.16659402E-03 -0.42203251E-02  0.13165032E-02
 -0.99851268E-03  0.34024718E-02  0.68419347E-02
  0.43455454E-02  0.32086666E-02  0.12878002E-03
 -0.72237894E-02 -0.36788765E-02 -0.42068142E-03
 -0.27957447E-02  0.13415954E-02 -0.60239547E-04
  0.11082136E-02  0.23538593E-02  0.12857114E-03
 -0.41966397E-03  0.38928137E-02 -0.16470266E-02
  0.29381036E-02  0.53901071E-03  0.30861461E-03
  0.77167798E-03  0.30996505E-02  0.11965148E-02
 -0.41878840E-03  0.24692804E-03  0.47332698E-03
 -0.48731780E-03  0.16898528E-03  0.91755427E-02
  0.10353551E-02  0.70014599E-03 -0.30953428E-02
 -0.23818310E-02  0.12411897E-02  0.35697606E-02
  0.12702881E-02 -0.15788487E-02  0.44635985E-02
  0.32526237E-02 -0.34330123E-02  0.82272396E-03
 -0.14389898E-03  0.64544751E-04  0.20191312E-02
 -0.34751473E-02  0.23373393E-02 -0.42307943E-02
 -0.65628006E-02 -0.14140116E-02 -0.26086215E-02
  0.59388575E-02 -0.47129120E-02  0.33022489E-02
  0.14368370E-02  0.29802448E-02 -0.41468847E-03
 -0.42833459E-02  0.13216613E-03 -0.16612693E-02
  0.59942345E-03  0.62257320E-03 -0.41555343E-02
  0.21435394E-02 -0.48662636E-02  0.21162140E-02
  0.22563431E-02 -0.80492110E-05  0.55442901E-02
  0.43500568E-02 -0.54322338E-02 -0.16839791E-02
 -0.25924918E-03 -0.23000382E-02 -0.26174489E-02
 -0.27865557E-02 -0.13397917E-03 -0.21177568E-02
 -0.27726472E-02  0.16645196E-02  0.10356255E-02
 -0.13478071E-02  0.79413475E-02  0.87141427E-03
 -0.32936412E-02 -0.75765424E-02 -0.65257296E-03
  0.11363545E-02 -0.61881231E-02  0.40137971E-04
 -0.46712335E-03 -0.30331286E-02  0.43842192E-02
 -0.22295090E-02 -0.29070449E-03 -0.60436796E-02
 -0.21213814E-02  0.40318990E-02 -0.16435311E-04
 -0.11037295E-02 -0.13412294E-02  0.16795554E-02
  0.23761423E-02  0.31650151E-02 -0.18761266E-02
  0.43973402E-02 -0.32246761E-02  0.45533658E-02
  0.53523993E-02  0.47900404E-02  0.32088000E-02
  0.60434164E-02  0.18675595E-02 -0.19429351E-02
  0.34282412E-03  0.89999338E-03 -0.29036739E-02
 -0.16884493E-02 -0.36821776E-03  0.31700703E-02
  0.11389741E-02  0.39391173E-03 -0.25303660E-02
  0.35018060E-02  0.89097113E-03  0.13561740E-02
 -0.71180077E-02 -0.16837880E-02  0.58746802E-02
  0.26118547E-02  0.10495429E-02  0.23808107E-02
  0.48456241E-03 -0.11681576E-02 -0.24317839E-02
  0.43736046E-04  0.21377863E-02 -0.32161841E-02
  0.20367642E-03 -0.20596507E-02  0.11485473E-02
  0.14683043E-02  0.33128861E-03 -0.23264808E-02
  0.65774899E-04 -0.81078573E-03  0.90190042E-03
 -0.32150380E-02  0.22755203E-02 -0.37516652E-02
 -0.35530425E-02 -0.22338048E-02 -0.12544151E-02
  0.18523141E-03 -0.22804003E-03 -0.33770153E-03
  0.36234468E-02  0.35453167E-02 -0.98014567E-03
  0.16647912E-02 -0.25873277E-02  0.34697606E-02
  0.17125751E-02  0.46641489E-02 -0.65269227E-03
 -0.38772741E-02 -0.46470655E-02 -0.17385545E-03
  0.20453212E-02 -0.25161877E-02 -0.16999853E-02
  0.70467915E-03 -0.17999782E-02  0.45484203E-02
 -0.10524207E-02 -0.69007394E-02  0.40750831E-02
 -0.18876670E-02 -0.16599474E-02 -0.72133793E-03
  0.27946822E-02  0.50947474E-02 -0.54292069E-02
  0.60505175E-02 -0.19991598E-02 -0.18431449E-02
  0.21204494E-02  0.47380009E-02 -0.27560368E-02
 -0.10900411E-02  0.28894920E-02 -0.35813495E-02
 -0.29657380E-03 -0.18318735E-02 -0.21518730E-02
 -0.54949262E-02  0.17402477E-02 -0.99656668E-03
 -0.87372307E-02 -0.43530510E-02  0.13786158E-02
 -0.15670058E-02  0.39033225E-02 -0.43098638E-02
  0.24498440E-02  0.79302519E-03 -0.35312758E-02
 -0.14097862E-02 -0.31814710E-03 -0.27903801E-02
 -0.30515716E-02 -0.16783745E-02  0.20008871E-03
  0.35119688E-02  0.26731427E-02 -0.44040892E-04
  0.24394485E-02  0.34076758E-02  0.10137579E-02
 -0.41166543E-03  0.34333910E-04  0.19757517E-02
  0.62249609E-02  0.82755488E-03  0.19687760E-02
 -0.21618316E-02 -0.25422927E-02 -0.12820684E-02
  0.22269545E-02  0.15861286E-03  0.53805444E-02
  0.39670223E-02 -0.13989341E-02 -0.39147199E-02
 -0.26087486E-02  0.86071973E-02  0.45205593E-02
  0.49887134E-02 -0.41439271E-03 -0.24589431E-02
 -0.34024213E-02 -0.59481422E-02  0.70038302E-03
  0.28659906E-02 -0.17780846E-02 -0.40393798E-02
  0.35005557E-02  0.23792620E-02 -0.37175900E-02
 -0.43920522E-02 -0.21783199E-02  0.48741617E-02
 -0.92417997E-03 -0.13987229E-02 -0.92907360E-02
 -0.11554845E-03 -0.24247596E-02  0.12127852E-02
 -0.12478349E-02 -0.40045818E-02  0.55520981E-03
  0.27230207E-02  0.22671714E-02  0.13506695E-02
  0.45675296E-03 -0.13325534E-03  0.45434159E-02
 -0.91948945E-03  0.17909865E-02 -0.38300829E-02
 
           1
   2.00000000000000     
  0.52830225E+00 -0.10420173E-02  0.00000000E+00  0.00000000E+00
  0.79703485E+00  0.28733049E+00  0.12649609E+00
  0.23546453E+00  0.22942277E+00  0.61052308E+00
  0.49087100E+00  0.26383824E+00  0.97612962E+00
  0.78998734E+00  0.34915165E-01  0.38946824E+00
  0.47173668E+00  0.98688009E+00  0.85450083E+00
  0.21194515E+00  0.75982574E+00  0.37489136E+00
  0.10837103E+00  0.56111802E+00  0.13345551E+00
  0.26265818E+00  0.41374164E+00  0.13244670E+00
  0.55224232E+00  0.23590347E+00  0.76611030E+00
  0.80624207E+00  0.21521625E+00  0.78193436E+00
  0.79540344E+00  0.75191539E+00  0.39099003E+00
  0.26245712E+00  0.65396020E+00  0.86455545E+00
  0.50262564E+00  0.51588449E+00  0.99116960E+00
  0.19888835E+00  0.28188897E-01  0.37230949E+00
  0.51619128E+00  0.77711781E+00  0.74995949E+00
  0.53959402E+00  0.51539702E+00  0.38135982E+00
  0.47492902E+00  0.53787249E+00  0.49580714E+00
  0.79979613E+00  0.70997813E+00  0.51610186E+00
  0.72286954E+00  0.24324785E+00  0.25981561E+00
  0.31173854E-01  0.45579146E+00  0.90195456E+00
  0.99949738E+00  0.24283731E-01  0.33462691E+00
  0.21947797E+00  0.25101801E+00  0.25832769E+00
  0.74654157E+00  0.27940376E+00  0.99755832E+00
  0.72935575E+00  0.21058563E+00  0.63705227E+00
  0.48753415E+00  0.98935108E+00  0.13996746E+00
  0.99814796E+00  0.71753960E-02  0.75635262E+00
  0.44854521E+00  0.50203033E+00  0.12407764E+00
  0.22933948E+00  0.52340600E+00  0.38254819E+00
  0.54215170E+00  0.87194987E+00  0.47875766E+00
  0.24428754E+00  0.75588905E+00  0.98938629E+00
  0.27466101E+00  0.75285603E+00  0.63521955E+00
  0.52534655E+00  0.48583077E+00  0.74668232E+00
  0.90699474E+00  0.71279614E+00  0.24226437E+00
  0.26871429E+00  0.20763216E+00  0.73894333E+00
  0.71240082E+00  0.43339792E-01  0.13465214E+00
  0.46134650E+00  0.49721910E-03  0.36973199E+00
  0.72360781E+00  0.48846235E+00  0.13353204E+00
  0.74119814E+00  0.74935555E+00  0.15601210E+00
  0.26047393E+00  0.72261604E+00  0.76064011E+00
  0.68783745E+00  0.73387193E+00  0.26224030E+00
  0.96203774E+00  0.46610747E+00  0.28205268E+00
  0.49910885E+00  0.50483983E+00  0.84869838E+00
  0.53165863E+00  0.77542639E+00  0.10928783E-01
  0.97994429E+00  0.46873367E+00  0.63262098E+00
  0.14170982E-01  0.73474793E-01  0.12212707E+00
  0.49039047E+00  0.25169281E+00  0.49760888E+00
  0.25344173E-01  0.71065098E+00  0.51089173E+00
  0.97387828E+00  0.29019144E+00  0.14437202E-01
  0.50787588E+00  0.97355461E+00  0.59743214E+00
  0.45776778E+00  0.22186036E+00  0.26828089E+00
  0.16456427E-02  0.46126664E+00  0.75107457E+00
  0.49641485E+00  0.85484296E+00  0.26062917E+00
  0.24550514E+00  0.27269740E+00  0.50158382E+00
  0.81398189E+00  0.75166897E+00  0.38751483E-01
  0.99685184E+00  0.28658182E+00  0.50305888E+00
  0.23090845E+00  0.77514377E+00  0.98152301E-01
  0.27438846E+00  0.24097000E+00  0.15882800E-01
  0.46163785E+00  0.50862605E+00  0.61728339E+00
  0.97723479E+00  0.74169288E-01  0.95650676E+00
  0.27092045E+00  0.91971974E-03  0.62175897E+00
  0.77690731E+00  0.27727976E-02  0.88907824E+00
  0.99449413E+00  0.50556671E+00  0.50337011E+00
  0.99404315E+00  0.87945396E+00  0.44701525E-01
  0.50602569E+00  0.91228081E-02  0.73938128E+00
  0.98307719E+00  0.24892756E+00  0.24881693E+00
  0.70143647E+00  0.76838120E+00  0.63745675E+00
  0.16468310E+00  0.73873715E+00  0.24195127E+00
  0.36527600E-01  0.25270338E+00  0.72969715E+00
  0.76462106E+00  0.41386329E+00  0.37285067E+00
  0.17978735E-01  0.75968767E+00  0.76272019E+00
  0.74246480E+00  0.22833469E+00  0.50792607E+00
  0.28888204E+00  0.74248855E+00  0.49204654E+00
  0.26104256E+00  0.90471639E-02  0.12381335E+00
  0.82217980E+00  0.97752721E+00  0.62601282E+00
  0.17976490E-01  0.21707413E-01  0.63426708E+00
  0.23089478E+00  0.27289600E+00  0.38740243E+00
  0.16781758E+00  0.32608204E-01  0.87027694E+00
  0.98945758E+00  0.54817684E+00  0.10474568E-01
  0.73767920E+00  0.76788711E+00  0.89155400E+00
  0.23424543E+00  0.51988467E+00  0.63206099E+00
  0.78452641E+00  0.49666413E+00  0.86995204E+00
  0.18106354E-01  0.96498599E+00  0.23385802E+00
  0.76423334E+00  0.51186427E+00  0.62256074E+00
  0.50412587E+00  0.56920164E-01  0.98569211E+00
  0.93594769E-02  0.98353167E+00  0.50623272E+00
  0.24784988E+00  0.29811690E+00  0.87681860E+00
  0.75612899E+00  0.74281129E+00  0.75992634E+00
  0.44568497E+00  0.51483343E+00  0.24964000E+00
  0.24915820E+00  0.13644159E-01  0.25506282E+00
  0.76394699E+00  0.48329297E+00  0.74784335E+00
  0.25617475E+00  0.97887059E+00  0.75755032E+00
  0.69092237E+00  0.49198645E+00  0.25589966E+00
  0.25573599E+00  0.98426957E+00  0.99219273E+00
  0.73243911E+00  0.47689345E+00  0.49807326E+00
  0.25735638E+00  0.18045963E-02  0.50023921E+00
  0.73267447E+00  0.54557770E+00  0.67626502E-02
  0.77085432E+00  0.99672070E+00  0.74559263E+00
  0.19295361E+00  0.50686374E+00  0.24372802E+00
  0.28732811E+00  0.47195087E+00  0.74660101E+00
  0.77131849E+00  0.98841083E+00  0.25445089E+00
  0.24179621E+00  0.49942450E+00  0.50456031E+00
  0.73752589E+00  0.10087726E-01  0.13327329E-01
  0.74205027E+00  0.14657288E-02  0.50586582E+00
  0.26690328E+00  0.51231955E+00  0.26146075E-02
  0.37045998E-02  0.25426927E+00  0.37891567E+00
  0.50484674E+00  0.75865662E+00  0.88100765E+00
  0.48371239E+00  0.24759256E+00  0.62350615E+00
  0.96496204E+00  0.75641973E+00  0.12394615E+00
  0.99532110E+00  0.25408689E+00  0.86984292E+00
  0.46447646E+00  0.73910692E+00  0.37393090E+00
  0.14451783E-01  0.75999899E+00  0.62863951E+00
  0.50573631E+00  0.25853804E+00  0.11352500E+00
  0.15486226E+00  0.40468050E+00  0.49047450E-01
  0.66800900E+00  0.88042600E+00  0.54986842E+00
  0.68747186E+00  0.12172199E+00  0.94646469E+00
  0.13633962E+00  0.59588385E+00  0.45855197E+00
  0.36463271E+00  0.40766976E+00  0.95858535E+00
  0.82976059E+00  0.89370313E+00  0.46088472E+00
  0.84198237E+00  0.11672016E+00  0.54585295E-01
  0.33068575E+00  0.59932792E+00  0.55383881E+00
  0.86928734E+00  0.96987755E-01  0.21366307E+00
  0.36432868E+00  0.60228037E+00  0.70478494E+00
  0.85995876E+00  0.87114096E+00  0.30155342E+00
  0.37469227E+00  0.38555354E+00  0.80235485E+00
  0.99484952E-01  0.59989336E+00  0.29988925E+00
  0.66634119E+00  0.72574056E-01  0.80328681E+00
  0.95061410E-01  0.37964945E+00  0.19525808E+00
  0.67572482E+00  0.92398187E+00  0.68410732E+00
  0.83202044E+00  0.64265298E+00  0.95383021E+00
  0.33684348E+00  0.11155705E+00  0.45400499E+00
  0.84257613E+00  0.39265291E+00  0.55117351E+00
  0.35039242E+00  0.90968550E+00  0.48745604E-01
  0.15520705E+00  0.10008922E+00  0.55115738E+00
  0.62320430E+00  0.63671358E+00  0.56174225E-01
  0.14507823E+00  0.89660897E+00  0.93539552E+00
  0.63496145E+00  0.38222338E+00  0.45086427E+00