Na88 Ge16 P8 Se96                       
   1.00000000000000     
    13.9614333504000001    0.0000000000000000    0.0000000000000000
     0.0000000000000000   13.9614333504000001    0.0000000000000000
     0.0000000000000000    0.0000000000000000   27.9228667008000002
   Na   Ge   P    Se
    88    16     8    96
Direct
  0.9728953843741015  0.1759240946899506  0.0060464433234747
  0.5069076117850367  0.4136809636912566  0.5098275074510366
  0.4741728518479250  0.0222150310497790  0.0047129492920903
  0.0033585756120989  0.9701573730146953  0.0198165461202333
  0.2437976153180040  0.7505189149259460  0.8940314489978257
  0.2773686821208850  0.5997028553334196  0.3778053045268143
  0.2440488804016430  0.2340743353254556  0.1085120511050986
  0.2609991385038198  0.9292206833089224  0.1230623537910986
  0.7587776356790974  0.7695676994744941  0.6293757224355894
  0.7014424318470907  0.2778304734772535  0.8780852928662340
  0.7415563430949867  0.2399276969729972  0.3925680715672548
  0.2282312808581607  0.2497786603276138  0.9680649509475256
  0.7593970721226919  0.2565249665392782  0.2669338475925672
  0.2319426696679676  0.7609015138050065  0.6417095410234795
  0.2052461578760010  0.3226543965745861  0.8042860432480150
  0.4678205678040667  0.4771658409507438  0.3690609230466302
  0.2743380787309416  0.0614193553076333  0.6108243648072798
  0.0136741784920422  0.5083787127586797  0.6284591462220203
  0.5103706122629008  0.9864373964487416  0.1358472566158683
  0.9790634449162066  0.4712514886328786  0.9759292390867635
  0.4830960989394514  0.6901578644395105  0.4936374040910140
  0.2521470196300529  0.2544564875257824  0.3798119146578539
  0.7589366537420050  0.7406462709845204  0.7446969092586084
  0.7134297067012808  0.0368297760568707  0.6238555755250090
  0.1921772189981176  0.7380481379122512  0.0129209206166744
  0.0266987511107072  0.2607740929275276  0.7095286891300229
  0.8498079566170129  0.6246890905104932  0.0686368987968396
  0.9952939095688579  0.2570466100794781  0.2506766860224376
  0.8080804264598342  0.7314393111526232  0.5153345135748435
  0.4847312989739746  0.0260788885858230  0.8526168648215223
  0.0123858656833771  0.4923560611749447  0.3673823800059318
  0.5108158855811671  0.4658242796040312  0.8756704123283658
  0.0279741600473730  0.7497736808290798  0.2570154130027874
  0.5220704399109942  0.0900260676920042  0.7314116321571843
  0.9768505323791449  0.0012662404887287  0.8819780981466894
  0.5065831319295943  0.8940327336915177  0.6055435844881439
  0.4854479210562044  0.2910838868862188  0.9905520841940829
  0.2617108977012714  0.2608690696185001  0.2356439330159443
  0.9645054166602590  0.0505489376663519  0.7574523785518765
  0.5360085817368226  0.7603604036132490  0.2610189131658827
  0.7596600641024406  0.2336789961861744  0.1282506810863921
  0.4917825381765204  0.5365424789706005  0.6222239964916394
  0.5010241632811446  0.7989565674577580  0.7560758978349195
  0.9949464944693029  0.5114749889850017  0.2535675602348934
  0.4774542861932298  0.7342244403979660  0.0216881109082278
  0.0202863466651619  0.7669176394052328  0.4926918068839657
  0.2361488329390627  0.7809731173409604  0.5107145703397613
  0.7727645388858164  0.2718335630492524  0.9934924343875141
  0.0176440972245833  0.5149836436009836  0.4944597257170988
  0.4849420692416113  0.4644842901648002  0.2515056637565097
  0.0091252635830658  0.7909602418806234  0.7552263525965682
  0.5140188400974173  0.9836957489783563  0.2601544485031741
  0.2610517579675206  0.3112150361503669  0.4956655049980369
  0.7363612116362700  0.7508043558394528  0.8855842250924360
  0.7699301304492728  0.2333086072948439  0.5123605335714887
  0.7073500571446142  0.7823805905665656  0.0036432370408088
  0.9763280106324989  0.7675220715126373  0.9920658943972065
  0.4616611776038200  0.1126139123469317  0.5308307390111973
  0.2718452529119083  0.4642650820083957  0.1276036270600389
  0.0222141164737357  0.9913971420833918  0.3695563494265761
  0.2574999147584641  0.0347248921419260  0.8491635542712433
  0.9940477539267255  0.2735890725133218  0.4979887832741223
  0.9587404483329948  0.4742854955924353  0.1245333472026289
  0.0275512634362921  0.0244542082823466  0.6247311076307511
  0.5126390640879764  0.2382810981694693  0.2531493979616456
  0.2658070602805535  0.7815461160221935  0.7671500044598183
  0.2672959754686762  0.7492859471253472  0.2741721628225817
  0.7015643343359211  0.2373075753470128  0.7204532932755390
  0.7572728665634358  0.7213965354868924  0.3950556051991767
  0.0109127063957598  0.4899875391718917  0.7546024367533919
  0.0038236923077488  0.0182850455049171  0.2448184965576226
  0.5246020715069962  0.5028360168344101  0.7600740931477696
  0.2689867627688353  0.7059010682796654  0.1424315454477823
  0.0107062503727703  0.0209158606058436  0.5110354397484753
  0.7162756245023697  0.9946094943240409  0.8767804812862088
  0.2674577429029444  0.9917121393473929  0.3757446247520135
  0.4715613927023918  0.4563226451262265  0.0256190667543630
  0.7345106647606297  0.9798600485334058  0.3914683259802130
  0.7729174759886648  0.7663873101681467  0.2354764244298844
  0.2484312084828788  0.5174344890553655  0.6395346110344260
  0.8233448657388662  0.4799745610941877  0.8708840883622090
  0.5023128825463833  0.0302334168617932  0.4135286968952105
  0.7498722633418552  0.4831638881704765  0.6209303932230394
  0.7720058726236115  0.9569998148275366  0.1273418329709942
  0.3317587657115605  0.2586836757096399  0.7002123134277549
  0.6457606875076125  0.4374461046687810  0.1408923526922394
  0.2574748970323762  0.5342123311834688  0.8791116272744609
  0.7633654606951502  0.4836277883787256  0.3698444077387891
  0.2960355067519515  0.0156158748264839  0.2474977825238133
  0.7825026020451338  0.5019101204076704  0.7437415267043336
  0.2569591819864349  0.0225883098303995  0.7283287298786086
  0.7173356410005758  0.5006015702828787  0.2582158509921039
  0.2421969018593119  0.0011941082010027  0.9853823497781727
  0.7620895585879629  0.4958373437149534  0.4960451042922039
  0.2428292148144428  0.0288119412520024  0.4960248305671140
  0.7223016452280037  0.5114475868021242  0.0002170476619952
  0.7340926524061197  0.0006167428087665  0.7585769288005615
  0.2182350566284504  0.4992968230531227  0.2532048375085082
  0.2609429611986823  0.5413921012076696  0.7562160187627329
  0.7635825042278249  0.0120064293540384  0.2629452240723434
  0.2583345096269502  0.5386098919153810  0.5121800296789886
  0.7143607857831188  0.0221984398814916  0.0029310864466401
  0.7725854258024623  0.9906570376465791  0.5099926510253630
  0.2119504682478506  0.5008869972815879  0.0000959481186251
  0.9963499546210228  0.2357633586612694  0.3742617845728213
  0.4835987443652348  0.7443051702275851  0.8846560935006359
  0.5067233074338341  0.2872036038629405  0.6250999444521096
  0.0057275305031958  0.7551802963746324  0.1338517892881420
  0.9953477708428171  0.2759704341642581  0.8695898569476851
  0.4818541673915347  0.7413369154622483  0.3729008467053845
  0.9977399452556649  0.7612500929368236  0.6278968172495596
  0.5097511737107714  0.2293559064846191  0.1220365679523382
  0.1254541190846349  0.3901649985327743  0.0423966529256892
  0.6780369519770992  0.8688456477614535  0.5509138248793710
  0.6396644124157743  0.1404050237753251  0.9528887993025619
  0.1678345675340988  0.6348881190944994  0.4513069169141326
  0.3267222679456726  0.4203024405725445  0.9530246928117165
  0.8638647283289463  0.8963401440263028  0.4563495707351092
  0.8218373257344684  0.1187347270800360  0.0543255115926409
  0.3550293873727228  0.6532790045479607  0.5602324272339483
  0.8529371590347866  0.1262009949983948  0.2159949603589345
  0.3441804991976721  0.6321767359327111  0.7014799572540505
  0.8656147353762063  0.9097777580712902  0.3159636259388285
  0.3595617355481822  0.4343786989539619  0.8078879727935896
  0.1312172617029704  0.6014489465543494  0.3074754459612957
  0.6422693021473492  0.1109213412327520  0.8029449086840683
  0.1276652272607791  0.3913271257821146  0.2039200994692081
  0.6384164003483968  0.8991677635877795  0.7069496842240623
  0.8269490129529738  0.6292040003885552  0.9613895924712073
  0.3391835906749777  0.1265494838134177  0.4429706194406425
  0.8737318495335609  0.4111616669324165  0.5448087778686735
  0.3245677976583246  0.9028664612826548  0.0387147017768719
  0.1470525472104066  0.1480472076985817  0.5421602639694247
  0.6322721372096182  0.6058719623207429  0.0539276292015342
  0.1369008786480984  0.8806054824696489  0.9421815587082744
  0.6479480094710606  0.4061861126271094  0.4426065200141104
  0.6334267165837527  0.3804967226821815  0.3054543544006513
  0.1469019148268320  0.9467526292440627  0.7827403158964271
  0.1652094685237246  0.1288917052653166  0.6837371275812337
  0.6112947043503140  0.5921645862341984  0.2076596512299703
  0.8729553815431386  0.4005718866401859  0.6913614321173304
  0.3657642556621902  0.8856386776875285  0.1986245005740806
  0.3872608863779360  0.1044054720034408  0.2998457386127262
  0.8639710547303951  0.6233595588072921  0.7998669623899543
  0.1521158950476408  0.1047263339219943  0.0316710190471856
  0.6641021692426231  0.5837807748763272  0.5430145389553297
  0.6408534600813586  0.4091434819501970  0.9466964540701510
  0.1462282964706158  0.9257245068186412  0.4461380172881095
  0.3452595348335988  0.0959548058909370  0.9391664663714613
  0.8623081793722089  0.5935683309284727  0.4442003010610427
  0.8260438661300156  0.4174176068064124  0.0618873429856753
  0.3435967343576951  0.9436773257382591  0.5452223630772953
  0.1686400579615983  0.0982300346375365  0.2003159092945956
  0.6659477500565841  0.5955175303925956  0.7027511818698806
  0.1760142353239463  0.9244856235952841  0.2986805241439832
  0.6939865159079122  0.4135579964901677  0.8013009723040498
  0.8254484100931828  0.6112950733955854  0.2930830960903730
  0.3512500751975462  0.1298690285051908  0.7783406402205882
  0.8338330389106979  0.4128693165127536  0.2028370491517252
  0.3538233246092813  0.9049370904005514  0.6875201834013960
  0.8209748270594724  0.9325222363042922  0.9545020503975398
  0.3602720175688766  0.4647792253489251  0.4568985275625217
  0.8554544374970323  0.0955286404721167  0.5645157086013869
  0.3221559966333672  0.5836701203761793  0.0561780802746773
  0.1572766407771157  0.4248943265406949  0.5565600451496792
  0.6200443439637555  0.9197148353554540  0.0628669796336981
  0.1316819111349553  0.6142807260097213  0.9437877850962979
  0.6634209084381076  0.0960375816999515  0.4653170562009206
  0.3061780429352503  0.4058159384496281  0.3014455974570396
  0.8260061971721866  0.8964374158287548  0.8090627902624191
  0.8149057296537705  0.0907997095331521  0.7044297493308290
  0.3412973275173660  0.5801694075003039  0.2086017513639365
  0.1835475005912008  0.4110012141217010  0.7165373231663268
  0.6625221694616270  0.9103783379062060  0.2118545479583087
  0.6607666149739242  0.0859212082727120  0.3228703683505271
  0.1580865046106389  0.6289319079810570  0.8067717220798587
  0.0926792445413112  0.3443647420341880  0.4176798609473572
  0.4129428554447572  0.6610347636667137  0.9398583568694517
  0.5550960293738542  0.3496434933418374  0.6884418109100773
  0.1296184897005166  0.8251669724205049  0.1685104715677780
  0.4682264663187182  0.1207478372926638  0.6368583712689141
  0.9208860438315171  0.6674271403549122  0.1806907619958917
  0.8857392152753043  0.3327848440095155  0.3301907870309607
  0.3856745629846235  0.8407262538962204  0.8394335584910818
  0.0725883203124409  0.1591088643601321  0.9105837306486123
  0.5705568162614041  0.6072143963377984  0.4084319023842076
  0.1062129562288376  0.8402805501092681  0.5841919763790114
  0.6087695144131617  0.1425854830213946  0.1688276265320449
  0.9003466304813850  0.6692785924398962  0.5880517502515723
  0.5935504689948909  0.3162796972122038  0.0704863697677089
  0.8944919398247079  0.3258213209478607  0.9271485633426991
  0.3591189624304786  0.7996484258733764  0.4127328519260576
  0.9153606324503826  0.8752831282100095  0.6638991025515281
  0.4479263720199249  0.3527765907756141  0.1686999727791828
  0.9277284715009854  0.2133515991049406  0.8061389463232133
  0.4204474573965751  0.6392854235834489  0.3150984564631266
  0.0707159042354936  0.4162479005070077  0.8602296359500348
  0.5643017892218019  0.8726897007678592  0.3455894247752698
  0.0601009167949751  0.6745954848709931  0.6856602411256334
  0.4100191217439400  0.1433750993092580  0.0832631964595344
  0.3693689324305944  0.3545359683672989  0.6000588461905397
  0.9137913888655812  0.8544632523022734  0.0903829580015442
  0.0943914788157403  0.1537317564032416  0.3264586829525560
  0.5722872622095635  0.8535276974085499  0.9201496323656864
  0.9083876078291288  0.1396147995693185  0.4166091548120404
  0.5675027298109441  0.6699466378403970  0.8271411024740952
  0.6328732850134220  0.3155735560357241  0.5801553510417036
  0.0617618359306951  0.6471483091782843  0.0746089764525103
 
 -0.58927744E-02 -0.45488786E-02  0.70565201E-02
  0.24238864E-02  0.79910180E-03 -0.91852275E-03
 -0.47883174E-02  0.22149644E-02  0.16835741E-02
  0.57686332E-02 -0.83798159E-02 -0.26237165E-03
  0.76021752E-03 -0.19227383E-02 -0.38130076E-02
  0.10168058E-01  0.40203171E-02 -0.23734510E-02
  0.11016816E-02 -0.97203851E-02  0.15544395E-02
  0.35642079E-02  0.35035918E-02  0.14533168E-01
 -0.41838902E-02  0.33586313E-02  0.24031618E-02
 -0.11005994E-02 -0.67976933E-02 -0.65290795E-02
  0.93742023E-02  0.24861647E-02  0.40022993E-02
  0.95832600E-03  0.44357357E-02  0.69898338E-02
 -0.37524899E-02 -0.95647006E-02 -0.55076811E-03
 -0.33697362E-02 -0.47633768E-02 -0.34876409E-02
 -0.31954766E-02 -0.11674471E-02  0.39462726E-02
  0.65333969E-02  0.33960246E-02  0.17272677E-02
 -0.33747061E-02 -0.13175738E-02 -0.23270310E-02
 -0.24872394E-02 -0.46465162E-02  0.66724771E-03
 -0.27798927E-02  0.59961464E-02  0.10567589E-02
 -0.22933567E-02 -0.25066822E-02 -0.32946730E-02
  0.50014026E-03 -0.53291373E-02 -0.35964045E-02
  0.80114378E-02  0.42614416E-02  0.32531255E-02
 -0.77033497E-02 -0.11292156E-02  0.11282789E-02
 -0.24379974E-02  0.66213786E-02  0.47259216E-02
  0.25002161E-02  0.10242875E-02 -0.40777626E-02
 -0.57019018E-02  0.54007487E-02  0.54521487E-04
  0.51527223E-02 -0.10611383E-02  0.27791004E-02
 -0.79035103E-02  0.37074617E-02  0.80703420E-02
  0.38115993E-02  0.60174887E-04  0.11738900E-02
 -0.56421149E-02  0.68258802E-03 -0.55338379E-02
  0.24530850E-02 -0.21846277E-02  0.27570315E-02
 -0.62630340E-02  0.77015358E-02 -0.37262459E-02
 -0.59040770E-02 -0.11182043E-01  0.37616905E-02
  0.31488247E-02  0.37287311E-02  0.63932070E-03
 -0.26168466E-02  0.11233874E-02  0.42503001E-02
  0.12111509E-02  0.65072137E-02  0.43356715E-03
 -0.58324453E-02 -0.36590807E-02  0.31513234E-02
  0.22155087E-02  0.43606528E-02 -0.82309044E-02
 -0.99903243E-02  0.21759725E-03  0.10996617E-01
 -0.11512598E-02  0.62819770E-02  0.19041962E-02
  0.19238102E-02  0.64785831E-03  0.37116325E-02
 -0.23813289E-02 -0.10981098E-01  0.41808484E-02
 -0.49112128E-02  0.95416860E-02 -0.33100752E-02
 -0.26341510E-02 -0.12290276E-02  0.23959170E-02
 -0.47319799E-02  0.13792491E-02 -0.75633442E-02
  0.16008254E-02  0.43679562E-02  0.41948064E-02
  0.57020243E-02 -0.72640300E-02 -0.18751657E-03
 -0.51352271E-02  0.25931583E-02 -0.66114829E-04
 -0.78862129E-02  0.46245269E-02  0.66893163E-03
  0.18753107E-02 -0.18989354E-02  0.46619886E-02
 -0.76520409E-02  0.27627651E-02 -0.24408717E-02
  0.45449688E-02  0.56190668E-02  0.42998662E-02
  0.57540402E-02 -0.81932655E-02  0.40626134E-02
 -0.12811935E-02  0.67784365E-02  0.46033785E-02
 -0.65398955E-02 -0.12033326E-02  0.33867725E-03
 -0.52397552E-02  0.41243547E-03  0.55991399E-02
 -0.11438100E-02 -0.41879566E-02  0.44917864E-02
 -0.58286054E-03  0.73835865E-03  0.93373124E-02
  0.12976332E-03  0.48166882E-02  0.86046035E-03
 -0.66371759E-02 -0.76980279E-02  0.11398587E-01
 -0.14575821E-02 -0.19637851E-02 -0.72831757E-02
 -0.13241582E-02 -0.57467152E-02  0.24637785E-02
 -0.16355966E-02  0.23045063E-02  0.74932981E-02
  0.69921159E-02  0.72710661E-02 -0.74813341E-03
  0.21081910E-02  0.66528888E-02  0.35856569E-03
 -0.32778703E-02  0.17851691E-02  0.15657328E-02
 -0.19501975E-02 -0.96342589E-02 -0.95997870E-02
 -0.25788995E-03  0.16206399E-02 -0.24581503E-02
  0.59611850E-02 -0.25548472E-02  0.28164027E-02
 -0.43804642E-02  0.48328999E-02 -0.18907999E-02
 -0.67006183E-02  0.18301835E-02  0.38202128E-02
 -0.55405273E-03  0.30239999E-02  0.78412675E-02
  0.76546496E-02  0.29439255E-02 -0.68628037E-03
 -0.12839122E-02  0.19903877E-02 -0.38295616E-02
 -0.20533485E-02  0.20704857E-02  0.90107991E-02
  0.11186361E-01  0.36242986E-02 -0.75202241E-02
 -0.21408658E-02  0.11114130E-02  0.73241320E-02
 -0.22727142E-02  0.13855210E-02  0.37831599E-02
 -0.16291579E-02 -0.14027303E-02 -0.20132003E-02
 -0.33496905E-02 -0.29538694E-02  0.73538381E-02
  0.58007949E-02  0.21572986E-02  0.13105187E-02
  0.25353414E-03  0.80540254E-02  0.77844220E-02
  0.49171463E-03 -0.37635347E-03  0.98128630E-03
  0.62702825E-02 -0.13330994E-02  0.78051590E-02
 -0.19521321E-02  0.43508670E-02 -0.35153804E-02
 -0.44504175E-02  0.39501703E-02  0.36558221E-02
 -0.24741883E-02  0.12785300E-02  0.29517564E-03
 -0.24905524E-02 -0.29300100E-02 -0.13761124E-02
 -0.51690406E-02 -0.20504988E-04  0.22312088E-02
  0.11735323E-02 -0.17655881E-02  0.12369523E-02
 -0.12424277E-02  0.16987536E-02 -0.13960854E-02
 -0.39436454E-02 -0.38152002E-02  0.14776682E-02
  0.27103100E-02  0.96971989E-03 -0.16482670E-02
  0.48244081E-02  0.86085441E-03  0.40302450E-02
  0.17979585E-02  0.37777691E-03  0.12136917E-02
  0.19300407E-02  0.22892284E-02 -0.49639230E-02
  0.54261289E-03 -0.32019856E-02 -0.55684815E-03
  0.35715673E-02 -0.29865730E-02 -0.15018264E-02
 -0.15479312E-02  0.12447834E-02 -0.11517619E-02
  0.24129633E-02 -0.18444908E-02 -0.26398372E-02
 -0.62608150E-02  0.44218926E-02 -0.19929003E-02
 -0.22499865E-03 -0.12847143E-02 -0.48272038E-03
 -0.53746202E-02 -0.35175814E-02  0.38995232E-02
  0.24156018E-02  0.35468419E-02  0.39918811E-04
 -0.60649465E-02 -0.26101692E-02  0.24772694E-02
 -0.30895491E-02 -0.40609108E-02  0.13288793E-03
 -0.26785620E-02  0.11513484E-02  0.13754451E-02
 -0.53878866E-02 -0.27132754E-03  0.18368961E-02
  0.90943956E-04 -0.11877893E-03  0.64744971E-02
 -0.23147734E-02 -0.35469940E-02 -0.68938071E-02
  0.78857740E-02 -0.59262131E-03  0.81259313E-02
  0.65355110E-03 -0.20507074E-02 -0.26160059E-04
  0.30525946E-03  0.47460044E-02  0.57221527E-02
 -0.44207527E-02  0.18708608E-02 -0.20128833E-02
  0.19418109E-02 -0.66659538E-02 -0.30272102E-02
 -0.14360754E-02 -0.98272568E-03 -0.53973639E-02
 -0.33768891E-03 -0.73668964E-02  0.36046966E-02
  0.20054953E-02 -0.32149367E-02 -0.20689401E-02
  0.51175723E-02 -0.14599176E-02 -0.44716515E-02
 -0.14670552E-03 -0.48432274E-02 -0.16836957E-02
 -0.87061975E-03  0.38311228E-02  0.34113635E-02
 -0.26586823E-02 -0.20310484E-02  0.27974698E-03
  0.32962073E-02  0.39300116E-02  0.30877465E-03
  0.15856835E-02  0.75334040E-03  0.12282116E-02
  0.90602402E-03 -0.97269659E-03 -0.14307095E-02
  0.16860192E-02 -0.15108755E-02 -0.45473134E-02
  0.31199153E-02 -0.65523315E-03 -0.22582831E-02
 -0.21812554E-03 -0.79075452E-03 -0.56407686E-03
 -0.17283731E-02 -0.68556942E-03  0.25274271E-02
  0.13391512E-02  0.95382533E-03  0.55625105E-02
  0.17291103E-02 -0.20752202E-02  0.27889698E-02
 -0.86859166E-03 -0.31421541E-02  0.51025832E-02
  0.41600009E-02  0.64097659E-03 -0.44742362E-02
  0.26137383E-03 -0.37392487E-02  0.37290488E-02
  0.37061421E-03  0.16137707E-02 -0.18177268E-02
 -0.41136856E-02 -0.22618592E-03 -0.32094333E-02
 -0.22633562E-02  0.27774141E-02 -0.27004645E-02
  0.16311119E-02 -0.20196819E-02  0.43025727E-02
  0.20156109E-02  0.18655859E-02 -0.47448855E-02
  0.10777540E-02  0.18620884E-02  0.31240714E-02
 -0.16801237E-02 -0.69539799E-03  0.14562644E-02
  0.28073267E-02  0.40143449E-02 -0.17627960E-02
  0.18293960E-02  0.40410065E-02 -0.29539214E-02
  0.57695596E-02  0.12688353E-02  0.15804559E-02
 -0.46935357E-02  0.68721957E-03 -0.52774462E-03
  0.67146085E-03  0.58103288E-02 -0.37450223E-02
  0.97047055E-03  0.44726708E-02 -0.80592831E-03
 -0.30889144E-02 -0.13733076E-02 -0.18435119E-02
  0.31330513E-02 -0.18158706E-02  0.13412803E-02
 -0.47573216E-03 -0.37048687E-02 -0.29912014E-02
  0.43861937E-03  0.42531468E-03 -0.37781905E-02
  0.81794493E-04  0.17627703E-02 -0.81673074E-03
  0.18152196E-02 -0.68318090E-03 -0.17082710E-02
 -0.94590304E-04 -0.33782067E-03  0.20040290E-02
  0.61448213E-02 -0.16121948E-02  0.92675666E-03
 -0.41160905E-02 -0.48439160E-02 -0.32841271E-02
 -0.93932298E-03 -0.34880835E-02 -0.21186728E-02
 -0.48195444E-04 -0.44507052E-02 -0.21604745E-02
 -0.25579082E-02  0.63766803E-03  0.27830417E-02
 -0.35190953E-02 -0.71558049E-03 -0.43060620E-03
  0.19362269E-02  0.55126696E-02  0.67271917E-03
  0.15805521E-02  0.20474875E-02 -0.33194733E-03
 -0.88320662E-03 -0.38622917E-02  0.30840696E-02
 -0.27597326E-02  0.15551356E-02 -0.12603373E-02
  0.13315140E-02  0.94760758E-04 -0.61867968E-03
  0.58810430E-03  0.86852410E-03 -0.48940936E-02
  0.85748822E-03 -0.33323615E-02  0.93379885E-03
  0.12508301E-02  0.40499024E-02 -0.17448923E-02
  0.44343640E-03 -0.38986703E-02 -0.37060650E-02
  0.10030860E-02  0.51997274E-02 -0.41529016E-02
  0.79210062E-04  0.11229184E-02 -0.19141375E-02
 -0.93212819E-04 -0.58618266E-03  0.36540246E-03
  0.16493536E-02 -0.10795818E-02 -0.59079394E-02
 -0.10916491E-02 -0.12105243E-02  0.12991861E-03
 -0.80672696E-03 -0.41155138E-02 -0.94656344E-04
 -0.41606590E-02  0.20335035E-02 -0.32965527E-02
 -0.16034141E-03  0.31313428E-02 -0.13116022E-03
  0.29554091E-03 -0.24928031E-02 -0.16362396E-02
 -0.39050072E-02  0.35896615E-03 -0.13515505E-02
 -0.26207976E-02  0.51635178E-02  0.16504334E-02
  0.16718712E-03  0.64152468E-02  0.16779975E-02
 -0.21503191E-02 -0.18380252E-02  0.83568669E-03
 -0.18434583E-02 -0.28949531E-02 -0.59782015E-03
  0.15573884E-02 -0.10126528E-02 -0.20386390E-03
  0.43247435E-02 -0.63105383E-02 -0.63452086E-02
 -0.32051811E-03  0.17016175E-02  0.13398531E-02
 -0.22885329E-02 -0.19110036E-02 -0.17206701E-02
  0.13143016E-02  0.98221830E-03  0.25743973E-02
  0.22230995E-02  0.32960028E-02 -0.15924239E-03
  0.19195367E-02  0.44189837E-02  0.19660237E-02
  0.27126765E-02 -0.13012102E-02 -0.39022503E-02
 -0.38544485E-02  0.26136226E-02 -0.27474211E-02
  0.25311370E-02  0.11492604E-02 -0.58550016E-04
  0.18384479E-03 -0.16189321E-02  0.30110212E-02
 -0.57633994E-02  0.12831959E-02  0.16139368E-02
 -0.25712400E-03 -0.23239395E-02 -0.12090776E-02
  0.27928626E-02  0.13535220E-02  0.19048423E-02
 -0.28500169E-02  0.33455020E-03  0.15442781E-02
  0.68870642E-02  0.28282996E-03  0.16923323E-02
  0.11280887E-02  0.19394352E-02 -0.55811940E-03
  0.55836662E-02 -0.10509348E-02 -0.44515702E-02
  0.38325184E-02  0.67824527E-03  0.26574254E-02
 -0.27880077E-02 -0.12558917E-02  0.39178002E-02
 -0.27663953E-03 -0.43004291E-02  0.27220282E-02
  0.20664958E-02  0.12150650E-02  0.52975576E-02
 -0.99114525E-03  0.48729192E-02 -0.41208725E-02
 -0.44654728E-02 -0.15765721E-02 -0.17998076E-02
  0.29264721E-02 -0.80060302E-03 -0.81416170E-03
 
           1
   2.00000000000000     
  0.43565515E+00 -0.21827215E-03  0.00000000E+00  0.00000000E+00
  0.97205123E+00  0.17527246E+00  0.65518728E-02
  0.50725484E+00  0.41379544E+00  0.50976172E+00
  0.47348692E+00  0.22532329E-01  0.48335368E-02
  0.41849425E-02  0.96895695E+00  0.19797754E-01
  0.24390652E+00  0.75024348E+00  0.89375834E+00
  0.27882527E+00  0.60027877E+00  0.37763530E+00
  0.24420670E+00  0.23268187E+00  0.10862339E+00
  0.26150972E+00  0.92972258E+00  0.12410330E+00
  0.75817829E+00  0.77004883E+00  0.62954785E+00
  0.70128477E+00  0.27685669E+00  0.87761764E+00
  0.74289921E+00  0.24028384E+00  0.39285474E+00
  0.22836856E+00  0.25041409E+00  0.96856560E+00
  0.75885952E+00  0.25515481E+00  0.26689440E+00
  0.23145995E+00  0.76021915E+00  0.64145974E+00
  0.20478840E+00  0.32248716E+00  0.80456870E+00
  0.46875649E+00  0.47765233E+00  0.36918464E+00
  0.27385465E+00  0.61230611E-01  0.61065769E+00
  0.13317877E-01  0.50771309E+00  0.62850694E+00
  0.50997239E+00  0.98729636E+00  0.13592295E+00
  0.97873492E+00  0.47089240E+00  0.97569326E+00
  0.48316774E+00  0.68939446E+00  0.49337981E+00
  0.25329467E+00  0.25506695E+00  0.38004492E+00
  0.75783314E+00  0.74048451E+00  0.74477772E+00
  0.71308046E+00  0.37778300E-01  0.62419407E+00
  0.19253538E+00  0.73819487E+00  0.12628847E-01
  0.25881944E-01  0.26154776E+00  0.70953259E+00
  0.85054609E+00  0.62453708E+00  0.68835954E-01
  0.99416172E+00  0.25757771E+00  0.25125473E+00
  0.80862644E+00  0.73144793E+00  0.51541859E+00
  0.48392306E+00  0.26176671E-01  0.85222050E+00
  0.12737274E-01  0.49204311E+00  0.36757985E+00
  0.50991869E+00  0.46692754E+00  0.87540352E+00
  0.27128391E-01  0.74817183E+00  0.25728485E+00
  0.52252151E+00  0.90560215E-01  0.73145742E+00
  0.97647566E+00  0.14271677E-02  0.88228253E+00
  0.50675663E+00  0.89496490E+00  0.60557464E+00
  0.48461241E+00  0.29055972E+00  0.99077780E+00
  0.26202827E+00  0.26149374E+00  0.23505439E+00
  0.96307429E+00  0.50580109E-01  0.75824002E+00
  0.53584366E+00  0.76126031E+00  0.26115530E+00
  0.75993565E+00  0.23377180E+00  0.12851653E+00
  0.49144141E+00  0.53496942E+00  0.62252345E+00
  0.50032062E+00  0.80032343E+00  0.75583881E+00
  0.99456915E+00  0.51129893E+00  0.25373917E+00
  0.47677642E+00  0.73442202E+00  0.21146380E-01
  0.20515668E-01  0.76754336E+00  0.49299226E+00
  0.23696566E+00  0.77993253E+00  0.51070114E+00
  0.77202891E+00  0.27220504E+00  0.99348770E+00
  0.16514383E-01  0.51564612E+00  0.49450764E+00
  0.48521071E+00  0.46421226E+00  0.25183958E+00
  0.80290952E-02  0.79135601E+00  0.75505152E+00
  0.51466991E+00  0.98450069E+00  0.26046243E+00
  0.26187603E+00  0.31004134E+00  0.49595649E+00
  0.73617768E+00  0.75177538E+00  0.88591395E+00
  0.76899328E+00  0.23313623E+00  0.51238479E+00
  0.70659945E+00  0.78243967E+00  0.40442804E-02
  0.97616416E+00  0.76692214E+00  0.99238762E+00
  0.46157768E+00  0.11271968E+00  0.53149953E+00
  0.27186384E+00  0.46495508E+00  0.12766526E+00
  0.21263329E-01  0.99029439E+00  0.37037278E+00
  0.25729111E+00  0.34443576E-01  0.84864189E+00
  0.99385807E+00  0.27276585E+00  0.49816525E+00
  0.95850615E+00  0.47461562E+00  0.12507006E+00
  0.28552896E-01  0.25495801E-01  0.62467752E+00
  0.51294107E+00  0.23923414E+00  0.25317508E+00
  0.26533750E+00  0.78180184E+00  0.76726215E+00
  0.26701661E+00  0.74790582E+00  0.27348457E+00
  0.70152739E+00  0.23753973E+00  0.72027723E+00
  0.75812682E+00  0.72103055E+00  0.39525733E+00
  0.10285197E-01  0.49067986E+00  0.75446701E+00
  0.28638169E-02  0.18547223E-01  0.24509212E+00
  0.52452270E+00  0.50326921E+00  0.76063573E+00
  0.27008330E+00  0.70632279E+00  0.14238239E+00
  0.10522328E-01  0.21200987E-01  0.51076114E+00
  0.71598148E+00  0.99490610E+00  0.87742589E+00
  0.26906021E+00  0.99223133E+00  0.37520598E+00
  0.47125471E+00  0.45648186E+00  0.26143664E-01
  0.73418509E+00  0.98005853E+00  0.39173930E+00
  0.77268410E+00  0.76618637E+00  0.23533223E+00
  0.24795136E+00  0.51701134E+00  0.64006134E+00
  0.82417584E+00  0.48028360E+00  0.87097796E+00
  0.50234920E+00  0.31387170E-01  0.41408626E+00
  0.74994270E+00  0.48310997E+00  0.62100068E+00
  0.77290410E+00  0.95680885E+00  0.12790088E+00
  0.33147912E+00  0.25930695E+00  0.69996052E+00
  0.64512316E+00  0.43801197E+00  0.14115420E+00
  0.25712047E+00  0.53439548E+00  0.87913277E+00
  0.76300868E+00  0.48320806E+00  0.36974584E+00
  0.29529503E+00  0.15612937E-01  0.24765759E+00
  0.78267071E+00  0.50165720E+00  0.74383012E+00
  0.25678120E+00  0.22831659E-01  0.72822873E+00
  0.71677071E+00  0.50005504E+00  0.25832169E+00
  0.24258516E+00  0.13330223E-02  0.98526429E+00
  0.76278066E+00  0.49596066E+00  0.49633377E+00
  0.24308678E+00  0.28866058E-01  0.49611176E+00
  0.72257813E+00  0.51177552E+00  0.99986150E+00
  0.73417038E+00  0.15805272E-03  0.75853704E+00
  0.21874669E+00  0.49886899E+00  0.25309727E+00
  0.26072122E+00  0.54157042E+00  0.75613352E+00
  0.76392817E+00  0.11742203E-01  0.26275614E+00
  0.25743764E+00  0.53924334E+00  0.51203729E+00
  0.71432855E+00  0.22014402E-01  0.28965112E-02
  0.77181550E+00  0.99015314E+00  0.51027196E+00
  0.21229651E+00  0.50139509E+00  0.98807339E-04
  0.99548114E+00  0.23538945E+00  0.37443922E+00
  0.48315616E+00  0.74372344E+00  0.88466561E+00
  0.50633960E+00  0.28736854E+00  0.62519846E+00
  0.49557062E-02  0.75514143E+00  0.13398336E+00
  0.99536080E+00  0.27595342E+00  0.87005360E+00
  0.48152257E+00  0.74082880E+00  0.37240707E+00
  0.99886960E+00  0.76116520E+00  0.62847884E+00
  0.50984480E+00  0.22906214E+00  0.12203469E+00
  0.12549785E+00  0.39084487E+00  0.42806507E-01
  0.67740367E+00  0.86911365E+00  0.55076965E+00
  0.63994258E+00  0.13945011E+00  0.95267197E+00
  0.16762885E+00  0.63474734E+00  0.45092033E+00
  0.32667389E+00  0.41924712E+00  0.95328288E+00
  0.86415202E+00  0.89587960E+00  0.45620138E+00
  0.82257043E+00  0.11852559E+00  0.54005226E-01
  0.35500837E+00  0.65258520E+00  0.56011183E+00
  0.85281244E+00  0.12674981E+00  0.21623930E+00
  0.34379964E+00  0.63188578E+00  0.70149999E+00
  0.86608692E+00  0.91034074E+00  0.31598574E+00
  0.35978889E+00  0.43448662E+00  0.80797594E+00
  0.13134705E+00  0.60130961E+00  0.30737297E+00
  0.64251083E+00  0.11070491E+00  0.80261920E+00
  0.12811216E+00  0.39123326E+00  0.20375835E+00
  0.63838515E+00  0.89905449E+00  0.70690928E+00
  0.82670142E+00  0.62910579E+00  0.96157062E+00
  0.33937543E+00  0.12668612E+00  0.44336904E+00
  0.87397955E+00  0.41086439E+00  0.54500854E+00
  0.32444337E+00  0.90241634E+00  0.39080179E-01
  0.14764847E+00  0.14813903E+00  0.54183979E+00
  0.63230958E+00  0.60533631E+00  0.54194726E-01
  0.13695397E+00  0.88083666E+00  0.94205136E+00
  0.64735872E+00  0.40615371E+00  0.44237664E+00