Na88 Ge16 P8 Se96                       
   1.00000000000000     
    13.9614333504000001    0.0000000000000000    0.0000000000000000
     0.0000000000000000   13.9614333504000001    0.0000000000000000
     0.0000000000000000    0.0000000000000000   27.9228667008000002
   Na   Ge   P    Se
    88    16     8    96
Direct
  0.0130269441039243  0.0032955326198984  0.1292996233804768
  0.5063193635342600  0.4984134438267405  0.6139019457926059
  0.4891784981188340  0.4872264344384774  0.8847967369496917
  0.0096898778017049  0.0027975727116745  0.3700662131138413
  0.2973925875253541  0.9557935700204495  0.8679297555945720
  0.9956510621497378  0.5558453023324287  0.3553892668895300
  0.9917496194366455  0.4534570847521251  0.1256956938268323
  0.2852545857197006  0.2281987343490187  0.2216969200666951
  0.7513541982780063  0.7340423103129700  0.6277274451541777
  0.8330544568478447  0.1363216575140569  0.9083927517882600
  0.7701705481831012  0.7667924629318533  0.3785068687687667
  0.2758611003622980  0.2122003526906702  0.8880291574688218
  0.7846470244360902  0.2394229020679253  0.1175998590740681
  0.3100597474959600  0.8201417558669627  0.6176652011614823
  0.9911679110231834  0.9471725241650230  0.8640141076711707
  0.3053388759019331  0.5127518888342253  0.3643444115257874
  0.9918862587657109  0.0191294694442190  0.6330039138789578
  0.9961275983245098  0.5060933370672606  0.6163486240705788
  0.5055886533024361  0.9905938345872597  0.1141389844122050
  0.0358478565738800  0.5095211001565282  0.8588737339865599
  0.4858433369364972  0.0548225892918033  0.3966220462862530
  0.2675579133492112  0.2898135270296423  0.3781682586563277
  0.7729497575207841  0.7512421624389282  0.8799516066146466
  0.7688879538122111  0.2411136717745091  0.6154938530745308
  0.2727586788672790  0.6578105494853992  0.1217041825111346
  0.2766237511010803  0.2642828705071418  0.7300628266081246
  0.7385594472064358  0.7638865176098090  0.1355983230904446
  0.8129143220378972  0.3877633697559850  0.3914546880417419
  0.4665111301807850  0.8011856887057189  0.5057754647368486
  0.4861704683198868  0.2257064776156799  0.9933750483667750
  0.9945288887091251  0.4991579235221015  0.4912890331484952
  0.4920690901802018  0.7481114500677046  0.7431571960351903
  0.0169112139352294  0.7331945924131443  0.2544042220728163
  0.5269385416798337  0.2696931685343744  0.7504107315231958
  0.9863197749617618  0.9743046936881992  0.0004835367731776
  0.4873779710818910  0.2008489705586151  0.4970573623193691
  0.5115219621923874  0.7090981277556706  0.0016671903301246
  0.5177418404263796  0.2354968074110199  0.2504046661460201
  0.9911471123998548  0.7689581322001303  0.7569968651720691
  0.4956310106431876  0.7415670198441390  0.2491749040935912
  0.0242950741070619  0.9672868823895558  0.2432945284514523
  0.5452445674230822  0.5330914818000593  0.7510688559554424
  0.4791305892207999  0.0216571673852128  0.7582434633711828
  0.0059621194332684  0.4723956387434005  0.2472882066541591
  0.2386924958606090  0.2327312858877940  0.0578210637337771
  0.7936158463906423  0.7277600943988708  0.4958949735846561
  0.2122012888738743  0.7932397029993402  0.5054915051605569
  0.7479308328206087  0.2921875656480571  0.0016575738712036
  0.9897382034973935  0.0079347682512419  0.7415875189349066
  0.4701241385301170  0.4867764864485913  0.2546179401175451
  0.0243244814282016  0.5357832014426949  0.7454032169777236
  0.5243375273911113  0.9589714861226216  0.2619306753177718
  0.2778387218964813  0.2722349312883047  0.5212358422492912
  0.7897401140950413  0.7584013030973051  0.0092834967993540
  0.7688856782131674  0.2091532991636817  0.5049777121644883
  0.2139824582019979  0.7307700849223079  0.0164676410744717
  0.0780142705084011  0.2418939036026537  0.9807986884421757
  0.5072049978357565  0.5336225619516299  0.4877606670625576
  0.4913378837008547  0.4524141792066710  0.0411498393627599
  0.9945487364287015  0.9676204262385886  0.5202243897487226
  0.5058619399067233  0.9508027206293072  0.9815170142496316
  0.0345488955172871  0.2622157024621343  0.4919462593196282
  0.9915524240193054  0.5480961779508806  0.0060996831784917
  0.4499282358583535  0.9983862026493276  0.6487228169886433
  0.0101760366517357  0.2396793816050684  0.2434081437045125
  0.7488820093357434  0.7528985490618768  0.7475634103334593
  0.2598537142163977  0.7439658088064696  0.2518918095718367
  0.7428162130067703  0.2407265809580352  0.7456006329184414
  0.7545536097088439  0.7384713606992319  0.2439841153160807
  0.0377581254908029  0.2747654892711768  0.7429313827758713
  0.7575389348720899  0.2437103427398354  0.2474797758599242
  0.2479496366523265  0.7525519639011509  0.7394153828023708
  0.2525390883423584  0.4409419332319587  0.1135283116160127
  0.7239583173031330  0.9852400390034621  0.6309084688409197
  0.6610901205744790  0.9663092881022105  0.8810279705633904
  0.2463724824184262  0.7366893646816506  0.3700487393731967
  0.2626470286508776  0.4809081381945501  0.8732669531313575
  0.7264542901252321  0.0412886347822061  0.3852105494469631
  0.7517585814729063  0.0177065714277382  0.1297312072070227
  0.2471589332730539  0.5340765448354823  0.6182113384273004
  0.7676560971836818  0.4999580198129482  0.8735178426055873
  0.2527800446046035  0.0285332086040788  0.3754152014606054
  0.7579795689118841  0.4851920696605870  0.6162211967124667
  0.2426155235630839  0.9455176592114745  0.1235989172238718
  0.2464211025863699  0.0640405506657676  0.6232278375494331
  0.6887969157548999  0.4955829242987252  0.1404706079228762
  0.2265451375511774  0.7408376818547882  0.8767011513683404
  0.6338331483693580  0.5416902394193206  0.3876524558161618
  0.2707278073150346  0.9936330175477619  0.2492348754506344
  0.7783650894279095  0.4980439355326926  0.7502294289869007
  0.2230186410993263  0.0231974205135841  0.7462159792884797
  0.7445364207339892  0.5239216846976406  0.2560631920161574
  0.2376215280928917  0.9793133368842596  0.0008212674937915
  0.7395604871406624  0.4616311685702962  0.4977088733221673
  0.2404743283930259  0.0353197597173782  0.4944490683200738
  0.7399298000693646  0.5262672060534114  0.0038584313781219
  0.7382020452989282  0.9911836204791238  0.7480334525607062
  0.2256201647072181  0.4702114569471172  0.2433822256542880
  0.2802985201942948  0.5061995007556234  0.7484818217874969
  0.7737776299731348  0.0033500160630569  0.2555896314342794
  0.2370355784889529  0.5303744736264420  0.5001407729333531
  0.7436730181258342  0.0361473863120867  0.0041932508972341
  0.7556632354760030  0.9714640637375865  0.5042031158415690
  0.2436680797360462  0.4746354049830951  0.9872348833510882
  0.9923334999254524  0.2760926620371480  0.3591345682115291
  0.4976481513014131  0.7346685003992067  0.8729148858278655
  0.5099120506760503  0.2529721404388380  0.6218888748224397
  0.9968575712293992  0.7332275925287685  0.1294439221472340
  0.0178928469652163  0.2350667979728237  0.8613975829187220
  0.5015974149822902  0.7680936489451912  0.3698746621512736
  0.0029653633999549  0.7565945513711988  0.6251463593851231
  0.4995563560878035  0.2435848101433185  0.1271679814760213
  0.1194553010258913  0.4139103975834699  0.0386035233465591
  0.6675685847974775  0.8549893280956624  0.5480741227344453
  0.6539869271656052  0.1274610101693089  0.9508793280476262
  0.1451329137224698  0.6194982528903554  0.4506153972227857
  0.3459229846191930  0.3567389829685107  0.9605614829914572
  0.8412675268086841  0.9163486579456709  0.4391499110508001
  0.8620024511247514  0.1274661517412326  0.0481682377671492
  0.3425414667063794  0.6416391281379510  0.5456207253968961
  0.8906697675907073  0.0887843171093313  0.2074968746039038
  0.3808177135796539  0.5959000085030185  0.6988900463213334
  0.8700092783693774  0.9107016032208956  0.3039582112766470
  0.3831703667412731  0.4015663955973404  0.7936401292707397
  0.1466887650054660  0.5844738373760289  0.2989890972368647
  0.6510212311591270  0.1018918940790333  0.8016572316136733
  0.1260248432146092  0.3739039794947395  0.1888443337619087
  0.6222760767854133  0.8960874536536424  0.7123773475593910
  0.8474205176889391  0.6089519492227405  0.9515796966877144
  0.3217347306386975  0.1509451421754167  0.4496198744167455
  0.8508740329045023  0.3652904209030662  0.5448064453458721
  0.3371453281768079  0.8749885646222190  0.0478478045221766
  0.1173533938603915  0.1103648939529189  0.5413858125782154
  0.6527014739110918  0.6311784019205412  0.0538075727582128
  0.1464767515456178  0.8831426047392564  0.9509570821707548
  0.6393790549322820  0.3621654800696096  0.4538518882101634
  0.6526927439464270  0.4128093711452057  0.3086278413494178
  0.1494624812548794  0.9115699730208726  0.7967450760463282
  0.1253272447488957  0.1180889018388389  0.6931394076316004
  0.6302241206366095  0.6066889325361673  0.2112609957593013
  0.8850556875140172  0.4050787621671110  0.7042215568174778
  0.3636987613678448  0.8914913784368522  0.2060254804432074
  0.3734845230673235  0.1079704450533249  0.2897673218205532
  0.8712365159878571  0.6004640462349340  0.8037629051432121
  0.1306911420124791  0.0630687035492966  0.0482404826980557
  0.6561659393254884  0.5718219951823762  0.5442194191059604
  0.6136577135127876  0.4397490075268395  0.9656690164697473
  0.1454251476703652  0.9377708242658461  0.4445404961517730
  0.3410828560675326  0.0664856020029307  0.9550310082509567
  0.8267349648493147  0.5639326376585847  0.4414839641976059
  0.8379635791399139  0.4349425559426703  0.0492409154446910
  0.3577024053120986  0.9536848468135635  0.5475376018717121
  0.1675694064810639  0.0713548815242332  0.1966794196932032
  0.6889593042852336  0.5801122637317871  0.6902340279663020
  0.1693477273552748  0.8872454446425878  0.3027463606028593
  0.6814312281391545  0.3875515361700608  0.7968956810388923
  0.8396951650186523  0.6250501651263546  0.3083554142630266
  0.3244614039987923  0.1185333022332676  0.7971639835844581
  0.8301117118948277  0.4106044790889295  0.1986415590139700
  0.3247042909911715  0.9127744365062872  0.6987294046816614
  0.8226261110104871  0.9326884142719103  0.9427667190366820
  0.3403774670067347  0.4321968212766238  0.4603802358401401
  0.8491571230084859  0.0653759447441163  0.5562348670836913
  0.3403281050283924  0.5802090877366485  0.0448873984906360
  0.1371708375075737  0.4319120969305028  0.5465790309880905
  0.6563175831652776  0.9268823122092491  0.0492816419955879
  0.1408612055703636  0.5680693544200341  0.9385293436051398
  0.6278608951676186  0.0617799040972104  0.4731989713762407
  0.3251675721488579  0.3656668924838983  0.2901680685628939
  0.8269028898476707  0.8906760411311400  0.8062526879431570
  0.8372997412229611  0.0878169101246618  0.6929383185968307
  0.3279142597791109  0.5752373572036851  0.1991393140690629
  0.1735891927238211  0.4221739149355286  0.7002044174124441
  0.6788990259887323  0.9167332923503398  0.1999080960199875
  0.6690012766975115  0.1084783758221378  0.3002203641448488
  0.1810128289872551  0.6120933958577083  0.8001795694214774
  0.1001906683930944  0.1844134624591436  0.3261434131579453
  0.6016480464337751  0.6501793983386256  0.8299484578645338
  0.6022859273359746  0.3625833011661660  0.6613233889069476
  0.0932605336155653  0.8288978379170755  0.1659566665473833
  0.4202403503020588  0.1764643277334139  0.6768109982363699
  0.9194413146219592  0.6380204296962303  0.1781444930849216
  0.8988877399117713  0.3537705675624791  0.3048472492009343
  0.4334506094050586  0.8403300147359508  0.8273173894074124
  0.0915487568805071  0.1188858207681854  0.9003072977977488
  0.5854902315434831  0.6998972048258659  0.4281993435397067
  0.0990155667197715  0.8547340963410355  0.5889019054668205
  0.6033780282107365  0.3147060152518056  0.0815633580764557
  0.9094496383934814  0.6792970927598895  0.5749852733427949
  0.4176830608232603  0.1555574257770646  0.0746899723644261
  0.9411307334775797  0.3352322482431963  0.9113281795658693
  0.4028223558132643  0.8686036897382794  0.4081867283934341
  0.9082529682693431  0.8345909050208509  0.6798722598689830
  0.4188932233568475  0.3457766444930673  0.1729282982389122
  0.9156628367460279  0.1606162679657887  0.8103498544744024
  0.4197644458934853  0.6563504637974727  0.3318267352914674
  0.1377366076037417  0.3185556537028115  0.8297710485410421
  0.6127418923494132  0.8400264037753146  0.3263728752717350
  0.0983269757302152  0.6621236296097852  0.6628011737546498
  0.5898980386423800  0.1411182513727539  0.1736576216646716
  0.4391054390537285  0.3315031633198813  0.5625774636363077
  0.8982214751058729  0.8208441574395788  0.0849615619804892
  0.9171200625305207  0.1859101202215203  0.4120335411510399
  0.4044315451103094  0.6436705767512473  0.9167280556590884
  0.0749384225489623  0.3840844137586146  0.3990099099047960
  0.6009734187261929  0.7993727521925623  0.9227863876066774
  0.5919682996228882  0.1395470997096915  0.5897868104055800
  0.0929157313338206  0.6415306657756804  0.0879586781212255
 
 -0.74576857E-02  0.25200648E-03 -0.46243718E-03
 -0.61731829E-03  0.32466507E-02 -0.54371648E-02
 -0.40856809E-02 -0.36443062E-02  0.59964679E-02
 -0.35028947E-02 -0.36052301E-02  0.40310316E-02
  0.37148625E-02 -0.38158122E-02 -0.21537574E-02
  0.66786566E-02 -0.56502520E-02 -0.49999809E-02
 -0.28696555E-02 -0.14904245E-02 -0.59919223E-02
  0.45577548E-02  0.25197384E-02  0.44129129E-02
 -0.14003443E-02  0.51594984E-02  0.42382451E-02
  0.88214921E-02  0.17344655E-02  0.15994841E-02
 -0.90336138E-02 -0.24679388E-03 -0.21572934E-03
 -0.25653250E-04  0.13328650E-02 -0.14143832E-02
 -0.55699916E-02  0.63237929E-03  0.21782178E-03
  0.16311260E-02  0.37209254E-02  0.19022425E-02
 -0.32013031E-03  0.12169032E-03 -0.63624714E-02
  0.68856808E-02 -0.85780039E-03  0.26546676E-02
 -0.90197025E-02  0.19125457E-02 -0.29776180E-02
 -0.24650467E-02  0.34459540E-02  0.27618268E-02
  0.53224688E-02  0.15478596E-02 -0.22934003E-02
 -0.33926019E-02 -0.12202807E-02  0.80595428E-02
  0.88048346E-02 -0.51895605E-02  0.30130426E-02
 -0.34639499E-02 -0.12575782E-02 -0.29537341E-02
 -0.27982430E-02 -0.16004186E-02  0.21178995E-02
 -0.33833668E-02 -0.16100479E-02  0.40046812E-02
  0.36275434E-02  0.15053634E-02 -0.14643129E-04
 -0.72024925E-02  0.43541575E-02  0.44718817E-02
  0.16088075E-02 -0.50303339E-02  0.52803895E-02
 -0.24961211E-02 -0.33370154E-02 -0.63214852E-03
  0.37023381E-02 -0.51775529E-02 -0.15270336E-03
  0.76398110E-02 -0.39677536E-02 -0.65013343E-02
  0.11563351E-03  0.14866199E-02  0.26085432E-02
 -0.28005168E-02  0.52841047E-02 -0.31914692E-02
  0.11391349E-02 -0.69875067E-03 -0.52910782E-02
  0.22046192E-02  0.25080466E-02  0.87757092E-02
 -0.38738329E-02 -0.33983377E-02 -0.83367250E-04
  0.51637162E-03  0.30470766E-03  0.24271779E-02
  0.58566133E-03  0.30421196E-02  0.49797871E-03
 -0.97539510E-02 -0.10874998E-03  0.32028440E-02
  0.11495227E-02 -0.54734676E-02 -0.27831408E-02
 -0.31682971E-02 -0.73402049E-02 -0.57363886E-03
 -0.68160673E-03  0.11326457E-02  0.58717461E-02
  0.11143255E-02 -0.40018066E-02 -0.45758211E-03
  0.59603041E-02 -0.47867895E-02  0.20747019E-02
  0.29316335E-02 -0.48815501E-03 -0.10844269E-02
  0.12969396E-02  0.46167037E-02  0.38300819E-02
  0.16294118E-02 -0.38486286E-02 -0.15672806E-02
 -0.81724247E-02  0.28384231E-02 -0.36867681E-02
  0.80455353E-02 -0.57638726E-02  0.33524843E-03
  0.12063075E-02 -0.35805507E-02 -0.40432476E-02
 -0.35096519E-02  0.52480968E-02  0.39106403E-02
  0.31412293E-02  0.52498194E-03  0.92949249E-02
 -0.42278234E-02 -0.74069674E-02  0.79498454E-03
  0.39070973E-02 -0.27167510E-02 -0.37961053E-03
 -0.11335059E-02  0.29630288E-02 -0.43505760E-02
  0.79581857E-02 -0.29862870E-02 -0.36876826E-02
 -0.25632087E-02 -0.48003503E-03 -0.41272285E-03
  0.96129056E-03  0.26562884E-02 -0.13445524E-02
  0.23261778E-02  0.69649662E-03 -0.30624497E-02
  0.76379030E-02  0.69552315E-03 -0.61525685E-03
 -0.61116007E-03  0.32970052E-02 -0.26144669E-02
  0.37256956E-02  0.45855728E-03 -0.38379851E-02
  0.33652139E-02  0.33402722E-02 -0.67981142E-02
 -0.37263254E-02 -0.59662515E-02 -0.10146882E-02
  0.92383076E-02  0.21307821E-02  0.47795533E-02
 -0.20088622E-02  0.77155627E-03 -0.36834159E-02
 -0.24073028E-02  0.81566918E-02 -0.33139015E-03
  0.81827690E-03  0.27634305E-03 -0.61375813E-02
  0.14239572E-02 -0.36913536E-02  0.10115437E-01
  0.30583363E-03 -0.42821126E-02  0.17448094E-02
  0.74481683E-03 -0.20017209E-02  0.51746668E-02
  0.34408142E-02 -0.17266151E-02  0.98063409E-02
  0.28265303E-02  0.11270304E-02 -0.68772863E-02
 -0.48171846E-02 -0.16633902E-02  0.35438899E-02
  0.27421311E-02 -0.99893383E-02  0.19002777E-02
 -0.48395566E-02 -0.76019735E-02  0.16939580E-02
  0.32283789E-02  0.25639950E-02 -0.36015296E-03
  0.39587891E-02  0.77263309E-02 -0.21013544E-02
 -0.19691853E-02  0.13773336E-02  0.70315687E-02
  0.62420162E-02  0.29797972E-02  0.16459867E-02
 -0.17135657E-02 -0.42438069E-02 -0.46702877E-02
  0.14231579E-02 -0.61816346E-02  0.69665498E-03
  0.75856408E-02 -0.48893936E-02  0.37965720E-02
  0.28209581E-02 -0.51904227E-02 -0.96807216E-03
  0.39328870E-02  0.12220959E-02 -0.55738328E-02
  0.23114771E-02 -0.32207128E-02  0.22123379E-02
 -0.26981281E-02  0.64777568E-02  0.14150946E-02
 -0.28914493E-02 -0.37626477E-03 -0.57715175E-02
 -0.29831953E-02 -0.53560310E-02 -0.16401680E-02
 -0.34483738E-03  0.11216390E-02 -0.31338819E-03
 -0.83551065E-03  0.21286230E-02  0.27744739E-02
  0.37281344E-03  0.99503346E-03 -0.18028491E-02
 -0.17694606E-02 -0.32357506E-02  0.43083442E-02
  0.18908560E-02 -0.23214301E-02 -0.21665301E-02
  0.13116464E-02  0.12079813E-02  0.29967948E-02
  0.26589007E-02  0.17104822E-02 -0.81901529E-03
 -0.17146464E-02  0.23221543E-03  0.12917339E-02
 -0.23240176E-02  0.21848405E-02  0.37068333E-02
 -0.44218718E-04 -0.24949767E-02 -0.24616305E-03
  0.37088788E-03  0.15661145E-02 -0.30322566E-02
 -0.24008710E-02 -0.39841634E-02  0.72071874E-03
 -0.91390316E-03  0.47583093E-02 -0.14354105E-02
  0.45576534E-02 -0.15505717E-02  0.36957345E-02
  0.58985474E-03 -0.38888325E-04  0.16595077E-02
  0.43372092E-03 -0.21134570E-03 -0.69473790E-03
 -0.26227015E-02  0.12796649E-02 -0.12511751E-02
 -0.14604852E-02  0.78682222E-03 -0.28984722E-02
 -0.11068890E-02 -0.22874718E-02 -0.30475062E-02
  0.16059310E-02 -0.37049094E-02  0.75421229E-03
 -0.45287556E-02 -0.28380646E-02 -0.17703724E-02
  0.22089647E-02  0.95166456E-03 -0.20058491E-02
  0.74605558E-03  0.32300844E-02 -0.12660206E-02
 -0.50473124E-03 -0.75830054E-03 -0.11183118E-02
  0.15105582E-02 -0.13188568E-02  0.25861489E-02
 -0.29544626E-02  0.26976668E-02 -0.13265497E-02
  0.34276490E-02  0.12537750E-02 -0.69933881E-02
 -0.28181648E-02 -0.20432435E-03 -0.41633855E-02
 -0.15733698E-02 -0.64373198E-03 -0.18134644E-02
  0.17571029E-02 -0.14789858E-02  0.25469308E-02
  0.11012381E-02  0.99800562E-03  0.22186450E-03
  0.16322973E-02  0.40180486E-03  0.51817003E-02
 -0.18531884E-02 -0.11414756E-02 -0.67364556E-04
 -0.24829118E-02  0.22304921E-02  0.69195430E-03
 -0.77791516E-03  0.59263127E-03 -0.11883359E-03
  0.46293180E-03 -0.12795088E-02 -0.10588955E-02
  0.41105843E-03  0.23900806E-02 -0.15889044E-03
  0.43258851E-02 -0.29321248E-02 -0.40200350E-03
  0.10278773E-02 -0.14483936E-02 -0.23386439E-02
  0.34720348E-02 -0.50436179E-02  0.75245645E-03
 -0.17966671E-02  0.16749914E-02  0.28431905E-03
 -0.26930358E-02  0.46606401E-02  0.28918323E-02
  0.46405711E-02  0.27133583E-02  0.30995822E-02
 -0.39980188E-03 -0.96328446E-03  0.47971169E-02
  0.10082462E-02 -0.85291987E-03 -0.35046134E-02
 -0.21875511E-02 -0.12621010E-02 -0.83905614E-03
 -0.24689620E-02  0.88601771E-03 -0.46013349E-03
  0.19360171E-04 -0.11240165E-02 -0.71737828E-02
  0.24264002E-02  0.10295642E-02  0.20396492E-02
  0.49538306E-04 -0.31658276E-02 -0.33969578E-03
  0.42498921E-02  0.26923770E-02  0.20300082E-02
  0.28362260E-02  0.63384966E-02  0.32569741E-03
 -0.28740832E-02  0.35570903E-03  0.67467696E-03
  0.25578614E-03 -0.31622313E-02 -0.19285041E-02
  0.49103181E-03  0.16159159E-03 -0.78602926E-03
 -0.33385191E-02 -0.14162795E-02 -0.19954771E-02
  0.15693496E-02  0.24074415E-02 -0.14641357E-02
 -0.22804153E-02 -0.82271781E-03  0.41313788E-02
 -0.10915042E-03 -0.43450321E-02 -0.22104546E-02
 -0.88904322E-03  0.24262964E-02 -0.69960364E-03
  0.22219177E-02  0.27137966E-03 -0.13615989E-02
  0.45274578E-02 -0.27918576E-02  0.29879568E-02
 -0.10140593E-02 -0.59257309E-03 -0.33739872E-03
  0.88049020E-03  0.48171577E-02  0.53225991E-03
 -0.58312077E-03 -0.26127701E-02  0.92537029E-03
 -0.78748544E-03  0.34405838E-02 -0.25281340E-02
 -0.39768298E-02  0.24237699E-02 -0.19034159E-02
  0.26139329E-03  0.36263148E-02  0.26480039E-03
 -0.16583655E-02 -0.91580456E-03 -0.25195373E-02
  0.38155506E-03  0.60781848E-03  0.35693763E-02
 -0.16002223E-02 -0.23384861E-03  0.20347514E-02
 -0.19909304E-02 -0.76620666E-03 -0.10583134E-03
  0.23733183E-02  0.17801602E-02  0.32641341E-02
 -0.61649810E-03  0.80123556E-03 -0.11439954E-02
 -0.30427831E-02 -0.83134783E-03 -0.30687172E-02
 -0.26154716E-02  0.15539591E-02  0.25959684E-02
 -0.28056603E-03  0.56231606E-03 -0.21338679E-02
 -0.28643742E-02 -0.16836306E-02  0.11387703E-02
  0.19240322E-02 -0.13989178E-02  0.26664961E-03
  0.70493335E-03  0.19696733E-02 -0.40899735E-02
  0.30033975E-02  0.84858262E-03  0.40460061E-02
  0.15519181E-03  0.32999514E-03 -0.24882647E-02
 -0.19184742E-02  0.17956733E-02  0.38448861E-04
  0.10735137E-02 -0.22307886E-02 -0.50679270E-03
  0.21965092E-02 -0.18106482E-03  0.21520824E-03
  0.12353921E-02 -0.30918551E-02 -0.27337003E-02
  0.94676068E-03 -0.91460156E-04 -0.31649074E-03
  0.71983379E-03 -0.33413928E-02 -0.98669987E-03
 -0.82995511E-03 -0.23974574E-04 -0.19536400E-02
  0.34647860E-02  0.20483046E-02  0.74207631E-03
  0.22865686E-02  0.37479118E-04 -0.77747151E-03
  0.15376966E-03  0.10677170E-02 -0.39494683E-02
 -0.39174897E-03  0.19286347E-02  0.16648127E-02
  0.15008759E-03  0.23260754E-02  0.40871721E-03
 -0.46198392E-02 -0.11733459E-02 -0.81285450E-03
 -0.85818588E-03 -0.84411364E-03 -0.51405604E-03
 -0.98254151E-03 -0.10085509E-04  0.10752443E-02
 -0.69774586E-03  0.94058563E-03  0.34378284E-02
  0.59565965E-03  0.62618258E-02  0.15817530E-02
  0.62360017E-03 -0.23823852E-02 -0.94929161E-04
 -0.40180263E-03  0.19214023E-02 -0.24592027E-03
 -0.14576421E-02 -0.23677805E-02  0.19243627E-03
 -0.49322193E-02 -0.36931284E-02  0.11011590E-02
 -0.34923783E-02 -0.27535247E-02  0.13807200E-03
  0.37176104E-02 -0.45111246E-03 -0.20331693E-02
  0.21006197E-03 -0.13406267E-02  0.21259976E-02
 -0.34818588E-02  0.18108679E-02 -0.14145296E-02
 -0.19574987E-02  0.21660877E-02 -0.89011165E-03
  0.17031721E-03 -0.13691366E-02 -0.10268110E-02
  0.19991578E-02 -0.57840521E-03 -0.19581308E-02
  0.63760932E-03 -0.13510099E-02 -0.19146243E-02
 -0.13837335E-02 -0.25066609E-02 -0.15531105E-02
  0.60583604E-03  0.37674600E-02 -0.27557403E-02
  0.21536855E-03 -0.28809910E-03  0.21035892E-02
 -0.44844128E-02  0.34321386E-02  0.21042816E-02
 -0.22288799E-02  0.15857203E-02  0.36137473E-03
 -0.37481068E-04 -0.30895730E-03  0.21367154E-02
  0.16785807E-02  0.40206274E-02 -0.42934398E-03
 -0.19295204E-03  0.16195780E-03  0.33679331E-02
  0.75692146E-03 -0.25932952E-02  0.35274758E-03
 
           1
   2.00000000000000     
  0.10120796E+01  0.20396935E-02  0.00000000E+00  0.00000000E+00
  0.11958617E-01  0.33316330E-02  0.12926650E+00
  0.50623093E+00  0.49887853E+00  0.61351250E+00
  0.48859322E+00  0.48670438E+00  0.88522624E+00
  0.91880819E-02  0.22811171E-02  0.37035494E+00
  0.29792475E+00  0.95524695E+00  0.86777549E+00
  0.99660779E+00  0.55503589E+00  0.35503114E+00
  0.99133854E+00  0.45324358E+00  0.12526652E+00
  0.28590749E+00  0.22855969E+00  0.22201300E+00
  0.75115360E+00  0.73478142E+00  0.62803101E+00
  0.83431815E+00  0.13657012E+00  0.90850732E+00
  0.76887647E+00  0.76675711E+00  0.37849142E+00
  0.27585743E+00  0.21239129E+00  0.88792785E+00
  0.78384911E+00  0.23951349E+00  0.11761546E+00
  0.31029341E+00  0.82067478E+00  0.61780145E+00
  0.99112205E+00  0.94718996E+00  0.86355839E+00
  0.30632526E+00  0.51262901E+00  0.36453455E+00
  0.99059417E+00  0.19403445E-01  0.63279064E+00
  0.99577448E+00  0.50658698E+00  0.61654644E+00
  0.50635111E+00  0.99081557E+00  0.11397472E+00
  0.35361860E-01  0.50934629E+00  0.85945101E+00
  0.48710465E+00  0.54079176E-01  0.39683786E+00
  0.26706170E+00  0.28963338E+00  0.37795669E+00
  0.77254890E+00  0.75101290E+00  0.88010330E+00
  0.76840328E+00  0.24088303E+00  0.61578069E+00
  0.27327833E+00  0.65802620E+00  0.12170313E+00
  0.27559198E+00  0.26490661E+00  0.73038313E+00
  0.73878991E+00  0.76316591E+00  0.13597654E+00
  0.81255675E+00  0.38728534E+00  0.39140941E+00
  0.46704150E+00  0.80044400E+00  0.50576453E+00
  0.48726488E+00  0.22513809E+00  0.99290938E+00
  0.99454545E+00  0.49937088E+00  0.49147587E+00
  0.49166791E+00  0.74886841E+00  0.74292860E+00
  0.17074397E-01  0.73309450E+00  0.25402524E+00
  0.52725436E+00  0.27005245E+00  0.75103930E+00
  0.98576484E+00  0.97381788E+00  0.47756552E-03
  0.48745194E+00  0.20089262E+00  0.49723121E+00
  0.51160586E+00  0.70953392E+00  0.17028585E-02
  0.51634457E+00  0.23548123E+00  0.25063407E+00
  0.99131178E+00  0.76817405E+00  0.75679752E+00
  0.49517715E+00  0.74051552E+00  0.24913382E+00
  0.24197433E-01  0.96744914E+00  0.24371510E+00
  0.54540420E+00  0.53251822E+00  0.75103608E+00
  0.47998441E+00  0.20971451E-01  0.75839207E+00
  0.63820811E-02  0.47232571E+00  0.24721053E+00
  0.23887828E+00  0.23339264E+00  0.58095397E-01
  0.79384926E+00  0.72720877E+00  0.49578272E+00
  0.21103057E+00  0.79364631E+00  0.50522744E+00
  0.74908337E+00  0.29136188E+00  0.16815863E-02
  0.98991101E+00  0.74218480E-02  0.74129792E+00
  0.46962137E+00  0.48752829E+00  0.25489804E+00
  0.24774468E-01  0.53585841E+00  0.74606897E+00
  0.52373188E+00  0.95791042E+00  0.26198762E+00
  0.27839842E+00  0.27184575E+00  0.52120865E+00
  0.78957774E+00  0.75882576E+00  0.89718829E-02
  0.77002570E+00  0.20872551E+00  0.50471358E+00
  0.21361527E+00  0.73070132E+00  0.16438079E-01
  0.78151977E-01  0.24227442E+00  0.98070238E+00
  0.50753823E+00  0.53372234E+00  0.48754132E+00
  0.49243203E+00  0.45251381E+00  0.41105771E-01
  0.99446119E+00  0.96809273E+00  0.52003713E+00
  0.50639565E+00  0.95086841E+00  0.98124212E+00
  0.35030968E-01  0.26269420E+00  0.49145934E+00
  0.99101862E+00  0.54724150E+00  0.60270052E-02
  0.45125164E+00  0.99869144E+00  0.64906516E+00
  0.98882636E-02  0.23978991E+00  0.24314432E+00
  0.74853716E+00  0.75406701E+00  0.74753967E+00
  0.25997093E+00  0.74400540E+00  0.25145220E+00
  0.74302020E+00  0.24019779E+00  0.74632516E+00
  0.75459742E+00  0.73785794E+00  0.24410909E+00
  0.37864822E-01  0.27447874E+00  0.74330202E+00
  0.75803184E+00  0.24346300E+00  0.24818216E+00
  0.24835454E+00  0.75271341E+00  0.73892279E+00
  0.25184902E+00  0.44070365E+00  0.11378215E+00
  0.72435113E+00  0.98380905E+00  0.63104458E+00
  0.66039685E+00  0.96522029E+00  0.88114930E+00
  0.24683495E+00  0.73705666E+00  0.37002294E+00
  0.26321413E+00  0.48201495E+00  0.87311644E+00
  0.72617220E+00  0.41485940E-01  0.38571419E+00
  0.75265276E+00  0.18133433E-01  0.12984910E+00
  0.24691346E+00  0.53346861E+00  0.61787682E+00
  0.76785997E+00  0.49907249E+00  0.87356774E+00
  0.25386670E+00  0.27832794E-01  0.37568713E+00
  0.75838368E+00  0.48444853E+00  0.61615186E+00
  0.24317892E+00  0.94569273E+00  0.12319969E+00
  0.24675223E+00  0.63579178E-01  0.62338630E+00
  0.68841040E+00  0.49651087E+00  0.14057197E+00
  0.22613093E+00  0.74078378E+00  0.87628776E+00
  0.63340580E+00  0.54092298E+00  0.38753498E+00
  0.27067841E+00  0.99379369E+00  0.24921243E+00
  0.77824540E+00  0.49834886E+00  0.75042815E+00
  0.22307205E+00  0.23339961E-01  0.74608685E+00
  0.74428294E+00  0.52345816E+00  0.25637178E+00
  0.23789240E+00  0.97898079E+00  0.66608786E-03
  0.73974838E+00  0.46180421E+00  0.49792352E+00
  0.24085522E+00  0.35564789E-01  0.49439041E+00
  0.73968417E+00  0.52630047E+00  0.39509530E-02
  0.73786913E+00  0.99149660E+00  0.74829896E+00
  0.22561383E+00  0.46985405E+00  0.24336459E+00
  0.28035165E+00  0.50642385E+00  0.74826463E+00
  0.77343370E+00  0.27792776E-02  0.25564125E+00
  0.23690466E+00  0.53105611E+00  0.50003796E+00
  0.74432591E+00  0.35925264E-01  0.44579611E-02
  0.75574773E+00  0.97145849E+00  0.50432198E+00
  0.24373021E+00  0.47460513E+00  0.98718512E+00
  0.99195779E+00  0.27627598E+00  0.35904495E+00
  0.49743893E+00  0.73478121E+00  0.87270728E+00
  0.50975349E+00  0.25264446E+00  0.62167059E+00
  0.99708762E+00  0.73269686E+00  0.12949794E+00
  0.17244095E-01  0.23466024E+00  0.86127078E+00
  0.50191385E+00  0.76822998E+00  0.36973099E+00
  0.30722372E-02  0.75705727E+00  0.62505568E+00
  0.49948405E+00  0.24347618E+00  0.12708788E+00
  0.11967169E+00  0.41372147E+00  0.38788759E-01
  0.66714535E+00  0.85537577E+00  0.54797911E+00
  0.65447794E+00  0.12764062E+00  0.95037842E+00
  0.14472921E+00  0.61946898E+00  0.45031719E+00
  0.34569760E+00  0.35664677E+00  0.96043159E+00
  0.84151923E+00  0.91613679E+00  0.43933234E+00
  0.86216021E+00  0.12760912E+00  0.48184129E-01
  0.34277530E+00  0.64169669E+00  0.54599187E+00
  0.89040430E+00  0.88620799E-01  0.20749205E+00
  0.38046203E+00  0.59621953E+00  0.69893961E+00
  0.86989784E+00  0.91078650E+00  0.30394970E+00
  0.38323668E+00  0.40138310E+00  0.79356428E+00
  0.14674765E+00  0.58481622E+00  0.29897772E+00
  0.65164092E+00  0.10147186E+00  0.80162844E+00
  0.12617209E+00  0.37369649E+00  0.18867683E+00
  0.62277345E+00  0.89536495E+00  0.71243124E+00
  0.84716314E+00  0.60919189E+00  0.95160006E+00
  0.32134895E+00  0.15161279E+00  0.44982700E+00
  0.85153880E+00  0.36567911E+00  0.54502846E+00
  0.33708806E+00  0.87485057E+00  0.48191402E-01
  0.11749783E+00  0.11024271E+00  0.54113479E+00
  0.65238810E+00  0.63099760E+00  0.53747475E-01
  0.14612307E+00  0.88326953E+00  0.95092412E+00
  0.63938183E+00  0.36200446E+00  0.45333806E+00