Na88 Sn16 P8 S96                        
   1.00000000000000     
    13.4813327813000008    0.0000000000000000    0.0000000000000000
     0.0000000000000000   13.4813327813000008    0.0000000000000000
     0.0000000000000000    0.0000000000000000   26.9626655626000016
   Na   Sn   P    S 
    88    16     8    96
Direct
  0.0128418189808741  0.0128390973928899  0.1309042983606176
  0.3907581630134012  0.5061370290354414  0.6303485990038115
  0.2280000658321724  0.7532562188100790  0.7467795509438023
  0.7578309523912938  0.4767268137573694  0.3800493181648078
  0.9977075511938204  0.9602342966957539  0.8735680062436765
  0.9753234222702241  0.5067852442016834  0.3775820410219476
  0.9674311890647368  0.4750704553681974  0.1389560212642161
  0.2838931776780768  0.2282504484214418  0.0069187961391446
  0.7762221439914690  0.9881679783133603  0.6316026049097182
  0.9992648018225107  0.9940555256837695  0.0180525096149078
  0.7297041475209388  0.2271598182574514  0.3967771861636868
  0.2499228338364649  0.3219041409208774  0.8802832786627230
  0.7056828200829429  0.4878899629530036  0.1302418665286287
  0.1752740271217705  0.7388632503696219  0.3782057285176031
  0.0144947461182076  0.0459026660815912  0.6264625070710449
  0.2501500499059894  0.5156389917282918  0.3768561471853089
  0.0122953289657939  0.9954984249165146  0.4832097784815428
  0.2611130943221356  0.7636135189873677  0.6285349393050526
  0.3001202759152551  0.0575329627903083  0.1323716151308839
  0.9931062930123099  0.4953724690337428  0.8801319652575040
  0.5214884314530612  0.9706166338893902  0.2730967116592637
  0.2968184583488810  0.2519646547984090  0.3600577410551516
  0.7573476078680148  0.2416839433610030  0.8575817129457411
  0.0554027872881763  0.5032681125702361  0.6318907143099813
  0.2777474817717257  0.7355575900804620  0.9829512337212989
  0.2757028436018259  0.2595205857019487  0.7456657271791629
  0.7778853738650446  0.2522764632008340  0.9996853524081410
  0.0130979420352209  0.2483633967074545  0.2334688957722841
  0.4970042938119076  0.4831336000163531  0.5218088019144553
  0.5381875020708171  0.2389726187699328  0.9952990003450055
  0.2323715500327483  0.2668945816364515  0.4832463589482414
  0.4704466269523785  0.0205540059366918  0.8760469441377688
  0.0094743130453502  0.7647261214445321  0.2490055139852929
  0.9817455537297716  0.2483186973842760  0.7481745062779761
  0.0117121460045585  0.7594928001047783  0.9837823600660680
  0.9947109345033176  0.2576068103850859  0.5019350464650014
  0.4825103208851615  0.0004285953973788  0.0013873824196999
  0.7896601358378177  0.2338994697971898  0.1243601558131091
  0.4952511379746719  0.7656109513517019  0.7585304281201086
  0.7580525550050661  0.2568255392503789  0.2577259678382530
  0.0119853826009243  0.0273775765843554  0.3160744877326426
  0.7105991763455169  0.7498564313768008  0.7542253583627133
  0.7544647719982158  0.0161442289248331  0.8696805738996011
  0.9737179600820901  0.4946661566421164  0.2450077586225654
  0.0475379785393443  0.2261357830844400  0.0061169661686105
  0.5357977886114260  0.7577139926230523  0.5250891742271713
  0.9987055306174026  0.5361139676674870  0.5249051496445649
  0.6216464918974499  0.2521879340210889  0.7435727688769703
  0.9880400898016953  0.9929773358357670  0.7448508391108671
  0.4692347190622452  0.5376928281500245  0.1253540529939932
  0.9855278424934500  0.7512062925906698  0.7639567551171816
  0.4735709284524551  0.5287590468457625  0.2625534887649008
  0.2453866808043312  0.2878618299002165  0.6276033369773779
  0.7981394089304269  0.7467353780594888  0.3696566546104681
  0.7930262632308647  0.5197004873117520  0.6219377269185699
  0.8025971667428851  0.9803889909479818  0.1255856833480015
  0.0108130376467046  0.5324319836186171  0.0073491752166103
  0.7248228106386182  0.2230187181510913  0.5141526646428107
  0.5231300093178793  0.7814558376606848  0.0167173714458317
  0.5036414370436479  0.0080062122484015  0.3832304892767281
  0.5427378267749888  0.0072909586828043  0.1365827398454427
  0.0455168290551688  0.7766204568469305  0.4983178597593371
  0.0275612256129462  0.5004649535280931  0.7597314963458222
  0.4942810197656531  0.1363943035369780  0.5066787382925281
  0.2460212443569917  0.2776556695559273  0.1335011348895093
  0.7669365844030089  0.7592280848330447  0.9967330395377699
  0.2914114202194997  0.7602459825709771  0.2552134970457132
  0.7486634646994645  0.2654179606216038  0.6338862063484900
  0.7370863962364957  0.7342435550155354  0.2546615046111499
  0.4932778073211869  0.0271351375965401  0.7548388414605930
  0.4891930337528784  0.2670065463790621  0.2522794437119653
  0.2979975982327877  0.6284139699480339  0.8777529255449485
  0.2172961142579753  0.5057287594726422  0.1236458303564598
  0.5225463410372144  0.9871346895108557  0.6243341447886823
  0.7417467784264211  0.5542625477624711  0.8748615280700920
  0.2690339144702008  0.9828560522554528  0.3790322294897531
  0.5277665454619104  0.5098910958101459  0.7628683793458813
  0.7511146554220383  0.7251870038770102  0.4816225193701320
  0.7401748612243870  0.7503547172858568  0.1193121088503429
  0.2994229285138677  0.7711504894670793  0.4909403351139721
  0.5120682478026278  0.4562762351740069  0.8823309043322499
  0.7534463704352801  0.9668494396012104  0.3712067324797559
  0.7421473429419483  0.7285513596188947  0.6255858936756691
  0.2767282220076255  0.7546009097464748  0.1239588647239215
  0.2554568492524695  0.0124159433458670  0.6262177326467318
  0.5157187906927964  0.5014211594908232  0.9941968890912571
  0.2291754802299174  0.9851442456593837  0.8763489819993958
  0.4858266660951307  0.4671251836486744  0.3744371708970673
  0.2807035240714627  0.9932538840141969  0.2457746768249433
  0.7740540863358879  0.4878594680234343  0.7510924890489529
  0.2329224973369737  0.0089549044113377  0.7564083881070861
  0.7132972051971601  0.4841452972061017  0.2587686054723710
  0.2493444321075635  0.9983475758603303  0.0069990202716208
  0.7537248867081617  0.4835443132022871  0.4913173206074176
  0.2793959630481825  0.0328507237320800  0.5038530826000852
  0.7644378667483417  0.5069739827384735  0.0073660485550192
  0.7362795395081401  0.9991107464457991  0.7520170141720659
  0.2210082017316451  0.4916692168183514  0.2562874007064242
  0.2616839284971818  0.5267065138830669  0.7610441614122130
  0.7763379019071227  0.9819545450475744  0.2526386602236863
  0.2575674824987216  0.5045952448699029  0.5068691707826175
  0.7466985140632113  0.0234374018086394  0.9959167597045236
  0.7745204127590229  0.9647385074329523  0.5013371647981900
  0.2597513084677852  0.4773248872676646  0.9929441387546943
  0.0074122465986590  0.2534112496543985  0.3802681468940721
  0.5128148649656780  0.7621660085455060  0.8782346791485803
  0.4929055748984221  0.2625834696135638  0.6291652350826997
  0.0027448236534868  0.7445731828298575  0.1321610074909438
  0.0076996656860388  0.2434404967600691  0.8742765527904455
  0.5135035558225189  0.7322009430445854  0.3848453133219744
  0.0121143413112254  0.7752427303846680  0.6347701470777335
  0.5226404531315421  0.2711435913767999  0.1242813209943695
  0.1645576569107016  0.3709580241827334  0.0498529774964024
  0.6708132568019918  0.8908992659270071  0.5595662821782625
  0.6626968977550833  0.1242040870043095  0.9372652938337588
  0.1533157776149935  0.6296698856383888  0.4590485594619596
  0.3704731548441060  0.3730551855253925  0.9502304289829091
  0.8670646381578718  0.8759646047573961  0.4386310245784133
  0.8637609768521447  0.1164273334874171  0.0465679121145331
  0.3449819528647333  0.6246739546923281  0.5580591490124100
  0.8845955765182170  0.0878235023803755  0.1978092237576823
  0.3801980696162108  0.6266765476472760  0.7176084742591953
  0.8710523516445987  0.8799674114877316  0.3055395678261269
  0.3590645106006474  0.4201622652918278  0.8156870085275606
  0.1068877095453560  0.5782577922103963  0.3127454127854787
  0.6280213916307952  0.0835923965645248  0.8067545033465452
  0.1218313423620924  0.3927147528874121  0.2043474667130534
  0.6231485438970653  0.9038626831861305  0.7083074265938052
  0.8659053859270801  0.6135014643210268  0.9601221268819765
  0.3539712466942415  0.1177785770931049  0.4409385584876221
  0.8387524217819333  0.3753697659284231  0.5565402233399223
  0.3624760488760898  0.8828846262477771  0.0535635977208352
  0.1554312360340666  0.1145439231560809  0.5485725149573254
  0.6589042538071616  0.6234836336142390  0.0544725834224006
  0.1360857432241214  0.8900500663924655  0.9645014439624139
  0.6362901398904390  0.3714246763139201  0.4577562815495408
  0.6222929162091834  0.3699489250428358  0.3100432886988815
  0.1166305900613713  0.9103321426557545  0.8042812159815633
  0.1295586204939254  0.1168118506083572  0.7066832812494361
  0.6203262060462161  0.5900002079717104  0.2106341313133429
  0.8937796876799765  0.4155584511170000  0.6931917709489942
  0.3855815344702390  0.8803621180794816  0.1925178545398840
  0.3687653606210222  0.0798511773323848  0.3083851782222433
  0.8603385611568164  0.6152712516425772  0.7954233096383181
  0.1485482815719669  0.0870733274203078  0.0642255450957454
  0.6545385427413204  0.5979543161487878  0.5449506873528083
  0.6523233331207834  0.4173612375793754  0.9513672729295564
  0.1788962468775885  0.9173311561799349  0.4524225689020603
  0.3364920791563469  0.0943521992931034  0.9470000351146274
  0.8615274578514550  0.5790930183856601  0.4466635133662535
  0.8621241038374700  0.3954078345295358  0.0601455897523423
  0.3887259321310402  0.9377323945308698  0.5554479304414666
  0.1886765659134313  0.1186007686725457  0.2050971197608630
  0.6825934989011825  0.5895211875318467  0.6953259062226704
  0.1665752116350004  0.8881653953338526  0.3016912129335373
  0.6733492857819230  0.3993552120350088  0.8101204488130214
  0.8325776271273170  0.5854522074797415  0.3014499573189964
  0.3328332151114489  0.1037651287931761  0.8127273200457144
  0.8191006659710381  0.4002608056093298  0.2000873118613096
  0.3533414643136262  0.9144141769112706  0.7049219750441764
  0.8685871360764225  0.9126465223945737  0.9632031465902973
  0.3539740917470978  0.3990741102536892  0.4499001747881214
  0.8608850355247285  0.0823800254104985  0.5537214486433853
  0.3412951361577434  0.5807417397864747  0.0543949543290064
  0.1445953312282347  0.3907290173530365  0.5558322283336372
  0.6485794944872283  0.9265237883335921  0.0516611070966379
  0.1555531415357939  0.5891501854585712  0.9520750048515588
  0.6612666717247807  0.0620697529183428  0.4564403742080772
  0.3403123297559902  0.3949783154972779  0.3034684199086921
  0.8241243611291804  0.8867616659898505  0.8035658376065146
  0.8341892105158019  0.1107262967118988  0.6971442278624530
  0.2986978813128442  0.5959143174350554  0.1946735537866427
  0.1944477468438677  0.4114929918762206  0.7037341524125583
  0.6661534634426627  0.8872735416848906  0.2018986570232973
  0.6779997157337799  0.0872783503668529  0.3001585799960708
  0.1581059274836573  0.6168525817889203  0.8114505628937392
  0.0987980247666178  0.1909979636407232  0.3283275520706255
  0.5883884647882279  0.6721501114135692  0.8303258541494097
  0.5715254458606245  0.3757179099162701  0.6638217870845088
  0.0957814740318546  0.8365820764787861  0.1690606630939141
  0.4051433464536180  0.1762203239378283  0.6737012829959066
  0.9058677327830734  0.6725298070244869  0.1844865414584991
  0.8951948963649664  0.3222284177736442  0.3392805385666030
  0.3971396806773120  0.8328067878258696  0.8417639476601848
  0.1080857560527927  0.1596770824679802  0.9142258046628693
  0.6113523358808577  0.6300820079689311  0.4092430885267787
  0.0901129098379786  0.8739426850485215  0.5921756303667358
  0.5745881474095912  0.3649629893438063  0.0691244635141913
  0.9386426295025998  0.6802187584164753  0.5918749636272894
  0.4434206523399080  0.1660856979544574  0.0806209590930144
  0.8983001603326682  0.3207428862105294  0.9165201865228795
  0.4412668854882165  0.8216800340427873  0.4358356148676777
  0.9088377913116608  0.8592447148927966  0.6819007061178985
  0.4252256975403567  0.3516716996072442  0.1655032737072661
  0.9239438326079782  0.1448348583752800  0.8313166173608830
  0.4053106921296196  0.6451909616433672  0.3406105596740358
  0.0725848727773812  0.3480773318672616  0.8313926739948910
  0.5785058158053492  0.8160090395742950  0.3292706640692313
  0.1031096841925685  0.6863512337689700  0.6747988676509115
  0.6026248348299684  0.1959263835728687  0.1750081482595017
  0.4067816290286219  0.3193092722210920  0.5711160490093564
  0.9271865279732937  0.8337643220692104  0.0808806729261605
  0.9514709288337972  0.1384377127722136  0.4169737168067699
  0.4554844873111142  0.6692826959003619  0.9306487336076870
  0.0782159328709451  0.3537400405679115  0.4223020733537439
  0.6044262023236420  0.8579096327589858  0.9065120268625523
  0.5984231360258490  0.1673069103315986  0.5996269179127622
  0.0868681357925953  0.6513115196291666  0.0890460820916487
 
  0.23980480E-02 -0.84698507E-02  0.75477285E-03
  0.67667815E-02  0.36105641E-02  0.28362066E-02
  0.35072319E-02  0.48787715E-02  0.36127531E-02
  0.25237394E-02 -0.68503368E-02  0.12475050E-01
  0.10899945E-01  0.11446644E-02 -0.73953526E-02
 -0.84855251E-02  0.10261609E-01 -0.65903184E-02
 -0.29305174E-02 -0.23205637E-02  0.26587203E-03
  0.29053871E-02 -0.12227747E-02  0.37890857E-02
 -0.44500149E-02 -0.41581981E-03  0.28700365E-02
 -0.27367398E-02 -0.14055433E-02  0.45778575E-02
 -0.46940045E-02  0.21562002E-02  0.33788871E-02
 -0.10523838E-02 -0.54877593E-02 -0.32746908E-02
 -0.46091164E-02 -0.22669150E-03 -0.21172414E-02
 -0.31339207E-02  0.40082894E-02 -0.39649553E-02
 -0.41940162E-02 -0.29903236E-02 -0.72373968E-02
 -0.12994365E-02  0.24866152E-02  0.63308815E-02
  0.24152071E-02  0.20806677E-02 -0.46739278E-02
  0.59992193E-02 -0.54310069E-02 -0.29805104E-02
  0.28179947E-02 -0.23254850E-02 -0.29636397E-02
 -0.88368440E-03  0.65477584E-02 -0.15617374E-02
  0.10039136E-01 -0.10913122E-01 -0.65200117E-02
  0.77632434E-03  0.20202789E-02  0.91290992E-02
 -0.19222542E-02 -0.29997289E-02  0.95286696E-02
  0.38736595E-02 -0.51690089E-02  0.79352311E-03
 -0.25462541E-02 -0.47992384E-03  0.39076227E-02
  0.78420749E-02  0.16026458E-02  0.51654814E-03
  0.10616841E-02 -0.12162957E-02 -0.12763548E-02
 -0.75778382E-02  0.10452103E-01 -0.14860719E-02
 -0.71064082E-02 -0.31434564E-02 -0.48153212E-02
 -0.31655882E-02  0.22716609E-02 -0.67700341E-02
  0.89312739E-02  0.48515325E-02  0.97654045E-03
 -0.23401219E-02  0.50072800E-02 -0.43818842E-02
 -0.13621290E-02 -0.33504968E-02  0.19470201E-02
  0.49628902E-02  0.84681080E-02  0.15462081E-02
  0.11450625E-01 -0.33356995E-02  0.40280528E-02
  0.32346131E-03 -0.34964846E-02  0.26412718E-02
  0.68663461E-02  0.65462252E-02  0.21470470E-02
  0.65829420E-02  0.45383625E-02 -0.29411354E-02
 -0.95114741E-02 -0.38837979E-02 -0.19861015E-02
  0.31635035E-02 -0.80173420E-03  0.44847616E-02
  0.20102972E-02 -0.41372647E-02  0.91706517E-02
 -0.57111970E-03 -0.19542016E-02  0.75012594E-03
 -0.16791259E-02 -0.37745101E-02  0.89282135E-02
  0.79782557E-02  0.10450845E-01 -0.28811946E-02
 -0.39799640E-03 -0.89436373E-02  0.18164166E-02
  0.69388996E-02  0.11306366E-03 -0.17173663E-02
  0.12085376E-02 -0.45218391E-02  0.83659127E-03
  0.62024084E-02 -0.15458014E-02 -0.35485280E-02
 -0.90489741E-02 -0.37748471E-02  0.88563871E-02
 -0.18699383E-02 -0.14250367E-02 -0.68870082E-03
 -0.54498615E-02 -0.74981014E-03 -0.29571878E-02
 -0.61833611E-02  0.15472964E-02  0.48377727E-03
  0.29879216E-02 -0.20204409E-02  0.14654797E-03
 -0.60467351E-02 -0.27774668E-03  0.56688262E-02
  0.72955960E-03 -0.28200663E-02 -0.69250938E-02
  0.52901445E-02 -0.25710382E-02 -0.72053898E-02
 -0.84218338E-03 -0.11594143E-01  0.23976634E-02
 -0.17684514E-02 -0.24505666E-02 -0.27434663E-02
 -0.27900470E-02  0.20615701E-02 -0.66147786E-02
  0.35132039E-02  0.18668936E-02  0.14886096E-02
  0.66140674E-02  0.19253723E-02  0.64850777E-03
  0.22964352E-02  0.14618000E-02  0.12951634E-02
  0.45046303E-02 -0.32614274E-02  0.62269352E-03
 -0.92294424E-02  0.45353408E-02  0.89591198E-03
 -0.42855844E-03 -0.77963690E-02  0.56593274E-02
 -0.10037326E-01  0.14236271E-02  0.11603165E-02
  0.44900977E-02  0.51116800E-02  0.47453843E-02
 -0.62001192E-02  0.14218582E-01 -0.30580236E-02
 -0.58484747E-02  0.29116887E-02 -0.16512684E-03
 -0.51599580E-02  0.40143655E-02 -0.31601488E-02
  0.58341319E-02  0.18922755E-02 -0.30909269E-02
 -0.13538250E-02  0.70312321E-02  0.69826507E-03
 -0.21322054E-02  0.45829780E-03 -0.54199900E-02
  0.73755071E-03 -0.74056776E-02  0.49659009E-02
 -0.12055298E-01  0.16862170E-02 -0.40886901E-02
 -0.23154518E-02 -0.18777948E-02  0.16688586E-02
  0.20304823E-02  0.22342180E-02  0.52082834E-02
 -0.58777629E-02 -0.14707975E-02 -0.81724847E-03
 -0.21427166E-02  0.36421726E-02 -0.28849698E-02
 -0.85830597E-02 -0.66917466E-03 -0.11351957E-03
  0.70358087E-02 -0.21337437E-04  0.53409497E-02
 -0.59083801E-02  0.93661990E-02  0.39822264E-03
  0.92964931E-03  0.55734678E-02  0.34736606E-02
  0.37384687E-02  0.51196397E-02  0.68306962E-02
  0.22052506E-02 -0.42444017E-03 -0.55116724E-03
 -0.41845893E-02  0.26563174E-02  0.36249602E-03
 -0.23251695E-02 -0.11317675E-03 -0.28383178E-02
  0.44170052E-02 -0.69959837E-02 -0.10264315E-02
  0.95267092E-03  0.18729110E-03  0.76437954E-03
 -0.29797634E-02 -0.75285151E-03 -0.24476334E-02
  0.10030534E-02 -0.26188117E-02  0.30860742E-02
 -0.36009758E-02  0.12657325E-02 -0.17411354E-02
  0.42353861E-02  0.34035891E-04  0.95397949E-03
  0.26998757E-02 -0.47951538E-02  0.91224520E-03
 -0.28441186E-02  0.68154080E-03  0.31877435E-02
  0.30647798E-02 -0.29970552E-04 -0.22847240E-02
  0.82927330E-03  0.72089597E-03 -0.18821367E-02
 -0.21764685E-02  0.10143597E-02 -0.29237538E-03
  0.22399948E-02 -0.47567737E-02  0.11904859E-02
 -0.56933752E-03  0.11688061E-03 -0.16927811E-02
 -0.67293168E-03 -0.35171023E-03  0.16784730E-02
  0.80716086E-03 -0.35955484E-03  0.18749766E-02
 -0.40919537E-02  0.89804476E-03 -0.24255917E-03
 -0.15496309E-02 -0.68634208E-03  0.28057822E-02
  0.48616241E-02  0.47579884E-02 -0.10533401E-02
  0.16860587E-03  0.87433381E-03  0.34150648E-02
  0.39179066E-02 -0.31865781E-03  0.22449839E-02
  0.42400537E-03  0.29644308E-02  0.61321109E-02
 -0.47921717E-03  0.40493969E-02  0.35946673E-03
  0.78597609E-02 -0.21165442E-02 -0.14491719E-02
  0.31735490E-03  0.14313144E-02 -0.61926122E-02
  0.15677220E-02  0.49393528E-02 -0.18587503E-02
  0.72566886E-02  0.55074858E-02  0.21444923E-02
 -0.32600435E-02  0.13880419E-02  0.48879304E-02
 -0.45317636E-02  0.48862212E-02 -0.61509284E-03
 -0.22265051E-02 -0.51298376E-03 -0.63461985E-02
  0.21037250E-02  0.43726787E-02  0.53942336E-02
 -0.13803538E-04  0.37293158E-02 -0.24034337E-02
  0.46861314E-02 -0.17321763E-02 -0.42475060E-02
 -0.66330000E-03  0.42703866E-03 -0.62693107E-03
  0.87039119E-05 -0.32726903E-02 -0.34688097E-03
 -0.11871473E-02 -0.47128858E-03  0.16169324E-02
 -0.14608895E-02  0.45472139E-02 -0.64385708E-03
  0.25047734E-02  0.26843899E-02  0.54166811E-02
  0.21120973E-02  0.17804623E-02 -0.27002702E-02
 -0.49445175E-02  0.62670772E-02 -0.21122232E-02
 -0.18886177E-02 -0.34755778E-03 -0.34702282E-02
  0.13534312E-02 -0.86186156E-02  0.13172472E-02
 -0.10223862E-02  0.44507171E-02  0.26397140E-02
  0.79262051E-03  0.35180568E-03 -0.12959796E-02
 -0.42474160E-02  0.37821231E-03  0.80174011E-03
 -0.25949579E-02 -0.73768142E-02  0.13157246E-02
  0.27110264E-02  0.20845104E-02 -0.31030601E-02
  0.91377265E-03  0.36450138E-03 -0.57744685E-02
 -0.35581730E-02  0.37285056E-02  0.29069000E-04
  0.65645237E-02  0.15022497E-03 -0.45541847E-02
  0.49605301E-02 -0.76133155E-03  0.95782377E-02
 -0.41505663E-02  0.77698974E-03  0.48215627E-02
  0.35647488E-02 -0.48739544E-02  0.37076704E-03
  0.25205348E-02 -0.86629051E-03  0.29769498E-03
  0.93535970E-03 -0.75515765E-04 -0.53393913E-02
  0.26348564E-02 -0.33418313E-02  0.27688161E-02
  0.95952359E-03 -0.30164835E-02  0.99832879E-03
 -0.23523367E-02  0.24951297E-03 -0.81417750E-05
 -0.92494765E-02 -0.55165790E-02 -0.15290998E-02
 -0.17188291E-02  0.99534546E-02 -0.22020793E-02
 -0.68303340E-02 -0.35186063E-02 -0.82379718E-02
  0.26670200E-02 -0.10380820E-01  0.37232211E-02
  0.13888885E-02 -0.44327645E-02 -0.15155552E-03
 -0.27456423E-02 -0.64648245E-02 -0.29251193E-02
  0.32978955E-02 -0.33860125E-02 -0.32411387E-02
 -0.54081274E-02  0.50663065E-02 -0.41637717E-02
  0.26670198E-02  0.36527058E-02  0.25127455E-02
  0.27817409E-02  0.44442664E-02  0.52809020E-03
 -0.33159322E-02  0.31468582E-02  0.55943576E-02
 -0.80176242E-02 -0.88855317E-03 -0.34248317E-02
  0.17820430E-02 -0.56750105E-03 -0.47159370E-02
 -0.11788765E-02  0.30865984E-02 -0.20578515E-02
 -0.53798489E-02  0.23359096E-02  0.39126356E-02
  0.30393385E-04 -0.25132896E-02 -0.58740285E-02
  0.44603625E-02  0.58702792E-02 -0.24091103E-02
  0.13656328E-02 -0.10284211E-02  0.29396045E-02
 -0.16739962E-02  0.30994258E-02  0.49824395E-02
 -0.10427869E-02  0.88888999E-02 -0.30329827E-02
  0.31154595E-02 -0.35679298E-02  0.29949204E-02
  0.34808245E-02 -0.44131626E-02  0.15328851E-02
 -0.19180900E-02  0.11173994E-02  0.49393108E-02
  0.16465894E-02 -0.21483398E-02  0.20939361E-02
  0.33148282E-04 -0.53392935E-02  0.54205343E-02
  0.53713650E-02 -0.22045913E-02  0.28367419E-02
  0.22134556E-02 -0.39067995E-02  0.59077164E-03
  0.50957314E-03  0.31377889E-02 -0.71716584E-02
 -0.35759851E-02  0.40574200E-02 -0.50865906E-02
  0.36907990E-02  0.39929687E-03  0.43673930E-02
  0.33358928E-02  0.46422841E-02 -0.26285191E-02
  0.14160852E-02 -0.21209828E-02  0.53164524E-02
 -0.24028800E-02  0.23236165E-02 -0.18817844E-03
  0.29169781E-02 -0.66375790E-02  0.34804423E-02
 -0.20772794E-02 -0.65667825E-02 -0.34343010E-02
 -0.81638772E-03 -0.93346326E-03 -0.19439242E-02
 -0.30874081E-02  0.47004907E-02 -0.31363857E-02
  0.11010007E-02  0.84687572E-03 -0.65913652E-02
 -0.29175641E-02  0.77086171E-02 -0.68611934E-02
 -0.49573826E-02  0.16401399E-02  0.34179113E-02
 -0.33202106E-03 -0.27108530E-02  0.19989604E-02
  0.15873496E-02 -0.24886345E-02 -0.36608787E-02
  0.51892931E-02  0.53501883E-04 -0.65757569E-02
  0.78978214E-03 -0.14028212E-03 -0.43702293E-02
 -0.10086879E-04  0.27916257E-03  0.17508841E-02
  0.18292599E-02  0.17219350E-02  0.19996279E-02
  0.45879729E-02  0.77643524E-03 -0.20991492E-02
  0.12037295E-02 -0.96649894E-02  0.49022266E-02
  0.26857501E-03 -0.34049892E-02 -0.41276288E-02
  0.68012737E-02 -0.21803573E-02  0.12342995E-02
 -0.46233647E-03 -0.72041337E-03  0.14172001E-02
 -0.29055393E-03 -0.47306809E-02 -0.41149603E-02
  0.61518036E-03  0.32172374E-02 -0.11051133E-01
 -0.29257196E-02  0.10503105E-02 -0.23717547E-02
 -0.43932749E-03  0.38300086E-02  0.22896428E-02
  0.92119458E-02 -0.22070388E-02 -0.16706902E-02
 -0.24840891E-02 -0.26018590E-02  0.33601059E-02
 -0.32478250E-02  0.64187774E-02  0.93367671E-03
 -0.77472574E-02  0.43120801E-02  0.11675834E-02
 -0.49168331E-02  0.32211061E-02  0.26143540E-02
 -0.32680716E-02 -0.37313638E-03 -0.77785526E-02
  0.25072965E-02 -0.70830985E-02 -0.74474503E-02
 -0.20736785E-02  0.66548538E-02  0.28799906E-02
  0.74058461E-03 -0.20245517E-02  0.17816029E-02
 
           1
   2.00000000000000     
  0.16147961E+01 -0.90028781E-03  0.00000000E+00  0.00000000E+00
  0.13197577E-01  0.11582567E-01  0.13096028E+00
  0.39176204E+00  0.50667267E+00  0.63055898E+00
  0.22852038E+00  0.75398000E+00  0.74704753E+00
  0.75820536E+00  0.47571054E+00  0.38097468E+00
  0.99932459E+00  0.96040411E+00  0.87301944E+00
  0.97406457E+00  0.50830759E+00  0.37709319E+00
  0.96699644E+00  0.47472619E+00  0.13897574E+00
  0.28432420E+00  0.22806905E+00  0.71998578E-02
  0.77556197E+00  0.98810629E+00  0.63181549E+00
  0.99885880E+00  0.99384701E+00  0.18392080E-01
  0.72900778E+00  0.22747970E+00  0.39702782E+00
  0.24976671E+00  0.32109001E+00  0.88004037E+00
  0.70499904E+00  0.48785633E+00  0.13008482E+00
  0.17480910E+00  0.73945789E+00  0.37791162E+00
  0.13872550E-01  0.45459042E-01  0.62592566E+00
  0.24995727E+00  0.51600789E+00  0.37732575E+00
  0.12653633E-01  0.99580710E+00  0.48286308E+00
  0.26200310E+00  0.76280781E+00  0.62831386E+00
  0.30053833E+00  0.57187969E-01  0.13215178E+00
  0.99297520E+00  0.49634385E+00  0.88001612E+00
  0.52297777E+00  0.96899764E+00  0.27261308E+00
  0.29693363E+00  0.25226437E+00  0.36073491E+00
  0.75706244E+00  0.24123892E+00  0.85828852E+00
  0.55977457E-01  0.50250127E+00  0.63194958E+00
  0.27736974E+00  0.73548639E+00  0.98324109E+00
  0.27686624E+00  0.25975834E+00  0.74570404E+00
  0.77804288E+00  0.25209602E+00  0.99959068E+00
  0.11973745E-01  0.24991400E+00  0.23335866E+00
  0.49595003E+00  0.48266726E+00  0.52145162E+00
  0.53771788E+00  0.23930963E+00  0.99479682E+00
  0.23369653E+00  0.26761432E+00  0.48331880E+00
  0.47009946E+00  0.21296852E-01  0.87572191E+00
  0.92722367E-02  0.76422906E+00  0.24914994E+00
  0.98248181E+00  0.24957497E+00  0.74828920E+00
  0.13410884E-01  0.75899794E+00  0.98408115E+00
  0.99475892E+00  0.25708810E+00  0.50213097E+00
  0.48352897E+00  0.13997494E-02  0.15466432E-02
  0.79063674E+00  0.23457275E+00  0.12414199E+00
  0.49384008E+00  0.76503478E+00  0.75838311E+00
  0.75852187E+00  0.25670660E+00  0.25805863E+00
  0.12283617E-01  0.26763800E-01  0.31675474E+00
  0.71051445E+00  0.74956652E+00  0.75428100E+00
  0.75421567E+00  0.15584268E-01  0.87034284E+00
  0.97490156E+00  0.49621657E+00  0.24479404E+00
  0.47478934E-01  0.22480897E+00  0.62517019E-02
  0.53682720E+00  0.75773077E+00  0.52496179E+00
  0.99888482E+00  0.53544314E+00  0.52496721E+00
  0.62256664E+00  0.25195861E+00  0.74330955E+00
  0.98669764E+00  0.99241732E+00  0.74550778E+00
  0.46895731E+00  0.53748142E+00  0.12530297E+00
  0.98471934E+00  0.75109506E+00  0.76373740E+00
  0.47265361E+00  0.52898859E+00  0.26258937E+00
  0.24582995E+00  0.28756209E+00  0.62761421E+00
  0.79724236E+00  0.74669417E+00  0.37007715E+00
  0.79313450E+00  0.51928212E+00  0.62142405E+00
  0.80338198E+00  0.98000757E+00  0.12505121E+00
  0.10688097E-01  0.53071195E+00  0.75270258E-02
  0.72456046E+00  0.22265517E+00  0.51394916E+00
  0.52271610E+00  0.78176168E+00  0.16226709E-01
  0.50416263E+00  0.82831720E-02  0.38334091E+00
  0.54371905E+00  0.75765940E-02  0.13663084E+00
  0.45857513E-01  0.77683732E+00  0.49841393E+00
  0.28229502E-01  0.49998111E+00  0.75977769E+00
  0.49291180E+00  0.13706714E+00  0.50674519E+00
  0.24595767E+00  0.27649905E+00  0.13392092E+00
  0.76544751E+00  0.75943928E+00  0.99681911E+00
  0.29207754E+00  0.76100432E+00  0.25556549E+00
  0.74774366E+00  0.26752733E+00  0.63365937E+00
  0.73621876E+00  0.73467551E+00  0.25464926E+00
  0.49251231E+00  0.27730682E-01  0.75460443E+00
  0.49005855E+00  0.26728727E+00  0.25205017E+00
  0.29779675E+00  0.62945708E+00  0.87780472E+00
  0.21697979E+00  0.50579675E+00  0.12324379E+00
  0.52265576E+00  0.98603603E+00  0.62470250E+00
  0.73995834E+00  0.55451270E+00  0.87455824E+00
  0.26869041E+00  0.98257748E+00  0.37915602E+00
  0.52806777E+00  0.51022255E+00  0.76325471E+00
  0.75024267E+00  0.72496881E+00  0.48156190E+00
  0.73985698E+00  0.75089505E+00  0.11909811E+00
  0.29814960E+00  0.77105122E+00  0.49093191E+00
  0.51311203E+00  0.45627307E+00  0.88272708E+00
  0.75256984E+00  0.96823895E+00  0.37123627E+00
  0.74228526E+00  0.72937820E+00  0.62584356E+00
  0.27728284E+00  0.75536043E+00  0.12446554E+00
  0.25578401E+00  0.12352976E-01  0.62617685E+00
  0.51509799E+00  0.50181523E+00  0.99422378E+00
  0.22883053E+00  0.98512746E+00  0.87613845E+00
  0.48648194E+00  0.46608731E+00  0.37436103E+00
  0.28084486E+00  0.99328167E+00  0.24583138E+00
  0.77361203E+00  0.48774778E+00  0.75091093E+00
  0.23307130E+00  0.85663951E-02  0.75663730E+00
  0.71276299E+00  0.48433307E+00  0.25863945E+00
  0.24997277E+00  0.99835263E+00  0.70697833E-02
  0.75412542E+00  0.48283294E+00  0.49138499E+00
  0.27897403E+00  0.32951833E-01  0.50408954E+00
  0.76489254E+00  0.50696954E+00  0.71965754E-02
  0.73640256E+00  0.99921769E+00  0.75187740E+00
  0.22068532E+00  0.49181970E+00  0.25626571E+00
  0.26201624E+00  0.52600083E+00  0.76113247E+00
  0.77625344E+00  0.98197188E+00  0.25251310E+00
  0.25746765E+00  0.50454307E+00  0.50699367E+00
  0.74681826E+00  0.23384061E-01  0.99605584E+00
  0.77391336E+00  0.96487174E+00  0.50131917E+00
  0.25952142E+00  0.47722307E+00  0.99315226E+00
  0.81334845E-02  0.25411711E+00  0.38019001E+00
  0.51283988E+00  0.76229572E+00  0.87848800E+00
  0.49348681E+00  0.26253620E+00  0.62933176E+00
  0.28077262E-02  0.74501297E+00  0.13261587E+00
  0.76285722E-02  0.24404124E+00  0.87430322E+00
  0.51466958E+00  0.73188695E+00  0.38473782E+00
  0.12161422E-01  0.77545507E+00  0.63431080E+00
  0.52287303E+00  0.27187636E+00  0.12414345E+00
  0.16563421E+00  0.37177508E+00  0.50012049E-01
  0.67032962E+00  0.89110519E+00  0.55992885E+00
  0.66202460E+00  0.12492897E+00  0.93721967E+00
  0.15298547E+00  0.62959378E+00  0.45857782E+00
  0.37078525E+00  0.37370389E+00  0.95063056E+00
  0.86706259E+00  0.87651786E+00  0.43845275E+00
  0.86445618E+00  0.11617036E+00  0.46252846E-01
  0.34488355E+00  0.62473731E+00  0.55801265E+00
  0.88459687E+00  0.87337988E-01  0.19778349E+00
  0.38002195E+00  0.62660663E+00  0.71772841E+00
  0.87083562E+00  0.88064201E+00  0.30549181E+00
  0.35943610E+00  0.42056050E+00  0.81608880E+00
  0.10720105E+00  0.57852193E+00  0.31254512E+00
  0.62728786E+00  0.84522138E-01  0.80659783E+00
  0.12155116E+00  0.39266319E+00  0.20409006E+00
  0.62334933E+00  0.90258408E+00  0.70840514E+00
  0.86575371E+00  0.61416174E+00  0.96031793E+00
  0.35408883E+00  0.11783077E+00  0.44084243E+00
  0.83812230E+00  0.37542587E+00  0.55659969E+00
  0.36209108E+00  0.88179025E+00  0.53661194E-01
  0.15583343E+00  0.11485317E+00  0.54834234E+00
  0.65903981E+00  0.62353771E+00  0.54044253E-01
  0.13555788E+00  0.89060320E+00  0.96450360E+00
  0.63726401E+00  0.37144696E+00  0.45741847E+00