Na88 Sn16 P8 S96                        
   1.00000000000000     
    13.4813327813000008    0.0000000000000000    0.0000000000000000
     0.0000000000000000   13.4813327813000008    0.0000000000000000
     0.0000000000000000    0.0000000000000000   26.9626655626000016
   Na   Sn   P    S 
    88    16     8    96
Direct
  0.2608857317443701  0.7514707608357580  0.9987120152139425
  0.7095698357867198  0.3889823453615899  0.6033260123271036
  0.5253677885298960  0.4316850005756476  0.8692400415838122
  0.0230638928600304  0.5043139472596901  0.4985779627862324
  0.2708674547885930  0.2252114274624060  0.0284791531021863
  0.0315812620637107  0.2607220579861096  0.1563847694908441
  0.0452272865170544  0.1376264083297109  0.9870361112764594
  0.0211879997670175  0.9750381673665894  0.3793373924532682
  0.9864356987604305  0.9911579764416530  0.6577859293423902
  0.7769365144622714  0.4890252235380146  0.8756483352667438
  0.7802617534587696  0.7038500236961766  0.3632698631227524
  0.8014548841674252  0.2185030617239044  0.0037125354235539
  0.2668830452163326  0.0526369798882055  0.1310389125167500
  0.2788773102584292  0.4591017670746358  0.6207646608877259
  0.3227801489716781  0.9577995100981985  0.8779511111127060
  0.9621335803903017  0.4907517146686632  0.3615332394924506
  0.0167844246751103  0.7760472566751588  0.7579027381026153
  0.9856289678000121  0.2184912479625007  0.7542487512822703
  0.5251981995812495  0.9733482352793552  0.1033670297679805
  0.2556466059587439  0.2112372986198151  0.8878779966999693
  0.5325970748874921  0.5044123345204914  0.3910484034825785
  0.7335006257975216  0.9647956200895942  0.3520811280595396
  0.7809831285278568  0.7608883589142615  0.8733163039595644
  0.8051785390971998  0.7533087024976683  0.4972178601010470
  0.5438009685247608  0.7419425861007998  0.0013470048460499
  0.2590034105288532  0.5115480850168681  0.3796705075052270
  0.5813422874235822  0.5009000432614478  0.1303090755100213
  0.7314303160838233  0.2613318771764121  0.3674321056329298
  0.2830903399479460  0.7283770961197938  0.6467857730879962
  0.7896013632617247  0.7410090775016948  0.0074642601431402
  0.2190103336014819  0.7744395581135192  0.5255611739164695
  0.7399874122054757  0.3089068848886603  0.7438046085140814
  0.9816688827833934  0.7983558446140817  0.2411797881986159
  0.5082195105111370  0.4953917717847262  0.7512102090952696
  0.9949335474434879  0.9777245123893724  0.8646214310962703
  0.4987773386017283  0.5374817260149543  0.6300976112313313
  0.4521495969231670  0.9962378156885734  0.3809175286151818
  0.7271814199477471  0.2736088880092330  0.2367247054908552
  0.5140738926929432  0.0256562559783277  0.7689821659011929
  0.4759319828044737  0.2125124092231543  0.2556857352681728
  0.9363480806542340  0.1255423724532370  0.2608235883958854
  0.1642314979570940  0.7503101183071640  0.8863675361330777
  0.5029596712653792  0.9511472779426129  0.9597277012930441
  0.0166157873874104  0.4927732955987122  0.1075871459650636
  0.2956966880871790  0.2313701135071957  0.1746183911546307
  0.4999524206159511  0.4831072019926449  0.5143678305534709
  0.6893080695516014  0.0291551967182055  0.6238675899477738
  0.7379013411964983  0.2969704412256206  0.1230095063607584
  0.7490598318988910  0.2218886734485018  0.8652246879978398
  0.2694209306027540  0.2425188480144616  0.3887367801821098
  0.2236015583063332  0.2293958708727976  0.7633202027057201
  0.4956180091963930  0.9878323389001602  0.2648176717820563
  0.2528509014773805  0.7901291419171107  0.3835363251578967
  0.7973993522498534  0.6372740347887136  0.1246506826263987
  0.4956301930319717  0.2617171542536413  0.4795216004811150
  0.0171310257496224  0.5061661911971196  0.9991759668723157
  0.9957875994055342  0.0131764242943947  0.1481765181853502
  0.9951624334758499  0.7418315328283861  0.4519984475980517
  0.2980059199330784  0.5187757059447459  0.8715613002140007
  0.0382939763655256  0.5151368914384022  0.2317384778122058
  0.5443908081522910  0.2266265709735486  0.9868688043265771
  0.9774610254758587  0.2154050737778644  0.4807819853592432
  0.9876070004213301  0.8851011099723548  0.0255429466537221
  0.5087322535046676  0.0152076696642280  0.5081812197879894
  0.1787209827454460  0.2525957992265147  0.2809828560778730
  0.4937723486769697  0.2431280710028814  0.7402080866037516
  0.2694863627656257  0.5186259159706789  0.1228453088552505
  0.7873372736510919  0.6854811013601152  0.6201378527908940
  0.4850822141846514  0.7388619602843188  0.2458789061936155
  0.2492224345561523  0.2693342583902653  0.5085699583447215
  0.7570896800671166  0.0088518167273790  0.1105856509643892
  0.9866333759582921  0.5008393077303301  0.6490640174562250
  0.3199316844580317  0.7370081248210973  0.1346086641342863
  0.2599457445724387  0.9886208692509916  0.6288548996259167
  0.7112709143030118  0.9744895745537658  0.8547056191422219
  0.5354496171112468  0.7360006854908436  0.5000005051341668
  0.5236526025551916  0.7729926531646166  0.7253585415544173
  0.7629863598792137  0.2183972697051226  0.5017667220222715
  0.7320050103434583  0.7699670316887870  0.2438386897248002
  0.2457232813180545  0.2463795006278988  0.6369542487269623
  0.9851362108458332  0.4725029364663759  0.7633774897606840
  0.0024442310993487  0.9568842243430922  0.5183660738029812
  0.7672712413619337  0.7946409813547229  0.7417039249627938
  0.2526022009760553  0.7269049491961449  0.2474339845885752
  0.2590940004106348  0.7153332383853629  0.7556277785634267
  0.5233472336095002  0.5174836169440321  0.9828436616475597
  0.0081358985451644  0.5042647923488393  0.8696263269465668
  0.5001856350690295  0.4917470876349365  0.2688252626508275
  0.2393003705111030  0.9929363979448789  0.2571316968168385
  0.7590007441480748  0.5487292797570110  0.7484458867403189
  0.2249159620502470  0.9823060557794255  0.7615889727630778
  0.7820697535397254  0.5129097174382184  0.2362650050890155
  0.2523629369524569  0.9891196649209033  0.0028048702363093
  0.7539721933829742  0.4919882551814305  0.4924391712714093
  0.2390756255775852  0.0112732648789093  0.4977800648569859
  0.7440524281569038  0.4858233842331513  0.0014332908966303
  0.7694223852197849  0.0387577385106064  0.7382247121994291
  0.2650757486491556  0.4747329104635500  0.2544207979745561
  0.2550787176272494  0.4633452787043531  0.7424076295082178
  0.7405229386764952  0.0149684671404764  0.2226948417984352
  0.2603799796699811  0.5292529651266357  0.4993097824842302
  0.7539147692151446  0.9948166682289660  0.9842358276402603
  0.7513998105790506  0.9758070849087302  0.4949308025271876
  0.2729460956997915  0.4947280027577649  0.9983098056679165
  0.0011486361863910  0.2506871030953013  0.3673987581146518
  0.5196242668683126  0.7247421451970211  0.8748259132193245
  0.5005572839382770  0.2538002149553126  0.6272492392427994
  0.0330091697586214  0.7408635890597544  0.1084854675655110
  0.9910254335552965  0.2344157375116367  0.8771467833873956
  0.5143152814109893  0.7576910099636953  0.3707707217906572
  0.0325251504395933  0.7447016120432440  0.6324285049663841
  0.5270219692451036  0.2291561603822672  0.1321763444611577
  0.1682156607954335  0.3996865756574050  0.0495984214744774
  0.6608168282480377  0.8903109861964602  0.5584624430561523
  0.6412591301791172  0.0801039340949943  0.9408649788361712
  0.1587344273024434  0.6386983826108922  0.4414700246406760
  0.3750844552645833  0.3900088705425818  0.9451899798800758
  0.8575502307632119  0.8878319484894188  0.4231134089978125
  0.8907211147279674  0.0614157293198476  0.0346073055673906
  0.3590955553965830  0.6221220543755903  0.5496054425589035
  0.8314744048509393  0.1340286782859232  0.1715440516132244
  0.3486638379726809  0.5745046535175268  0.6975615550285370
  0.8560995912949055  0.9189637883418021  0.2756253988965255
  0.3689712425706821  0.3605777666901587  0.7939095020439282
  0.1770249440961716  0.5789296798392942  0.3075251260162540
  0.6597642140667749  0.1394877040649898  0.7890504555203991
  0.1673591886478996  0.3724982421083159  0.2035065411348495
  0.6341971183527889  0.9519339943951456  0.7014713525680825
  0.8518740983418344  0.5883473434140910  0.9561515093355647
  0.3524103154687184  0.1343390496690745  0.4596064719751678
  0.8587880148964886  0.3973197886155003  0.5380146943445211
  0.3526327052101570  0.9080619033577069  0.0614986465498845
  0.1204909655998270  0.1015045799911926  0.5486989437684194
  0.6380830054175159  0.5844624789481612  0.0539303817221762
  0.1319113874641561  0.9286549774606945  0.9427915907812536
  0.6374621064026155  0.3782515689103944  0.4507832916975422
  0.6846745053675062  0.4150574047443967  0.2914647523679370
  0.1607612638301309  0.8607635737013548  0.8112025668004458
  0.1275152732832616  0.0983027131490355  0.7055436744232946
  0.6658112261498342  0.6220022109548936  0.2052036284683439
  0.8509723425956559  0.4275075774340590  0.6961321563367171
  0.3494360633283483  0.9045236887188068  0.2003976152977744
  0.3516702851616555  0.0982344789923316  0.3061212522372721
  0.8613414262604572  0.6373770053660264  0.8021583355094619
  0.1334315019670381  0.0959697097626879  0.0526725313594735
  0.6568265858100446  0.6063881746544576  0.5395973423053791
  0.6529054768363448  0.3816220178666341  0.9470739612849379
  0.1344358251777681  0.9047708230207734  0.4435995373451196
  0.3366137308061608  0.1083308982715625  0.9564954018894587
  0.8526353872264588  0.6082638404979663  0.4392455450474200
  0.8584611961711538  0.3895440060317445  0.0464362329922728
  0.3513912031782664  0.9061862099957310  0.5446932751582250
  0.1346555597580849  0.1095886903445174  0.2045988153353767
  0.6574319106043323  0.6256949167052798  0.6884197641888307
  0.1521754901993435  0.8730962504668174  0.2997765605260213
  0.6506875672674841  0.4345462718331630  0.8007954437828870
  0.8891176806426128  0.6246934886775705  0.2884587561992855
  0.3490389904577452  0.0772007419652503  0.8087608449659861
  0.8636470586406996  0.4222816021920801  0.1703882891611544
  0.3352569789213350  0.8768765925072708  0.7069236577909379
  0.8547867891188030  0.8861644299823430  0.9318655559749817
  0.3650485756542627  0.4355734158673302  0.4511268417920180
  0.8703711352204029  0.0818507337688974  0.5381493484581659
  0.3700639816566405  0.6234850535135421  0.0473651474207120
  0.1557108806430435  0.4236151371873016  0.5498682982334838
  0.6601397853786615  0.8999338404987738  0.0446323637607682
  0.1588704586353332  0.6062835131476612  0.9559879481282317
  0.6371322971940411  0.0729270115809253  0.4430449437262916
  0.3529270105509760  0.3568165356801509  0.3079472085033279
  0.8680739264630963  0.9273952183444936  0.7860364348425583
  0.8462346143493789  0.1392933149786322  0.6800343047941214
  0.3680486047220435  0.5833495597630078  0.1998557775056232
  0.1405844743050641  0.3708351579562135  0.6941338420332828
  0.6341056217607910  0.8998155028461933  0.1835307126902651
  0.6571061237681404  0.1186171526583619  0.2835984883954496
  0.1423553383968022  0.5431472598312174  0.8051650929019132
  0.0596828277542392  0.3436703031072302  0.4125806749028046
  0.6106597555206343  0.6322374082214509  0.9115581399206680
  0.5995147911199435  0.2168287045783508  0.5737612036832692
  0.1341009761222706  0.8257444573442871  0.0820061036338042
  0.5612185114973091  0.3596905066537481  0.6723208892452323
  0.0943773544380850  0.6395210212944932  0.1579959234487126
  0.1053195304540002  0.1325981833116966  0.3550649868442087
  0.5945645649497778  0.8231048883465666  0.8364276477179962
  0.0606408977905089  0.3147398324637178  0.9361512966045280
  0.6211509875695566  0.6959446586290803  0.4120692727624239
  0.1216507382959054  0.8494248820398386  0.6027299778063135
  0.4029007788186429  0.3022683503683790  0.0983692556167540
  0.9603076862807681  0.6692331573221934  0.5772531964123252
  0.4659032642267276  0.1160584139556639  0.1745484117714596
  0.0861904931588257  0.1645271095200162  0.8299986676739223
  0.4294875395709696  0.8231822219027950  0.4229164820496721
  0.9165096267134829  0.8027454800414662  0.6693697883692308
  0.5801391467200928  0.3466948966575915  0.1815020038534485
  0.9072375217514411  0.3335759621187502  0.8400441167839048
  0.4189578747475262  0.6573503257993004  0.3360609097459862
  0.8979273861625157  0.1360901174873710  0.9095297147334527
  0.5908098279954035  0.8471077689844668  0.3147746951646873
  0.0921523047025771  0.6471609321178897  0.6842698561243139
  0.6267996108146512  0.1695985283294207  0.0796384180470978
  0.4063526744826083  0.3387629249688857  0.5780516165652170
  0.9296332966431926  0.8130443026174385  0.1479623028845904
  0.8861614240024664  0.1651910966594507  0.3938173079278321
  0.4467490474231109  0.6453186559007125  0.8190661814173141
  0.9583110795665097  0.3263793463348253  0.3043154895871474
  0.4323940484283088  0.7884818162441747  0.9291465587004131
  0.4285911486928473  0.1471175192903254  0.6603969644051336
  0.9470820657768391  0.6708621927607609  0.0587326172680294
 
 -0.73854624E-03  0.53710200E-02 -0.18104579E-02
 -0.12725598E-02 -0.62297503E-02 -0.66672924E-02
 -0.15602265E-02  0.69027014E-02  0.18843871E-02
 -0.16892458E-02  0.75645116E-02  0.40963851E-02
 -0.66446654E-02  0.52640481E-02 -0.43210957E-02
 -0.68854099E-02  0.18070657E-02 -0.27604630E-02
  0.32560357E-02 -0.11960060E-02 -0.12212650E-02
 -0.11091043E-01 -0.65353088E-02 -0.32886217E-02
 -0.13210697E-02  0.71251858E-02  0.28305410E-03
 -0.43389501E-02 -0.16844170E-02 -0.19853840E-02
  0.33417183E-02 -0.63243085E-02 -0.12419486E-03
 -0.60199547E-02  0.10268391E-01  0.31051349E-02
 -0.16281593E-02  0.38704716E-02  0.10567089E-01
 -0.53355616E-02  0.21919259E-02 -0.66123791E-02
  0.79302094E-02  0.44899428E-02  0.12244518E-02
  0.21399766E-02 -0.51879302E-02 -0.22879355E-02
  0.15504232E-02 -0.28835455E-02 -0.20704622E-03
 -0.59569413E-02  0.59546604E-02 -0.79770069E-02
 -0.18693169E-02 -0.66983452E-02  0.96791310E-02
  0.13275242E-01 -0.36687569E-02  0.10383960E-01
 -0.10668361E-01  0.58683215E-02  0.80090608E-02
  0.10552258E-02  0.36143181E-02  0.55199625E-02
 -0.76245359E-03  0.27418978E-02  0.19408811E-02
  0.43368408E-02  0.15553169E-02  0.65242484E-02
 -0.15999311E-02 -0.30618372E-02 -0.17211443E-02
  0.50811231E-02 -0.88365080E-02 -0.45807220E-02
 -0.42581846E-02 -0.30266751E-03 -0.11249968E-01
 -0.94269616E-02  0.11092970E-02  0.26887434E-02
 -0.40932136E-02  0.41929523E-02 -0.54609732E-02
 -0.10449941E-02 -0.71007958E-02  0.37516186E-03
 -0.64852080E-02 -0.39678683E-03  0.20926884E-02
 -0.40861003E-02 -0.34780806E-02  0.17215081E-02
 -0.39347733E-02 -0.84841602E-02  0.71797392E-02
  0.21013059E-02 -0.61444361E-02 -0.23961284E-02
  0.57036148E-02 -0.57621362E-03  0.32733358E-03
  0.27280907E-02  0.20547679E-02  0.69475598E-02
 -0.28831783E-02 -0.31544741E-02 -0.16526939E-02
 -0.51051485E-02  0.60138389E-02  0.37254766E-02
  0.32841023E-02 -0.62427210E-03  0.28133126E-02
  0.76665156E-02 -0.67659837E-02  0.20934392E-02
 -0.60385911E-02  0.58111385E-02 -0.68219510E-02
  0.16350409E-02  0.54539735E-03 -0.26169055E-03
  0.14986347E-02  0.90221838E-03  0.77029627E-02
 -0.62908265E-02  0.14942908E-01  0.81439368E-02
 -0.77267990E-02 -0.18580133E-02 -0.33150438E-02
  0.70645882E-02  0.59594234E-03 -0.67947012E-02
 -0.65684187E-02  0.51900211E-03  0.17609867E-03
  0.40756776E-02  0.41340836E-02  0.11799326E-02
 -0.23725906E-02 -0.27174771E-02 -0.14684602E-02
  0.58508064E-02 -0.42659610E-02  0.17962935E-02
  0.81142778E-02  0.18568241E-02  0.46309012E-02
 -0.28438268E-03  0.36335123E-02 -0.45661095E-02
  0.20737938E-03 -0.41434892E-02 -0.13046343E-02
  0.82644203E-03 -0.67301174E-02  0.11273351E-02
 -0.74653546E-02  0.14302471E-02  0.10181910E-01
  0.48325822E-02 -0.14385515E-02  0.92792243E-02
  0.16672071E-02  0.49122438E-02 -0.23997538E-02
  0.67137437E-02  0.86919560E-02 -0.79970460E-02
  0.35384903E-04  0.16381881E-02  0.13357438E-03
  0.20339603E-03  0.17090049E-02 -0.71068566E-02
  0.50440301E-02 -0.13636158E-02 -0.56666282E-02
  0.48828144E-02 -0.54978003E-02  0.80112190E-03
  0.28567151E-02  0.58548650E-02 -0.34178556E-02
 -0.46560007E-02  0.62701772E-02  0.66000425E-02
 -0.16428282E-02  0.18259167E-02 -0.81949833E-02
 -0.24440097E-02  0.48995072E-02 -0.34047571E-03
 -0.40239663E-02  0.12037739E-02 -0.14377922E-02
  0.34678241E-02  0.33969883E-02 -0.24845780E-03
  0.99331673E-02 -0.38993216E-02 -0.13071018E-02
 -0.83818290E-03  0.18451699E-02  0.20295201E-02
 -0.11098055E-02  0.46163224E-02  0.41547048E-02
 -0.48768363E-02 -0.89555621E-03  0.57657903E-02
  0.43834727E-02 -0.95205783E-02 -0.41592196E-03
 -0.39420725E-02 -0.18664106E-02 -0.10176339E-02
  0.55915164E-02 -0.32413316E-02 -0.37557331E-02
  0.76692969E-03  0.15761319E-02 -0.52669665E-02
  0.94986640E-02 -0.80978002E-02  0.51258010E-02
  0.90115958E-02 -0.29881287E-02 -0.38081245E-02
  0.21512078E-02 -0.37309725E-02  0.37598328E-02
 -0.54810197E-02 -0.13539855E-02  0.10294392E-02
 -0.15799618E-02 -0.67818961E-02 -0.28917363E-02
 -0.42798345E-03 -0.53501262E-02  0.54267226E-02
 -0.68498602E-02 -0.15941559E-02 -0.11213170E-02
 -0.50626413E-02  0.84205300E-02 -0.10726998E-01
 -0.44620644E-02 -0.71792701E-03 -0.58882311E-02
  0.23102803E-02 -0.54130919E-02 -0.51298876E-03
  0.60727715E-02  0.98448213E-02 -0.15031570E-02
  0.30667629E-02 -0.40399895E-02  0.41287258E-03
  0.27656276E-02  0.38514725E-02  0.19919290E-03
 -0.30191340E-02  0.22822535E-02  0.73997245E-03
  0.47975328E-02 -0.12285537E-02 -0.19898293E-02
  0.29962396E-02  0.20750991E-02  0.35335937E-02
 -0.11216214E-02  0.34008730E-02  0.14075897E-02
  0.14041976E-03 -0.33605246E-02  0.40692014E-02
 -0.19950958E-02 -0.23436122E-02 -0.93175038E-03
  0.31656048E-02 -0.19642570E-02  0.93303174E-03
  0.31994555E-02  0.14231612E-02 -0.24104148E-02
 -0.25505335E-02 -0.45067213E-02 -0.28651308E-02
  0.22016706E-02  0.24239338E-02 -0.36184965E-02
 -0.56165522E-03  0.42707240E-02  0.10812654E-02
  0.56678722E-03  0.45531744E-03 -0.67257350E-03
 -0.22635766E-02  0.38705958E-03 -0.17238271E-03
  0.19954921E-02 -0.22462157E-03  0.19873930E-02
  0.17574467E-02  0.18189558E-02  0.15730415E-03
 -0.38772073E-02 -0.54461182E-02 -0.21622422E-02
  0.43863490E-02  0.24998770E-02 -0.18686457E-02
 -0.61712167E-02  0.59420942E-02 -0.63144335E-03
  0.27637925E-02 -0.64354316E-02 -0.36404038E-02
  0.36883199E-02  0.35470729E-02  0.61410540E-02
  0.38337382E-02  0.19056799E-02 -0.90782699E-02
  0.88840460E-04  0.82387327E-02 -0.66179709E-02
 -0.86237625E-02  0.30613740E-02 -0.60682160E-02
  0.32407703E-02 -0.36661896E-02 -0.65057029E-02
  0.11109064E-01  0.29980196E-03  0.14971568E-02
  0.90787287E-02  0.38856747E-03 -0.83054389E-02
 -0.60896946E-04 -0.83781497E-03  0.46689132E-02
  0.85247664E-02 -0.76981834E-02  0.30096559E-02
 -0.17342163E-02 -0.20887889E-02  0.89508952E-03
  0.55259219E-03 -0.44662582E-02  0.61046231E-03
  0.57660147E-02  0.37906433E-02 -0.17396516E-02
 -0.15275303E-02 -0.67092363E-03  0.37154356E-02
  0.73104776E-02 -0.23533371E-02 -0.82823250E-03
  0.75510648E-02 -0.53907429E-03  0.23168058E-02
  0.40127885E-02 -0.47080319E-02  0.68371489E-03
  0.10259116E-01 -0.22316986E-02  0.38890959E-02
 -0.16503050E-02  0.16843271E-02  0.17600804E-02
 -0.10392818E-02 -0.41351784E-02 -0.13951743E-02
  0.51877752E-03 -0.24158602E-02  0.19400789E-02
 -0.10333652E-02  0.36806129E-02 -0.78589439E-03
 -0.26954568E-02  0.27316278E-02  0.37681048E-03
  0.76295710E-02  0.36250903E-02 -0.72205380E-02
 -0.75905964E-02 -0.55740908E-02  0.31683391E-02
  0.52030427E-02 -0.53206178E-02  0.12356745E-02
 -0.34796911E-02 -0.10059282E-01  0.10372657E-01
  0.81224472E-03 -0.64045014E-03 -0.15546244E-03
  0.91127411E-02 -0.69325808E-02  0.81700673E-02
  0.54816618E-02 -0.49296135E-02 -0.94962166E-03
  0.36605012E-02  0.50728145E-02 -0.39801382E-02
  0.13466961E-02  0.14316861E-02 -0.77397804E-02
 -0.59850379E-02  0.11319276E-02 -0.10032804E-01
  0.11220806E-02 -0.42032429E-02  0.66083409E-02
 -0.43764025E-02 -0.81954968E-03  0.19446704E-02
 -0.52439227E-02  0.60241605E-02  0.35833165E-02
  0.71510472E-03 -0.41141360E-02  0.50737049E-02
 -0.39962026E-02 -0.86468393E-02 -0.33090656E-02
 -0.27512919E-02 -0.70091673E-02 -0.48110888E-02
  0.53414459E-02 -0.13646591E-02 -0.57132985E-03
 -0.20927236E-02 -0.29491843E-02  0.44146590E-02
  0.23044275E-03 -0.19796221E-02 -0.22759634E-02
  0.17812024E-02  0.54773624E-02  0.38230078E-02
 -0.38990368E-02 -0.93431441E-03  0.14211401E-02
 -0.60964217E-02 -0.48223784E-02  0.29331860E-02
  0.68853150E-02  0.10227675E-02  0.18142176E-02
 -0.38439471E-02 -0.26208473E-02 -0.53457883E-02
 -0.64639718E-02 -0.43593780E-02 -0.54072168E-02
 -0.70186735E-02 -0.58754617E-02 -0.66864041E-02
  0.37841756E-02  0.67453969E-02  0.57832881E-02
 -0.12059512E-02  0.54302000E-02 -0.22032102E-02
 -0.36290555E-02 -0.18523025E-02 -0.88516695E-02
  0.14810296E-02  0.12238697E-02 -0.10082623E-01
  0.49346817E-02  0.15890252E-02 -0.34647697E-02
 -0.33559440E-02 -0.35368574E-02  0.25714527E-02
 -0.40521404E-02  0.46225304E-02 -0.16967345E-02
 -0.54469553E-02 -0.44385235E-02  0.74255498E-02
 -0.92083333E-02  0.13187922E-02  0.84577349E-02
  0.15108181E-02 -0.61283650E-02  0.54512428E-02
 -0.16699822E-02 -0.36041145E-02 -0.70608827E-03
 -0.48883374E-02  0.88437405E-02  0.72171246E-02
 -0.15745227E-02  0.91192371E-02 -0.41860033E-02
 -0.58842394E-03  0.17721294E-02 -0.26009029E-02
  0.25909635E-02 -0.25477019E-02 -0.42230054E-02
 -0.25250842E-02 -0.10422971E-02  0.73461023E-02
  0.27684955E-02 -0.97804240E-03  0.96181743E-03
 -0.10341833E-03 -0.26777869E-02 -0.11163254E-02
 -0.77984864E-02  0.61533612E-02  0.62020584E-02
  0.96740661E-03  0.31258642E-02  0.23554300E-02
 -0.83402268E-03 -0.27386591E-02 -0.32149836E-02
  0.56793982E-02 -0.11594842E-04 -0.79180847E-02
 -0.86643650E-02  0.61826187E-02 -0.95714467E-02
  0.44781154E-02 -0.64296440E-02  0.15624790E-02
  0.10593091E-02 -0.13680844E-01 -0.11936465E-02
  0.80756346E-03  0.15679851E-02  0.45803036E-02
 -0.27153277E-02 -0.18418196E-03 -0.29784786E-02
 -0.23331455E-02  0.91778878E-02 -0.59665546E-02
  0.99169472E-03  0.29921205E-02 -0.55538527E-02
 -0.22413372E-02  0.62578386E-02  0.57046473E-02
  0.23006920E-02  0.53781738E-02  0.12530332E-02
 -0.13651863E-02  0.15181396E-02  0.73581746E-02
 -0.76456386E-02 -0.24354375E-02 -0.50396639E-04
 -0.25376283E-02 -0.15206253E-02  0.39684683E-02
 -0.47464803E-02 -0.54849150E-02  0.38776976E-02
  0.39870114E-03  0.67620851E-02 -0.27305619E-02
 -0.75339273E-02  0.51215981E-02 -0.79159898E-02
 -0.29039126E-02 -0.13369160E-02  0.54646507E-02
 -0.62976330E-02 -0.72464445E-02  0.60615409E-02
  0.25885125E-02 -0.48622448E-02  0.78534392E-03
 -0.82320731E-03  0.10866262E-01 -0.13212803E-01
  0.48621223E-02 -0.43794208E-02  0.10527245E-02
  0.11151493E-02 -0.19812778E-02 -0.21092973E-02
 -0.15580200E-02  0.24086425E-02 -0.81052515E-02
 -0.71936212E-02  0.98936579E-02  0.55738661E-02
 -0.10157372E-03 -0.15476657E-02  0.58780462E-02
  0.48359118E-02 -0.27293275E-02  0.15918382E-02
 -0.76850251E-03  0.53202019E-02  0.33869256E-02
 -0.15894302E-02  0.38114794E-04 -0.47861724E-03
 -0.74220789E-02 -0.10680460E-01 -0.26975636E-02
 -0.56295681E-03  0.35013641E-02  0.37123740E-02
 -0.27857836E-02 -0.43062431E-02  0.82699325E-02
 
           1
   2.00000000000000     
  0.12102535E+01 -0.43027837E-02  0.00000000E+00  0.00000000E+00
  0.26077617E+00  0.75226757E+00  0.99857772E+00
  0.70938105E+00  0.38805814E+00  0.60283145E+00
  0.52513632E+00  0.43270904E+00  0.86937982E+00
  0.22813288E-01  0.50543617E+00  0.49888182E+00
  0.26988170E+00  0.22599237E+00  0.28158629E-01
  0.30559789E-01  0.26099014E+00  0.15618001E+00
  0.45710330E-01  0.13744898E+00  0.98694552E+00
  0.19542607E-01  0.97406863E+00  0.37909345E+00
  0.98623971E+00  0.99221502E+00  0.65780693E+00
  0.77629282E+00  0.48877533E+00  0.87550107E+00
  0.78075751E+00  0.70291179E+00  0.36326065E+00
  0.80056180E+00  0.22002641E+00  0.39428639E-02
  0.26664150E+00  0.53211177E-01  0.13182274E+00
  0.27808576E+00  0.45942695E+00  0.62027418E+00
  0.32395662E+00  0.95846561E+00  0.87804194E+00
  0.96245105E+00  0.48998207E+00  0.36136353E+00
  0.17014435E-01  0.77561947E+00  0.75788738E+00
  0.98474524E+00  0.21937464E+00  0.75365704E+00
  0.52492088E+00  0.97235451E+00  0.10408500E+00
  0.25761603E+00  0.21069303E+00  0.88864824E+00
  0.53101439E+00  0.50528292E+00  0.39164249E+00
  0.73365717E+00  0.96533182E+00  0.35249058E+00
  0.78087002E+00  0.76129513E+00  0.87346027E+00
  0.80582192E+00  0.75353944E+00  0.49770181E+00
  0.54356361E+00  0.74148835E+00  0.12193361E-02
  0.25975721E+00  0.51023716E+00  0.37933072E+00
  0.58071057E+00  0.50085514E+00  0.12947459E+00
  0.73003180E+00  0.26149645E+00  0.36763155E+00
  0.28248310E+00  0.72899913E+00  0.64638070E+00
  0.78944633E+00  0.73995565E+00  0.74920884E-02
  0.21804823E+00  0.77438069E+00  0.52571640E+00
  0.73938123E+00  0.30839090E+00  0.74393230E+00
  0.98108515E+00  0.79709719E+00  0.24171236E+00
  0.50853125E+00  0.49448022E+00  0.75103247E+00
  0.99577970E+00  0.97763903E+00  0.86464571E+00
  0.49918206E+00  0.53778656E+00  0.63061296E+00
  0.45172187E+00  0.99576984E+00  0.38079494E+00
  0.72642405E+00  0.27450106E+00  0.23700105E+00
  0.51456110E+00  0.25563643E-01  0.76919085E+00
  0.47706934E+00  0.21150865E+00  0.25584102E+00
  0.93545224E+00  0.12640447E+00  0.26031756E+00
  0.16447406E+00  0.75039103E+00  0.88634812E+00
  0.50318200E+00  0.95128113E+00  0.96029908E+00
  0.15682523E-01  0.49499013E+00  0.10819124E+00
  0.29455039E+00  0.23109447E+00  0.17437249E+00
  0.50100048E+00  0.48319561E+00  0.51386382E+00
  0.68833362E+00  0.29232192E-01  0.62388065E+00
  0.73850598E+00  0.29758375E+00  0.12309703E+00
  0.74870785E+00  0.22148553E+00  0.86511576E+00
  0.27028892E+00  0.24188598E+00  0.38887002E+00
  0.22480534E+00  0.22967134E+00  0.76366371E+00
  0.49557582E+00  0.98837138E+00  0.26447897E+00
  0.25288167E+00  0.78951444E+00  0.38343955E+00
  0.79752196E+00  0.63627560E+00  0.12473430E+00
  0.49452268E+00  0.26192934E+00  0.48027686E+00
  0.17847955E-01  0.50595278E+00  0.99986427E+00
  0.99603494E+00  0.13905172E-01  0.14799851E+00
  0.99615844E+00  0.74312101E+00  0.45140525E+00
  0.29801117E+00  0.51901874E+00  0.87157121E+00
  0.38324151E-01  0.51539043E+00  0.23121132E+00
  0.54513911E+00  0.22642427E+00  0.98644847E+00
  0.97818541E+00  0.21458946E+00  0.48084141E+00
  0.98803080E+00  0.88596970E+00  0.25289422E-01
  0.50804152E+00  0.16137871E-01  0.50867079E+00
  0.17847726E+00  0.25286668E+00  0.28037498E+00
  0.49340977E+00  0.24385493E+00  0.74018283E+00
  0.26888939E+00  0.51880450E+00  0.12273866E+00
  0.78785174E+00  0.68598506E+00  0.62011942E+00
  0.48655583E+00  0.73828348E+00  0.24578195E+00
  0.24909809E+00  0.26960800E+00  0.50872050E+00
  0.75692504E+00  0.95366633E-02  0.11089383E+00
  0.98590988E+00  0.50070645E+00  0.64949170E+00
  0.32058199E+00  0.73559572E+00  0.13457781E+00
  0.25936093E+00  0.98834398E+00  0.62877941E+00
  0.71210043E+00  0.97400871E+00  0.85442703E+00
  0.53556339E+00  0.73623451E+00  0.49960982E+00
  0.52506176E+00  0.77179132E+00  0.72573876E+00
  0.76432326E+00  0.21795397E+00  0.50148425E+00
  0.73232415E+00  0.76941353E+00  0.24411758E+00
  0.24491015E+00  0.24617863E+00  0.63703061E+00
  0.98490182E+00  0.47149682E+00  0.76316299E+00
  0.23807383E-02  0.95609052E+00  0.51876861E+00
  0.76625504E+00  0.79440448E+00  0.74162075E+00
  0.25185114E+00  0.72815416E+00  0.24663829E+00
  0.25843204E+00  0.71522673E+00  0.75519101E+00
  0.52368997E+00  0.51668057E+00  0.98280561E+00
  0.90368141E-02  0.50572530E+00  0.86951483E+00
  0.50064060E+00  0.49114774E+00  0.26885589E+00
  0.23971066E+00  0.99350778E+00  0.25714647E+00
  0.75855285E+00  0.54906786E+00  0.74850078E+00
  0.22562769E+00  0.98212380E+00  0.76144137E+00
  0.78251426E+00  0.51321757E+00  0.23652712E+00
  0.25219654E+00  0.98962420E+00  0.29092805E-02
  0.75399303E+00  0.49148971E+00  0.49274101E+00
  0.23877965E+00  0.10925582E-01  0.49771095E+00
  0.74452206E+00  0.48553198E+00  0.15025001E-02
  0.76989703E+00  0.38968869E-01  0.73804592E+00
  0.26469737E+00  0.47406432E+00  0.25420827E+00
  0.25540534E+00  0.46370488E+00  0.74213922E+00
  0.74043962E+00  0.15602043E-01  0.22277505E+00
  0.26046406E+00  0.52932051E+00  0.49925989E+00
  0.75357896E+00  0.99487409E+00  0.98422304E+00
  0.75169585E+00  0.97577376E+00  0.49507822E+00
  0.27320682E+00  0.49499785E+00  0.99832147E+00
  0.57343975E-03  0.24987915E+00  0.36723837E+00
  0.52027500E+00  0.72511301E+00  0.87468730E+00
  0.49964176E+00  0.25468174E+00  0.62720240E+00
  0.33419187E-01  0.73990887E+00  0.10821543E+00
  0.99157261E+00  0.23494196E+00  0.87760231E+00
  0.51488403E+00  0.75797372E+00  0.37009733E+00
  0.32538330E-01  0.74592386E+00  0.63193761E+00
  0.52574261E+00  0.22961033E+00  0.13172622E+00
  0.16869644E+00  0.39914268E+00  0.49115850E-01
  0.66246489E+00  0.89035546E+00  0.55857350E+00
  0.64260599E+00  0.80161579E-01  0.94024891E+00
  0.15872539E+00  0.63857409E+00  0.44181635E+00
  0.37634913E+00  0.38886682E+00  0.94541323E+00
  0.85729295E+00  0.88752207E+00  0.42317980E+00
  0.89080309E+00  0.60753145E-01  0.34652588E-01
  0.35995096E+00  0.62268441E+00  0.54947640E+00
  0.83124779E+00  0.13392914E+00  0.17181965E+00
  0.34974837E+00  0.57415553E+00  0.69750012E+00
  0.85721982E+00  0.91888381E+00  0.27579725E+00
  0.36956655E+00  0.35987931E+00  0.79396022E+00
  0.17854692E+00  0.57859860E+00  0.30781361E+00
  0.65951939E+00  0.13973758E+00  0.78918101E+00
  0.16720501E+00  0.37188477E+00  0.20340305E+00
  0.63427408E+00  0.95157559E+00  0.70161526E+00
  0.85172080E+00  0.58889337E+00  0.95609321E+00
  0.35201044E+00  0.13474430E+00  0.45963442E+00
  0.85991989E+00  0.39785758E+00  0.53747910E+00
  0.35150662E+00  0.90723497E+00  0.61733663E-01
  0.12126285E+00  0.10071525E+00  0.54879060E+00
  0.63756678E+00  0.58297015E+00  0.54699791E-01
  0.13203189E+00  0.92855996E+00  0.94278006E+00
  0.63881401E+00  0.37722310E+00  0.45138932E+00