Na88 Ge16 P8 S96                        
   1.00000000000000     
    13.3422163233000006    0.0000000000000000    0.0000000000000000
     0.0000000000000000   13.3422163233000006    0.0000000000000000
     0.0000000000000000    0.0000000000000000   26.6844326466999995
   Na   Ge   P    S 
    88    16     8    96
Direct
  0.0275316578211388  0.0062350558226095  0.1137331772776008
  0.4837223135450763  0.5175508995479822  0.6279821728421444
  0.2143373806938736  0.4751996288733233  0.8722999459444249
  0.0161412218078935  0.9756991641621906  0.3518262386523013
  0.7341449299872749  0.9898251126243037  0.8694787043209007
  0.9794779137705698  0.4405584156478910  0.4567369161207729
  0.9481602536331158  0.5032612782291700  0.1422413761421324
  0.2356751658961724  0.2491280080544209  0.1166514056924948
  0.6716173391266292  0.0254719947028054  0.6273008943220001
  0.7274933299074351  0.2478565176616793  0.7414580495817076
  0.7468016842846649  0.7409226360890088  0.3767480752332824
  0.2657535376689968  0.2160252763672684  0.8757563620419645
  0.7561020822149347  0.2408396612206432  0.1487184750758270
  0.2695345925540110  0.7519464826425091  0.6260441525916225
  0.9886794469424590  0.9103003611301186  0.8650468464935308
  0.4569658201830865  0.4807226016287010  0.3722076409455295
  0.0088970011523732  0.0001717496934530  0.6179497831794716
  0.9818066409923875  0.4809313988661429  0.6098446175154201
  0.5154284078343205  0.9826035450365372  0.1315508205199574
  0.9439003127286237  0.4575213475873522  0.8889571127437884
  0.4472869000706362  0.9962378409359801  0.3819134638892789
  0.2466287855179341  0.1283423670835047  0.3884245969070508
  0.7311586089621427  0.5702596770830342  0.8681799937470502
  0.7287475644386251  0.3947207591556509  0.6251036627478136
  0.2869416480037778  0.7553009832938147  0.1283063789649078
  0.2221223994035413  0.2550252070045577  0.6191366033939816
  0.7400043650473698  0.7328149966710621  0.1233776134185834
  0.7405123918449007  0.2633904113193125  0.3638953138499585
  0.5078272494310428  0.7621065955050969  0.5107822175713750
  0.5164060573581143  0.2394645001474224  0.9995646683350291
  0.0136562757106432  0.9714554183100222  0.5002458431626526
  0.5113824500581117  0.7612677215320931  0.7487345744013082
  0.0110628368816347  0.7624956255087505  0.2544978980977601
  0.4519744908163004  0.2591943726748334  0.7422870404718216
  0.9814640222088701  0.0480579638808344  0.9828806725480637
  0.5257272880769819  0.2388121740658157  0.5019686023918736
  0.4941533499264581  0.7529028685085249  0.9997620588896939
  0.8792103830823654  0.2567105898748208  0.2673619598544763
  0.0269071777451248  0.7133020985857567  0.7450000767432792
  0.4999066002750627  0.7589835962334913  0.2441153702352373
  0.0155224028536717  0.9871823448881146  0.2346174156575622
  0.5221267411765829  0.5085933199023072  0.7664012180513436
  0.4938477861094027  0.0230126394292813  0.8598825945159846
  0.9652363776918385  0.5158735736787669  0.2547932880883126
  0.1852071297150922  0.2173440845643902  0.9793763409090368
  0.7208547137360284  0.7178613817706551  0.4983648449626206
  0.2204010582765507  0.7553806395301971  0.5133297180794915
  0.7825173913394391  0.2620435284534596  0.9987512234470384
  0.9784278933969665  0.9560796007322488  0.7330122416256033
  0.4558272144187526  0.4713566446642218  0.2309487717224068
  0.0427643845043911  0.4630792683643515  0.7547899648530555
  0.5384150190435868  0.9932575296119910  0.2636465213010538
  0.2642878589814314  0.2601834340695452  0.5105965778041314
  0.7403910697371137  0.7443715984005894  0.9720547979322531
  0.7656001346223760  0.2244094175778807  0.4899567930222262
  0.2301125965854358  0.7157188226298065  0.0104104371489111
  0.0116585431605954  0.5066311905086045  0.0202880801347219
  0.4745015781327271  0.4823547449215116  0.4891065103736953
  0.5241780107892435  0.4705408716467159  0.0205581706919587
  0.9904482236952015  0.1985740285316366  0.5016717234383110
  0.4929684628788018  0.0052966727264849  0.0079141888366709
  0.9644679704255846  0.7237904266781621  0.4803089337952960
  0.0100313577046568  0.7625634885402985  0.9963580396337391
  0.4921780123771064  0.0177391167983155  0.5268376591924383
  0.4769173510843917  0.2566952045789472  0.2598028044649952
  0.7407487028018368  0.7065497110134794  0.7618560339172707
  0.2483160386302951  0.7313749385561961  0.2533209204155654
  0.9611648614952670  0.2039452535404861  0.7385745231220960
  0.7407879376755188  0.7434634771624666  0.2394089235835292
  0.2045686395795110  0.2641208487372969  0.7685853129477604
  0.2151327441608686  0.2334260498618851  0.2667555205555110
  0.2831291797679495  0.7589740128086121  0.7646557720157185
  0.2617692940785593  0.4722392751352340  0.1216732324813223
  0.4768213047929733  0.9953521566839481  0.7438316697521042
  0.7395089381621407  0.2398448800053751  0.8826998886582790
  0.1860263262569360  0.4806872022180543  0.3678089163713226
  0.2452338587425927  0.7092435213378738  0.8832892856871031
  0.7663650429996152  0.0033192785873100  0.3709388096655595
  0.7435834588760045  0.9936184237535053  0.1225176242976040
  0.2583065303994758  0.5034693099045053  0.6205447677003914
  0.4798777499580500  0.4946507081880912  0.8943119332146934
  0.2374042972022630  0.7776776233741488  0.3826546431834562
  0.7712243705440638  0.6847735827231192  0.6411972061592300
  0.2480915338451141  0.9856465595440063  0.1120758135838915
  0.2424461186020159  0.9940614877469092  0.6219090717008920
  0.6838022322578091  0.4892374699613597  0.1280612389909426
  0.2546187043414216  0.9835914546100273  0.8699704928666455
  0.7023739259522304  0.4940638682498580  0.3857387433820074
  0.2727634828089080  0.9898381054081372  0.2471434181081323
  0.7744282703849976  0.4761620208070291  0.7508850669631735
  0.2482667519760351  0.0017513095787960  0.7408677531734807
  0.7043747643866550  0.5075385478050654  0.2584891508179363
  0.2584152572419661  0.9698570048910844  0.9887128256099338
  0.7568767780385153  0.4682625106598753  0.5037004234694039
  0.2603763473291195  0.0116542184747889  0.4953057667605422
  0.7386963448451800  0.5217832970798244  0.0026655469462005
  0.7290897616293029  0.9788777305042271  0.7468599199057054
  0.2151804420398805  0.5030213614013135  0.2397185672978301
  0.2692079915264655  0.5060560482441113  0.7570347489145237
  0.7574791621475556  0.0088820582655765  0.2486183438024678
  0.2397924818239211  0.5191939755601860  0.4980093019122547
  0.7476323306213609  0.0089590354541798  0.9979602068100634
  0.7460909821180802  0.9872751139678327  0.4956778281969187
  0.2531595126456922  0.4592820539967152  0.9967856060248130
  0.9941602581129786  0.2448643958689968  0.3754286335385544
  0.5022036592501514  0.7432756558483160  0.8768499730040015
  0.5105760343290175  0.2345887061595433  0.6271923194599603
  0.0080512043202310  0.7475515879341590  0.1268913704034556
  0.9871077100718356  0.1992556736185340  0.8773632915342510
  0.4828270736612899  0.7531784079381110  0.3801220277325958
  0.0068858714381508  0.7294911530611765  0.6149685695776739
  0.4923824257034935  0.2406304193976073  0.1253697663991915
  0.1700772556722379  0.3611322167799892  0.0493713116106854
  0.6586680945998794  0.8951984114589694  0.5491761823999108
  0.6379742209285386  0.1018444902325384  0.9490394970736370
  0.1484097983618015  0.6104048494307458  0.4464785805017975
  0.3611661659531283  0.3690375644861279  0.9543813635899857
  0.8411679369840309  0.8837131747594461  0.4441420397554954
  0.8370938832241853  0.1131440711939788  0.0483332191141477
  0.3474243275025645  0.6055445303074047  0.5519867283344568
  0.8686574072515362  0.0886618922521730  0.1917436774757393
  0.3734353234772476  0.6065258438266485  0.7095657896613006
  0.8449380907913228  0.9033380329106278  0.2974145527141902
  0.3646125633982529  0.3942867376630815  0.8045139249343040
  0.1259469539607888  0.6018374632558049  0.2903798877220610
  0.6402962248219101  0.1015481991271194  0.7930493137972013
  0.1241408740744129  0.3982705875986556  0.1963513308416507
  0.6321583999336832  0.8840520936282737  0.6976781994094812
  0.8620844628119326  0.5790228331866190  0.9547679285049098
  0.3811872066278327  0.1137686085934641  0.4676713236008027
  0.8605560178941546  0.3700348172824892  0.5420206188405002
  0.3528604254912011  0.8845648729574538  0.0467543606523786
  0.1468841186550259  0.1000879092820773  0.5546797478452420
  0.6366554221701644  0.6342055391671663  0.0395518869054191
  0.1675382382643502  0.8610450981734156  0.9426682595544937
  0.6549809187298242  0.3668782168887127  0.4514707280139246
  0.6076629815517469  0.3957910173884253  0.3027892854123226
  0.1491184679672111  0.9089012779866836  0.7857631344171403
  0.1410841341826114  0.1035611389519442  0.6951374682705476
  0.6180975949194127  0.6126940316344813  0.2057903158131136
  0.8759247923975680  0.3748182555854741  0.7035265269672510
  0.3802922432576354  0.8972608136410152  0.2005259904602150
  0.3565847951283292  0.0870898217322912  0.2997364523356054
  0.8803605301706454  0.5709221735127739  0.7994808541023055
  0.1544740457953509  0.0595954104235548  0.0325666464377250
  0.6567844233164492  0.5454152487972933  0.5570448839910987
  0.6520834475011545  0.4104706822765953  0.9574177803747946
  0.1516321980868313  0.9656955189168482  0.4346233167786284
  0.3531000495051776  0.0790095716735081  0.9459886776914741
  0.8350732770834836  0.5764162827566182  0.4490726091362443
  0.8258657349154027  0.4415474917222589  0.0633081112864713
  0.3401299785190421  0.8895253649173511  0.5409696497182999
  0.1832240114202522  0.0823181497516342  0.1943467041846212
  0.6825795275433696  0.5581249794523433  0.6970404708843683
  0.1702259748415892  0.8883635768946561  0.2956628188433610
  0.6792697562416963  0.3889987039016470  0.8052110556714968
  0.8019657091302368  0.6084594382586297  0.3024507359114945
  0.3380065499189928  0.1110098525720781  0.7914282299586626
  0.8031305391488147  0.4199046124194551  0.2052739747428806
  0.3492428829916133  0.8941428064065765  0.6938920622087857
  0.8544689230940943  0.9053415486725708  0.9475516225327588
  0.3342269760911965  0.4110836417131383  0.4481317311874352
  0.8620745054518602  0.0781734984670854  0.5385497173052874
  0.3516193411089925  0.5629973287730566  0.0482239352155119
  0.1357223857113831  0.4167469020541051  0.5444535941698785
  0.6612011759991276  0.8955409769300907  0.0467916744888442
  0.1541912791818023  0.5600532187542959  0.9485134219873621
  0.6535255663126132  0.0960136347111246  0.4503231567528156
  0.2987317632102018  0.4094246945157261  0.2964133738452864
  0.8174291156799340  0.8730783688999050  0.7927803898255565
  0.8176088510472297  0.0746447508629481  0.6919548137473849
  0.3222597027333366  0.6009619705118150  0.1966824610362641
  0.1913380907227401  0.4064553038674210  0.6995295509556688
  0.6565543921627578  0.9001718930582810  0.1983687963198879
  0.6804609744944848  0.1297155229579378  0.2953995189827602
  0.1712691271368528  0.5976853269688072  0.8051661640730086
  0.0533358473576420  0.1647502985295128  0.3173714604405046
  0.5823596727709178  0.6590605837870677  0.8264623584390639
  0.5765550816220623  0.3287658079593633  0.6773708298266626
  0.1107283646927109  0.8396888607900239  0.1621739945607115
  0.4522158375574182  0.1123278751228848  0.6599129031790955
  0.9137917696022315  0.6631469852598985  0.1776086871451881
  0.9166785585681088  0.3635515688038923  0.3534003360692931
  0.4196816547013443  0.8457169366662539  0.8286540693376787
  0.0927212629934445  0.1065536252323464  0.9084444456225337
  0.5806667564424590  0.6508943700711209  0.4192341107074933
  0.0725494992333037  0.8336593115021643  0.5653946437718143
  0.5856927469014778  0.3176312592404716  0.0809880349168885
  0.9101988346437487  0.6475159846001067  0.5674894388351951
  0.4215058163830954  0.1443564996938949  0.0788920273600297
  0.9412689623516306  0.2849867638709460  0.9341784511171513
  0.4088779546041058  0.8388084463269491  0.4332105641647429
  0.9261681247484039  0.8067855974213911  0.6648634891789911
  0.3902343292900073  0.3218375681674392  0.1682868053480483
  0.8813090414893200  0.1303764473403463  0.8363009594814466
  0.3883406530708158  0.6620761080569753  0.3362997213424996
  0.0563162436281183  0.3096053969397239  0.8304757843365012
  0.5762183138365889  0.8433750075922628  0.3383054612638476
  0.1009609182428773  0.6399037658957241  0.6481412250630362
  0.5742157930429287  0.1678951375806107  0.1816385004581360
  0.3977003832600247  0.3285748180148169  0.5921290397617744
  0.9222671105752931  0.8249491152562352  0.0805294718487577
  0.9068030348432256  0.1464226322890254  0.4108135039726243
  0.4169609046884012  0.6620145066160530  0.9208773822898328
  0.1151694354625309  0.2857902195506983  0.4243926082130249
  0.5921747610029616  0.8316327411946883  0.9168542135447463
  0.6239778523723221  0.1877734116774701  0.5812686131797284
  0.0879659333296811  0.6483995967102769  0.0794600919617932
 
  0.46154259E-03 -0.20410128E-02 -0.26837502E-02
  0.25927090E-02  0.41285090E-03 -0.25902660E-02
 -0.59981253E-02  0.25154693E-02 -0.64657434E-02
 -0.38080573E-02 -0.54414013E-02 -0.10755879E-01
 -0.19650496E-02 -0.38597594E-03 -0.27095979E-03
 -0.27340841E-02  0.22580144E-02 -0.86086953E-03
 -0.29114396E-02 -0.62991384E-02  0.82697716E-02
  0.77979936E-03 -0.57276555E-03  0.49307364E-02
  0.38938903E-02 -0.31199596E-03  0.32944124E-02
  0.14867223E-02  0.34829633E-03 -0.68959318E-02
 -0.65865417E-03  0.14861613E-02  0.76439050E-02
 -0.46472610E-02 -0.22629601E-03  0.23651807E-02
  0.94950565E-03 -0.43644197E-02 -0.21303913E-02
 -0.10485034E-02 -0.34242205E-02  0.70776486E-02
  0.30938592E-02  0.13759182E-02  0.72728280E-03
  0.22532305E-02  0.66208972E-02 -0.26636867E-02
 -0.33770144E-02  0.27175684E-03 -0.36825403E-03
  0.17178181E-02 -0.11571580E-02  0.54440324E-02
 -0.31408722E-02  0.17168649E-02 -0.57080175E-02
 -0.24670310E-02  0.60705345E-02 -0.37225756E-02
 -0.11935900E-03  0.33922698E-02 -0.59759172E-02
 -0.11004258E-02  0.48097393E-03  0.21537048E-03
 -0.18276581E-02 -0.86596772E-03 -0.12597435E-02
  0.36591740E-02 -0.12468243E-02 -0.52470896E-02
  0.39272850E-02 -0.40847039E-02 -0.47015431E-03
 -0.35152646E-02  0.21266284E-02  0.10996098E-02
 -0.77762453E-04  0.38531468E-02  0.15485881E-02
  0.24777174E-02  0.38446520E-02  0.53425439E-02
 -0.20747410E-02 -0.54219664E-02 -0.19136147E-02
 -0.35227150E-02  0.39193451E-02  0.26489514E-02
 -0.46458557E-02 -0.32010823E-02  0.80677022E-02
 -0.62408038E-02 -0.16566916E-02 -0.71259627E-05
  0.32297437E-02  0.11967929E-02 -0.89938973E-03
  0.30489558E-02  0.26804631E-02  0.62209400E-02
 -0.64680100E-02  0.42667992E-02  0.23127760E-02
 -0.13561074E-02  0.52160721E-03  0.12667579E-01
  0.31188911E-02  0.69182086E-02 -0.27411125E-02
 -0.23378281E-02  0.26832195E-02 -0.13368457E-02
 -0.13823240E-02 -0.53567563E-02  0.15192825E-02
  0.20317554E-02  0.33069391E-02  0.23449158E-02
 -0.39724579E-02 -0.55626371E-03  0.47503032E-02
 -0.38492909E-03 -0.50210095E-04  0.50347212E-02
 -0.46256878E-02 -0.73029988E-02 -0.45115209E-02
  0.80703620E-03 -0.13418547E-02 -0.10638078E-02
 -0.26517444E-02  0.14432917E-01  0.61936702E-02
  0.44339953E-02 -0.21230030E-02 -0.16054958E-02
 -0.18861018E-02 -0.24254803E-02  0.66427110E-03
 -0.78200569E-04 -0.72989108E-02  0.17091870E-04
  0.39985499E-02  0.30620931E-02  0.39972804E-02
 -0.15700838E-02  0.72364610E-03  0.41515102E-02
  0.45004738E-02 -0.10888801E-02  0.12689960E-02
  0.11620241E-03  0.12152507E-02  0.40340556E-02
  0.57123935E-02 -0.55112938E-02 -0.11026519E-03
  0.30927104E-02 -0.18020082E-02  0.17914220E-03
  0.86640791E-02 -0.51887564E-02 -0.63737307E-02
  0.36083218E-02  0.84721948E-02  0.53577302E-02
  0.42850689E-02 -0.33149150E-03  0.10517592E-02
 -0.56804842E-02 -0.12288102E-02  0.11608995E-02
 -0.28556755E-02 -0.41732011E-02  0.67505761E-03
  0.33352368E-02 -0.39865556E-03 -0.28190112E-02
  0.35892661E-02 -0.52613540E-02 -0.35912208E-02
 -0.94681774E-02 -0.34911622E-02 -0.33744882E-02
 -0.58083210E-02 -0.59884105E-02 -0.24044164E-02
 -0.36476089E-02  0.10750007E-02 -0.26516456E-02
  0.60357663E-03 -0.31402128E-02  0.54736471E-02
 -0.95945992E-02  0.50323865E-02  0.37705607E-02
  0.41777710E-02 -0.13489674E-03  0.34730553E-02
  0.35533406E-02  0.91079693E-05 -0.16528317E-02
  0.51144860E-02  0.79693822E-03 -0.15480926E-02
  0.38206591E-02 -0.10532131E-02 -0.24055844E-02
 -0.96045809E-03  0.13969974E-03 -0.65333039E-03
 -0.55991960E-02 -0.43125568E-02 -0.38529768E-02
 -0.22867872E-03 -0.32533226E-02 -0.52578272E-02
 -0.59134787E-04 -0.17967856E-02 -0.18186730E-02
  0.10652819E-02 -0.11615153E-02  0.11117678E-02
  0.17029917E-02  0.26109637E-03  0.18814306E-02
  0.76492565E-03  0.26022770E-02  0.23962890E-02
  0.44469411E-02  0.11900350E-02  0.97611908E-03
 -0.52772455E-02 -0.11421359E-03 -0.30857970E-02
 -0.17541483E-02 -0.67623072E-02 -0.83771027E-03
  0.25414459E-02 -0.29676144E-03 -0.53303789E-02
 -0.72433653E-02 -0.19744262E-02  0.12431909E-01
 -0.98733051E-03  0.28534283E-02  0.44323546E-02
  0.30443992E-02 -0.34108246E-02 -0.36141309E-02
  0.38132096E-02  0.89957139E-04  0.30522717E-02
 -0.33198067E-02 -0.12427304E-02 -0.27190133E-02
 -0.50717651E-02 -0.63262199E-03 -0.11673379E-02
  0.54928879E-03  0.43039656E-02 -0.91114710E-02
 -0.14217809E-02 -0.19066538E-02  0.55083292E-03
 -0.92719643E-03 -0.39207922E-02  0.24479536E-03
  0.30515601E-02 -0.29418510E-02 -0.13884263E-02
  0.49670645E-02 -0.23756358E-02 -0.31853839E-02
 -0.18458235E-02 -0.18891603E-02  0.40961131E-02
  0.40500234E-02  0.34867708E-02 -0.60629848E-03
  0.29610108E-02  0.38959633E-03 -0.72691689E-03
  0.52054138E-02 -0.57354528E-02  0.17467592E-02
 -0.31014330E-02  0.22825394E-02  0.23531186E-02
  0.16335937E-02 -0.13187286E-02 -0.24084201E-02
  0.18240507E-02  0.97082795E-03  0.27152142E-02
 -0.26472675E-02 -0.34808320E-03  0.16463261E-03
 -0.36740552E-03  0.62550591E-03 -0.36531703E-02
 -0.96618343E-03 -0.29586601E-03 -0.58211971E-02
 -0.40525100E-03  0.26353014E-02  0.24524990E-02
 -0.10859849E-02  0.30156589E-02 -0.20576775E-02
  0.48779942E-02 -0.55180793E-02 -0.81904394E-03
  0.28411744E-02  0.51215327E-02 -0.34227050E-03
 -0.20929558E-05 -0.52220645E-02  0.11475423E-02
  0.15293776E-02  0.36913853E-02 -0.38953476E-02
 -0.29840082E-02  0.41780231E-03 -0.14837849E-02
 -0.34782001E-02  0.36771313E-02 -0.33711029E-02
 -0.20243403E-02 -0.31487696E-03  0.38243158E-03
 -0.19575316E-02 -0.99495437E-02  0.58365933E-02
  0.21837018E-03 -0.46673234E-02  0.13989980E-02
 -0.16106509E-03 -0.30781782E-02 -0.90784708E-03
  0.35285075E-02 -0.61870266E-03  0.79523122E-02
 -0.10080223E-03  0.33768784E-02  0.35669633E-02
  0.96015110E-03 -0.29515808E-02 -0.32443886E-02
  0.14700144E-02 -0.32588247E-02 -0.43708892E-02
 -0.40398037E-02 -0.14420550E-02  0.15917109E-02
  0.66702402E-02  0.37442101E-02  0.31178580E-02
 -0.11538018E-02  0.22154814E-02 -0.21613855E-03
  0.56687958E-03 -0.86478696E-03  0.16725043E-02
  0.30013671E-02  0.31620704E-02 -0.83267200E-02
  0.11332070E-02 -0.19561192E-02  0.29394636E-03
  0.21299818E-02  0.41520407E-02 -0.47364090E-02
 -0.17590317E-02  0.60209041E-02 -0.47877743E-02
  0.56578652E-02  0.19836095E-02 -0.48505662E-02
 -0.16132224E-02  0.18716049E-03 -0.45661517E-02
 -0.63390387E-02 -0.54154579E-02  0.41008065E-02
 -0.14797850E-03  0.36724992E-02  0.33261751E-03
 -0.58956607E-03  0.12351282E-02  0.28736706E-02
  0.37003061E-02 -0.18714025E-02 -0.35347698E-02
 -0.10383981E-02  0.13984808E-02 -0.89123884E-02
 -0.29635069E-02 -0.18449539E-02  0.25478502E-02
  0.36223594E-02 -0.11478388E-02  0.96760056E-02
 -0.55059538E-02  0.52623731E-02 -0.36412683E-02
  0.15176094E-02 -0.21513637E-02  0.23316714E-03
  0.20371186E-02  0.11876606E-03 -0.26033730E-03
 -0.25851006E-02  0.31957261E-02  0.24735787E-02
 -0.17802931E-03  0.73207229E-04  0.10984889E-02
  0.41714359E-03  0.13298885E-02 -0.27212376E-02
  0.24419587E-03  0.35983971E-02  0.12146610E-02
 -0.23785549E-02  0.27126775E-02 -0.67480911E-02
 -0.23212630E-02  0.22097579E-02 -0.48092085E-02
 -0.11713263E-02  0.35059579E-02  0.38362810E-02
  0.88636500E-03  0.17575447E-02  0.24081269E-02
  0.19622951E-02 -0.12073579E-02  0.23152494E-02
 -0.36163571E-02 -0.28937512E-02 -0.53431641E-02
  0.32041359E-02 -0.58216018E-03  0.19026367E-02
  0.96706276E-03  0.19268379E-02  0.86780762E-03
 -0.24655713E-02  0.27686802E-02  0.68393042E-02
 -0.49494597E-02  0.10013310E-02 -0.15433932E-02
  0.20278626E-03  0.10162407E-02 -0.38531665E-02
  0.42866191E-02 -0.58026463E-02  0.60192680E-02
 -0.35861154E-03 -0.21607437E-02  0.53637565E-02
 -0.76305136E-03  0.31768423E-03  0.11602748E-02
  0.33624899E-03 -0.25717813E-02 -0.19847259E-02
  0.38819225E-02 -0.37699621E-02  0.21552124E-02
 -0.28214956E-03  0.45684806E-02  0.65837227E-03
  0.32916735E-02  0.92801960E-03 -0.28444451E-02
  0.65146610E-03 -0.37560453E-02 -0.27450779E-02
 -0.27170599E-02  0.54283261E-02  0.72234528E-03
 -0.24451570E-02  0.41074327E-03 -0.13357573E-02
 -0.34488322E-02 -0.69538125E-02  0.67452386E-02
 -0.81915789E-03 -0.53054358E-02  0.53922612E-04
  0.68328493E-03 -0.47009300E-02  0.34366608E-02
 -0.22728014E-02  0.34056763E-02  0.43517048E-02
 -0.77499675E-02 -0.10840502E-02  0.15598573E-02
  0.38881062E-02 -0.22279483E-02 -0.92343294E-03
  0.53914059E-02 -0.74850630E-02 -0.22344348E-03
  0.18613158E-02 -0.34322932E-02 -0.73116161E-03
 -0.44041765E-02 -0.12460950E-02 -0.31333938E-02
  0.62475464E-03 -0.25430484E-02 -0.41309336E-02
 -0.88559375E-02 -0.30028552E-02  0.51853489E-03
 -0.20773328E-02  0.26317669E-02  0.21043935E-02
  0.46482940E-02 -0.26980133E-02 -0.42660271E-02
  0.23837091E-02  0.18239646E-02  0.78624328E-02
 -0.58144803E-02  0.67774866E-02 -0.36162720E-02
 -0.21090773E-02 -0.21146336E-02 -0.19981703E-02
 -0.25819987E-02  0.30536726E-02  0.20955393E-02
  0.57097666E-02  0.62674741E-02  0.66915339E-02
  0.13879533E-02  0.19963014E-02  0.27171101E-02
 -0.72983022E-02  0.62092309E-02  0.36443621E-02
 -0.46438317E-02 -0.48316541E-02  0.28784800E-02
 -0.10965917E-02  0.62983823E-02 -0.23563302E-03
  0.78115446E-02  0.47740494E-02 -0.30394633E-02
  0.77488155E-03  0.37018857E-02  0.52435408E-02
 -0.76903318E-02 -0.24317143E-03 -0.57048307E-02
  0.77951576E-03  0.50660843E-02 -0.73281743E-03
 -0.26413186E-02  0.53305492E-03 -0.16287842E-02
 -0.66890521E-03  0.43476159E-02 -0.25597892E-02
 -0.45476758E-02  0.52863431E-02 -0.27498571E-02
  0.63785040E-02  0.50823845E-02  0.63182398E-02
 -0.14849860E-02 -0.44505281E-03  0.12632463E-02
  0.63179638E-03  0.19676167E-02 -0.57043796E-02
 -0.43538393E-03  0.37538009E-02  0.25926986E-02
 -0.22133326E-02  0.69472140E-03 -0.18452696E-02
  0.46962655E-02 -0.43925268E-02 -0.42012521E-02
  0.44784468E-02  0.22551886E-02 -0.62289536E-02
  0.13332711E-02  0.34391476E-02  0.16425994E-02
  0.66459185E-02 -0.28321225E-02  0.55418435E-03
  0.29325030E-02  0.55672893E-02  0.16680173E-03
  0.13950878E-02  0.22662716E-02  0.32563132E-02
 -0.49813495E-02 -0.14519278E-02 -0.47565918E-02
  0.68935367E-03 -0.27709689E-02  0.25801842E-02
  0.28819278E-02 -0.16897285E-02 -0.53633846E-02
  0.21582825E-03 -0.65616239E-02 -0.47717788E-03
  0.27003886E-02  0.20027766E-02  0.10852759E-02
 
           1
   2.00000000000000     
  0.10678180E+01 -0.41543491E-02  0.00000000E+00  0.00000000E+00
  0.27600843E-01  0.59291077E-02  0.11353203E+00
  0.48411096E+00  0.51761279E+00  0.62778803E+00
  0.21343826E+00  0.47557670E+00  0.87181534E+00
  0.15570394E-01  0.97488350E+00  0.35102008E+00
  0.73385037E+00  0.98976725E+00  0.86945840E+00
  0.97906807E+00  0.44089689E+00  0.45667239E+00
  0.94772383E+00  0.50231704E+00  0.14286120E+00
  0.23579206E+00  0.24904215E+00  0.11702096E+00
  0.67220103E+00  0.25425226E-01  0.62754781E+00
  0.72771619E+00  0.24790873E+00  0.74094120E+00
  0.74670295E+00  0.74114541E+00  0.37732099E+00
  0.26505691E+00  0.21599135E+00  0.87593363E+00
  0.75624441E+00  0.24018543E+00  0.14855880E+00
  0.26937742E+00  0.75143319E+00  0.62657462E+00
  0.98914322E+00  0.91050661E+00  0.86510136E+00
  0.45730358E+00  0.48171508E+00  0.37200800E+00
  0.83907862E-02  0.21248608E-03  0.61792218E+00
  0.98206414E+00  0.48075794E+00  0.61025265E+00
  0.51495759E+00  0.98286090E+00  0.13112300E+00
  0.94353050E+00  0.45843132E+00  0.88867811E+00
  0.44726901E+00  0.99674634E+00  0.38146557E+00
  0.24646383E+00  0.12841447E+00  0.38844074E+00
  0.73088464E+00  0.57012987E+00  0.86808558E+00
  0.72929608E+00  0.39453386E+00  0.62471039E+00
  0.28753035E+00  0.75468869E+00  0.12827114E+00
  0.22159546E+00  0.25534399E+00  0.61921902E+00
  0.73999271E+00  0.73339258E+00  0.12349368E+00
  0.74088380E+00  0.26396673E+00  0.36429574E+00
  0.50751625E+00  0.76129384E+00  0.51063879E+00
  0.51587800E+00  0.24005201E+00  0.99976321E+00
  0.12959861E-01  0.97097558E+00  0.50085052E+00
  0.51044695E+00  0.76101938E+00  0.74873404E+00
  0.11546976E-01  0.76267502E+00  0.25443049E+00
  0.45243153E+00  0.25959617E+00  0.74275330E+00
  0.98049447E+00  0.48697558E-01  0.98305402E+00
  0.52552401E+00  0.23889036E+00  0.50291804E+00
  0.49462087E+00  0.75393991E+00  0.99955661E+00
  0.87885994E+00  0.25711280E+00  0.26726176E+00
  0.26699967E-01  0.71249912E+00  0.74511395E+00
  0.50021116E+00  0.75947931E+00  0.24429112E+00
  0.14926931E-01  0.98709896E+00  0.23497345E+00
  0.52206904E+00  0.50858579E+00  0.76677857E+00
  0.49315439E+00  0.21917919E-01  0.85954446E+00
  0.96535735E+00  0.51567243E+00  0.25471356E+00
  0.18480963E+00  0.21950758E+00  0.97984056E+00
  0.72151937E+00  0.71754314E+00  0.49824451E+00
  0.22011833E+00  0.75501706E+00  0.51337951E+00
  0.78250567E+00  0.26094942E+00  0.99875250E+00
  0.97902728E+00  0.95653861E+00  0.73331184E+00
  0.45559186E+00  0.47146512E+00  0.23125993E+00
  0.43439006E-01  0.46291605E+00  0.75488508E+00
  0.53843244E+00  0.99343970E+00  0.26394887E+00
  0.26514415E+00  0.25935729E+00  0.51058831E+00
  0.74085467E+00  0.74410148E+00  0.97206822E+00
  0.76689888E+00  0.22363162E+00  0.48947908E+00
  0.23065348E+00  0.71698881E+00  0.10811999E-01
  0.12300876E-01  0.50658150E+00  0.20366910E-01
  0.47365007E+00  0.48217055E+00  0.48919352E+00
  0.52374994E+00  0.46991531E+00  0.20608766E-01
  0.99094818E+00  0.19851427E+00  0.50146044E+00
  0.49350649E+00  0.45079951E-02  0.76450266E-02
  0.96304869E+00  0.72326710E+00  0.48005602E+00
  0.91606896E-02  0.76166583E+00  0.99617783E+00
  0.49163124E+00  0.17900260E-01  0.52663892E+00
  0.47700783E+00  0.25622449E+00  0.26021305E+00
  0.73931047E+00  0.70730407E+00  0.76213864E+00
  0.24894229E+00  0.73135472E+00  0.25358123E+00
  0.96169751E+00  0.20394662E+00  0.73845064E+00
  0.74155460E+00  0.74358294E+00  0.23929289E+00
  0.20514136E+00  0.26396297E+00  0.76840501E+00
  0.21498877E+00  0.23344699E+00  0.26670655E+00
  0.28228986E+00  0.75832756E+00  0.76436699E+00
  0.26173502E+00  0.47175160E+00  0.12127916E+00
  0.47681244E+00  0.99508282E+00  0.74369536E+00
  0.73966862E+00  0.23967077E+00  0.88278322E+00
  0.18628160E+00  0.48072634E+00  0.36794993E+00
  0.24534852E+00  0.70963360E+00  0.88346889E+00
  0.76703164E+00  0.34976650E-02  0.37101197E+00
  0.74279240E+00  0.99360130E+00  0.12228634E+00
  0.25804358E+00  0.50245564E+00  0.62048198E+00
  0.48025871E+00  0.49460622E+00  0.89391242E+00
  0.23631852E+00  0.77738166E+00  0.38358642E+00
  0.77107637E+00  0.68520131E+00  0.64152941E+00
  0.24854789E+00  0.98513528E+00  0.11180493E+00
  0.24301772E+00  0.99407497E+00  0.62213784E+00
  0.68330459E+00  0.48905118E+00  0.12785745E+00
  0.25385845E+00  0.98349662E+00  0.86988300E+00
  0.70245626E+00  0.49470903E+00  0.38505584E+00
  0.27255036E+00  0.98955230E+00  0.24718470E+00
  0.77428928E+00  0.47557429E+00  0.75090341E+00
  0.24872418E+00  0.13103257E-02  0.74076369E+00
  0.70511933E+00  0.50718244E+00  0.25825041E+00
  0.25813857E+00  0.96957382E+00  0.98901983E+00
  0.75748388E+00  0.46878518E+00  0.50365498E+00
  0.26082020E+00  0.11712619E-01  0.49525128E+00
  0.73947664E+00  0.52092355E+00  0.27964667E-02
  0.72862486E+00  0.97921988E+00  0.74703629E+00
  0.21542532E+00  0.50282368E+00  0.23953806E+00
  0.26948142E+00  0.50620158E+00  0.75723825E+00
  0.75708234E+00  0.88298805E-02  0.24863068E+00
  0.23973741E+00  0.51928774E+00  0.49773550E+00
  0.74748750E+00  0.89146851E-02  0.99752391E+00
  0.74603023E+00  0.98767015E+00  0.49586164E+00
  0.25299672E+00  0.45973410E+00  0.99663138E+00
  0.99489147E+00  0.24403724E+00  0.37536725E+00
  0.50262955E+00  0.74404337E+00  0.87682432E+00
  0.51057572E+00  0.23380592E+00  0.62727833E+00
  0.82804582E-02  0.74810493E+00  0.12659941E+00
  0.98666041E+00  0.19931830E+00  0.87725208E+00
  0.48230569E+00  0.75372961E+00  0.37986936E+00
  0.65824226E-02  0.72944395E+00  0.61499723E+00
  0.49208899E+00  0.23913898E+00  0.12580722E+00
  0.17010999E+00  0.36043258E+00  0.49476167E-01
  0.65864395E+00  0.89473699E+00  0.54910814E+00
  0.63850314E+00  0.10175175E+00  0.94963552E+00
  0.14839469E+00  0.61091104E+00  0.44674592E+00
  0.36131009E+00  0.36859512E+00  0.95413820E+00
  0.84138829E+00  0.88322468E+00  0.44381444E+00
  0.83648832E+00  0.11292791E+00  0.48452518E-01
  0.34842420E+00  0.60610579E+00  0.55222041E+00
  0.86848445E+00  0.88993993E-01  0.19172748E+00
  0.37352030E+00  0.60639621E+00  0.70969114E+00
  0.84538800E+00  0.90381203E+00  0.29679046E+00
  0.36478243E+00  0.39399352E+00  0.80453596E+00
  0.12626624E+00  0.60245985E+00  0.29002489E+00
  0.64003255E+00  0.10245073E+00  0.79269047E+00
  0.12498899E+00  0.39856793E+00  0.19598778E+00
  0.63191658E+00  0.88408015E+00  0.69733597E+00
  0.86113424E+00  0.57821106E+00  0.95507528E+00
  0.38116502E+00  0.11431912E+00  0.46769625E+00
  0.86046764E+00  0.37021996E+00  0.54223600E+00
  0.35341510E+00  0.88428435E+00  0.46489429E-01
  0.14672846E+00  0.10029754E+00  0.55401176E+00
  0.63621119E+00  0.63392898E+00  0.39742848E-01
  0.16808123E+00  0.86087304E+00  0.94339348E+00
  0.65415558E+00  0.36766705E+00  0.45119781E+00