Na88 Sn16 P8 S96                        
   1.00000000000000     
    13.4813327813000008    0.0000000000000000    0.0000000000000000
     0.0000000000000000   13.4813327813000008    0.0000000000000000
     0.0000000000000000    0.0000000000000000   26.9626655626000016
   Na   Sn   P    S 
    88    16     8    96
Direct
  0.0190040208342038  0.0051385119438982  0.1298078737960846
  0.2978082175945717  0.4620232205183742  0.6077539983318759
  0.5222872154375930  0.4886435806765644  0.8689555734760265
  0.0045762174500704  0.9939589389808012  0.3712823589612828
  0.0013143050990353  0.0066300503780626  0.8795943767998290
  0.7204524812663601  0.4699386827477684  0.3666381980087830
  0.9721546238629322  0.5161561978296365  0.2265960579715593
  0.2932417193015298  0.0233916370814726  0.1161519801535319
  0.7359662336236127  0.0006018602273706  0.6104589507749748
  0.7693624034459217  0.2437520013793164  0.7469952881117122
  0.7805913453927634  0.7054257914696267  0.5099231549682334
  0.2506519549399960  0.4592036417198219  0.8588074520163764
  0.7669506025240277  0.2500278886232674  0.1206599168153733
  0.2652400824124821  0.7024237106120994  0.6279034117655663
  0.9996179174399825  0.9935703236262089  0.7549922198698783
  0.2498686218925861  0.5506489559692196  0.3742769351842385
  0.0129332016766056  0.9782361255219716  0.6053879909139595
  0.0614651718727413  0.4600737691235126  0.6262262622649493
  0.5117264347430953  0.0426098396943233  0.2393614374790231
  0.0176845064731889  0.5083128213900442  0.8822072836190561
  0.5062323842380938  0.9882179014053130  0.3545197320776988
  0.2327515687046633  0.2841604226534373  0.3649366279300194
  0.7334059025502673  0.7749201094806329  0.9749796960735396
  0.7554604334692644  0.4843473654051845  0.6250359261081744
  0.2382761005313158  0.6908004341612579  0.9989248190803559
  0.2501852913023473  0.2329455058022358  0.7630409285747600
  0.7814913930876207  0.5283328790262984  0.1149073542197772
  0.7461407076052879  0.9831718903461873  0.3801344080838522
  0.5056558655073013  0.7307118705719814  0.4963964115642999
  0.5156654466624288  0.2205654934436615  0.0036590774643448
  0.9985737811483845  0.5017642191033592  0.3839410881951711
  0.5040615764809575  0.9723478607605628  0.7645840908277299
  0.9038675624190490  0.2435144492708346  0.2513684572999011
  0.5326613879608441  0.5186048684625393  0.7439671367508518
  0.0039258371136436  0.9897303110264623  0.0100182044503720
  0.5009672345263106  0.4521283901168447  0.5055372743828334
  0.5093498851462929  0.8428482517149948  0.9897762908413779
  0.2490792147077061  0.2730225770846960  0.1262973868656650
  0.0545506286151516  0.7410693407719218  0.7525368751772956
  0.7819223805045419  0.7384290809845633  0.2476421781693661
  0.0357937114625236  0.0143473265823982  0.2505401588081889
  0.3571636951873974  0.7267700612113037  0.7643146213828780
  0.4973478342188549  0.0267461790235702  0.8897597783683546
  0.6114761879268428  0.2656516087630418  0.2395763354588018
  0.0351165856482286  0.2113547846672534  0.0118469541407821
  0.9970434911532224  0.7466713566859536  0.4777143364224335
  0.9953166339060917  0.5073682591656892  0.5033191666894224
  0.7491052513129588  0.2736512036740061  0.9943614929990479
  0.0119052638129781  0.2391621981041990  0.7420823302469376
  0.4626112579014947  0.4908022216525226  0.2552349012706103
  0.0737059043494259  0.4806661389255998  0.7508295477217998
  0.5138187946675937  0.7785729989023626  0.2389947692160749
  0.5111025581106402  0.2335351093094140  0.4896876520864429
  0.6946007722746419  0.7624536531381486  0.1131299245010116
  0.7814976914865363  0.2143872956335486  0.4907803554872464
  0.9808274322844596  0.7807877840591262  0.9932470134953666
  0.0258760253381545  0.5077684389442879  0.0102748023411830
  0.5367588012023176  0.5233564557759912  0.6286139796568102
  0.5045175271669584  0.5020808924217157  0.9971177316933960
  0.0037807093444355  0.0658345772258021  0.4763384992076711
  0.5105851839436581  0.9689750535222456  0.1060023798408552
  0.2265952252818780  0.2457859360828895  0.4906488824757215
  0.7581926973554254  0.5440618015623070  0.8613195362574640
  0.4981832877786965  0.0137143265100218  0.4980357417113392
  0.1935735289988663  0.2599008303769367  0.2608453809927579
  0.6923281056386391  0.7611051604657652  0.7670525330567720
  0.2548752262701415  0.7450935838202984  0.2526054259864751
  0.7650812379740006  0.2537036283849317  0.6187566374548131
  0.0073501470489313  0.7444278811803783  0.2669265297904399
  0.5164935853635558  0.2149807891269363  0.7499412438894212
  0.7254634906620415  0.2379182777771242  0.3601253253454538
  0.2374989444359734  0.7467040306687772  0.8677201856161544
  0.1789401552074424  0.4993630701451566  0.1300876154773661
  0.4873806738962048  0.9817829401660146  0.6321978837530167
  0.7763657970498976  0.2763442863222254  0.8683344141494200
  0.2428868099399248  0.7374097452439442  0.5093843057800463
  0.2621863655935667  0.9970598416639270  0.8757001391719708
  0.7584123061342511  0.7353916213587760  0.3843633201509241
  0.7726023899159877  0.9710055396400397  0.1241145818205028
  0.2167909225926521  0.9640224551515258  0.6201647240170313
  0.7336662264649589  0.9850839031465806  0.8652097186279576
  0.2721965832819453  0.9434925048819515  0.3803564971830237
  0.7464222385946638  0.7569689892726967  0.6319173963867161
  0.2643565164154645  0.7446401809144212  0.1225776966206513
  0.2308825631782055  0.2284793786454573  0.6195871390686761
  0.4924439411567481  0.4980944980127533  0.1189827675051392
  0.2547242428717901  0.2033612401989419  0.9894405043149955
  0.4594794912495446  0.4811670811014276  0.3719496722449490
  0.2707294357151067  0.0044580404311697  0.2517383682369032
  0.8071251273434680  0.4870362824959465  0.7390047714279034
  0.2432682453445682  0.9864067418421928  0.7506107988002364
  0.7008370526901960  0.4874284070611604  0.2541381582158375
  0.2547446332029118  0.9660328297499600  0.9995912235841715
  0.7235272202153322  0.4470737808171011  0.4965248358569030
  0.2511398829719311  0.9931791377095346  0.5064391816167922
  0.7701460223497266  0.5141672887560271  0.9965515979483366
  0.7397177076432631  0.0047330739892187  0.7336294679531468
  0.2081136473491309  0.5024391903083659  0.2506931377870463
  0.2961702884235220  0.4729924817468674  0.7432007593387362
  0.7618601620760393  0.9948586934925829  0.2487811583205174
  0.2526174989083042  0.5071911160737688  0.4920958632123519
  0.7513075295796162  0.0279649788253873  0.9999830061466833
  0.7697838602356241  0.9819006952339393  0.4994182132803821
  0.2721821642647298  0.4529121142628482  0.9962942078395951
  0.9759909792056408  0.2594910881416297  0.3749323119554718
  0.4966387478353143  0.7530101832061868  0.8714547168968129
  0.5135987498029311  0.2357783254926454  0.6197067378560343
  0.9918436489147003  0.7484083958702590  0.1305372184188184
  0.0293752817506506  0.2416942335748892  0.8732693934640386
  0.5028617718819911  0.7367222661326889  0.3701789505336616
  0.0119153780929250  0.7159826046083008  0.6245708412556653
  0.5253035826099769  0.2443150557267008  0.1215791623057420
  0.1518331563295452  0.3663457884229043  0.0447837582224014
  0.6594344256446023  0.8742123103918927  0.5415463793582788
  0.6522416066164441  0.1241926592865418  0.9435617645788204
  0.1305973814883805  0.6078721537483968  0.4501764102812212
  0.3963858676101182  0.3706343434175905  0.9460958528845888
  0.8554843713087151  0.8607168814059970  0.4483653515236693
  0.8729489754626600  0.1234706355208413  0.0547178216721805
  0.3532671570362341  0.6039860177392258  0.5543130439338688
  0.8771566561861358  0.0859036664229556  0.1937851674877439
  0.3810968365799148  0.5926706691268089  0.6914687883931873
  0.8782497284126370  0.8840400371895567  0.2913350801627952
  0.3961838871039809  0.3851108688210369  0.7973142455212205
  0.1033289033420201  0.5926082415270830  0.3082391224173460
  0.6469098571163389  0.1106718027434219  0.7968053497348635
  0.1169703201986275  0.3924739612184620  0.1982648362711764
  0.6300479124855989  0.9031729533362145  0.6852834086831919
  0.8712438563216109  0.6209371518238775  0.9431248445344008
  0.3511987083915958  0.0986958055175258  0.4510166311479568
  0.8514362166775040  0.3602672755812032  0.5446593127494889
  0.3511230797039175  0.8587371107068490  0.0595318207894554
  0.1478957996284552  0.0969046996896249  0.5563451962725471
  0.6514851864109356  0.6243042257702653  0.0317483763039116
  0.1446542948530374  0.8792102463191769  0.9464756986815871
  0.6375533990295598  0.3407244424550919  0.4365125851363829
  0.5921008232219125  0.3895640614953942  0.3059376682536229
  0.1400010805328014  0.8968132999401346  0.8077684138067940
  0.1411892251354720  0.0807130273419002  0.6957056137051728
  0.6149107664024219  0.6051531827499013  0.2042940663692359
  0.8738871008716310  0.3774838554023689  0.6829995225317085
  0.3794005493465306  0.8989201795752230  0.2033442837485149
  0.3529924749820894  0.1318941172492356  0.3056520574204430
  0.9158977141503998  0.5674444164180303  0.7959703461043561
  0.1585701620851177  0.0760911429061682  0.0559303081954507
  0.6365068171987105  0.5686491107720431  0.5457211281062717
  0.6608582660950586  0.4248975839369903  0.9422443569946053
  0.1467538066701448  0.9078584218202298  0.4555622367185825
  0.3704748237586414  0.0662946775989698  0.9550213844006323
  0.8330498794201182  0.5610482806456759  0.4459965320162005
  0.8619534272835673  0.4114446811094819  0.0461962707006968
  0.3580859306995672  0.8878299694394991  0.5487773349197403
  0.1623481571617786  0.1021899784186659  0.1983981953785822
  0.6804370125596529  0.6109732166617871  0.7001500823644029
  0.1580158845791025  0.9058463535226504  0.3080335019009469
  0.6946731358427244  0.4065734171502021  0.7949399722869303
  0.8418609253749031  0.5805470453008695  0.3010552305742321
  0.3586074707888456  0.0843091816230467  0.7991527738275510
  0.7764475884446872  0.3618894955439091  0.2038612632299248
  0.3509698281256798  0.8883043558081014  0.6973105023578691
  0.8532450751224123  0.9364410173828702  0.9449124396418722
  0.3431624959165611  0.3949737811053238  0.4442374202509048
  0.8699204320203612  0.0793178290978942  0.5529802417003700
  0.3408685635935608  0.5687469646606488  0.0499277097576110
  0.1583388484628445  0.3880981072812472  0.5482366891626396
  0.6715087701061124  0.9117303840201622  0.0504294184854026
  0.1600347822528678  0.5493127934025420  0.9398190271265878
  0.6549297525018827  0.0737043995395987  0.4423084459023875
  0.3205711855801287  0.4024606370765621  0.2985614145286649
  0.8334410536555440  0.8961332703360827  0.7836611105064636
  0.8541308163404837  0.0957169096968608  0.6856030958139105
  0.3118582977562237  0.6040178088457018  0.1955115646531332
  0.1884011969341981  0.3670872156401632  0.6945457668460570
  0.6494506291166209  0.8888221658512576  0.1977412975376714
  0.6579778817518460  0.0948643288269319  0.2989425644671135
  0.2102669488830683  0.6047359151644270  0.7856684555304476
  0.0583229514019684  0.1797806041564410  0.3180628182460042
  0.5525036737717263  0.6532370205886674  0.8197369899745248
  0.5966426965200363  0.3350134187126290  0.6653974579022902
  0.0777896382458411  0.8349755669679823  0.1835499728537467
  0.4114802059353845  0.1505336532254280  0.6613456345803067
  0.8750717589656090  0.6750855306427779  0.1649223602707087
  0.8892407288345928  0.3642945296776689  0.3398247598921587
  0.4074952853241036  0.8560807584742356  0.8385425034516657
  0.1271928744291973  0.1463207406839132  0.9055005963076486
  0.5568878931067673  0.6338622872405126  0.4183896468067381
  0.1079926683834091  0.7913410649069949  0.5825502260627178
  0.5998349880167221  0.3380553498329560  0.0749255143068513
  0.9315395413024686  0.6133006146134247  0.5817398093120402
  0.4139001028291535  0.1629937844030307  0.0852389527420650
  0.9689955372986085  0.3319844506985374  0.9250317689014688
  0.4194756971701528  0.8249879907486065  0.4161246623502804
  0.9216018113117882  0.8086189100145277  0.6635993220030659
  0.4616692425470136  0.3400075977597182  0.1722655071364372
  0.9304587927779961  0.1639044700168513  0.8299182507790487
  0.4158489368117765  0.6515553820212708  0.3267566480118170
  0.1047515832982183  0.3374871200461854  0.8261391845574443
  0.6061569153694589  0.8238566066651127  0.3382399363867355
  0.0908139110595717  0.6303580213853465  0.6723459803504206
  0.6228643466896829  0.1410894560453657  0.1530542848841141
  0.4241290113750293  0.3226957210187832  0.5738584175331936
  0.9132640847560204  0.8435827556434332  0.0828625613794621
  0.8836264702525771  0.1458006592596942  0.4069117800341988
  0.4288014988035189  0.6702469689495081  0.9238259278931172
  0.0626435760694795  0.3260209646202491  0.4262780906626656
  0.6008360137199430  0.8356497562742052  0.9054235959567528
  0.5826120974939809  0.1448739790697721  0.5706679621220574
  0.0785589484536360  0.6670733205002968  0.0839400152628958
 
  0.59912037E-02 -0.12963558E-01  0.49389678E-02
  0.12554381E-02 -0.23239094E-02 -0.12464897E-02
 -0.53732549E-02  0.64495805E-02  0.69894812E-03
  0.78258320E-03 -0.30160681E-02  0.65665800E-02
 -0.71963983E-02 -0.54057248E-02 -0.23943719E-02
 -0.43983206E-03 -0.54042341E-02 -0.12651206E-01
  0.67126416E-02  0.16238385E-01  0.62959918E-02
  0.56727229E-02 -0.13598700E-02 -0.37473877E-02
 -0.56892244E-02 -0.51363987E-03  0.30698287E-04
  0.44055081E-03  0.24322276E-02  0.51769837E-02
 -0.38622750E-02 -0.84602880E-02  0.34969349E-02
 -0.71985401E-03 -0.44221707E-02  0.91984719E-02
  0.78930046E-02 -0.15477259E-02  0.38845227E-02
 -0.22986979E-02  0.29247847E-02  0.78588567E-03
 -0.13967212E-03 -0.44749413E-02  0.21239873E-02
 -0.69454889E-02  0.73585737E-02  0.28777283E-02
 -0.33761622E-02  0.69678141E-02 -0.44105641E-02
 -0.95132095E-02 -0.39480495E-03 -0.25207267E-02
  0.52740806E-02 -0.27735898E-02 -0.37782487E-02
 -0.99651470E-02 -0.23192429E-02  0.94021451E-02
  0.21156374E-02 -0.14077977E-02 -0.57530110E-03
  0.61859051E-02  0.21400912E-02  0.57804353E-03
 -0.75971445E-02  0.63119975E-02  0.82501530E-03
 -0.20872760E-02 -0.19810400E-02  0.30658466E-02
  0.73894243E-02  0.28860398E-02 -0.13673854E-02
  0.29955475E-02  0.41901160E-02  0.25809572E-02
 -0.62983768E-02  0.56074383E-02  0.68391836E-02
  0.27151924E-02 -0.96720643E-03 -0.58717386E-02
 -0.72167109E-02  0.41400376E-02 -0.54441817E-02
  0.27875054E-02 -0.20876088E-02 -0.57367196E-02
 -0.57630921E-02 -0.13619328E-02  0.22959228E-02
 -0.54841875E-02  0.71947291E-03 -0.10420673E-01
 -0.31905120E-02 -0.17698478E-02 -0.15377196E-02
  0.36522495E-02  0.24857225E-02  0.45134633E-02
 -0.77422823E-02 -0.62190177E-03  0.35226268E-02
  0.71411817E-02 -0.83758170E-03  0.41452870E-02
 -0.66751893E-02 -0.30809905E-02  0.66551990E-02
 -0.13551991E-02 -0.43254723E-02 -0.29986157E-02
  0.89834636E-02 -0.60906229E-02  0.23010306E-02
 -0.78392728E-02 -0.14703690E-02 -0.69138537E-02
 -0.61408971E-02 -0.51153341E-02  0.21015748E-02
  0.53292674E-02 -0.12958184E-02  0.35726941E-02
 -0.10191517E-02  0.11191123E-02  0.32695808E-02
 -0.78691375E-03 -0.67713152E-02 -0.17759581E-02
 -0.17098153E-02  0.10569844E-03 -0.37259921E-02
  0.29119209E-02 -0.84651409E-02  0.33401032E-02
  0.34203763E-02 -0.59523729E-02 -0.20636839E-02
 -0.12893481E-02 -0.80342824E-03 -0.46222483E-02
 -0.14228057E-02  0.39176652E-04 -0.16927314E-02
  0.22523047E-03 -0.18150713E-02  0.21159194E-02
 -0.11355983E-02 -0.66788663E-02 -0.34233514E-03
 -0.28524751E-02 -0.21989749E-02 -0.20565178E-02
  0.90326527E-02 -0.41182928E-02 -0.57085779E-02
 -0.13070790E-01  0.34582321E-02  0.30762830E-02
 -0.24588253E-02  0.20788810E-02 -0.31274021E-02
  0.34423616E-02 -0.21261097E-02  0.48112787E-02
  0.84449085E-02  0.10531409E-01  0.36535112E-03
 -0.73631231E-02 -0.39528934E-02 -0.94950222E-02
 -0.10017492E-02 -0.32603716E-02  0.15820814E-02
  0.27076847E-02  0.51586438E-02 -0.76283680E-02
 -0.29293386E-02 -0.94039576E-02 -0.26793869E-02
  0.64778406E-02  0.37234004E-02  0.26726803E-02
 -0.75283512E-03 -0.31879649E-02 -0.92091207E-03
 -0.68374845E-02 -0.43250036E-02  0.40533756E-03
 -0.23580738E-02  0.42116884E-02  0.53656509E-02
 -0.94783426E-02 -0.75737745E-02  0.33497110E-02
  0.14467586E-02  0.64659789E-02  0.56671139E-02
  0.15873306E-02 -0.17531105E-02 -0.62279423E-02
 -0.21721924E-02  0.11411409E-02  0.64064789E-02
  0.31971711E-02 -0.22172311E-02 -0.22712675E-02
  0.36367639E-02 -0.46844850E-02 -0.22190109E-02
 -0.17956318E-02  0.65174753E-02  0.21782945E-02
 -0.22484196E-02  0.23048536E-02  0.62732480E-02
 -0.20704383E-02  0.20026049E-02  0.56633397E-02
 -0.30734845E-02  0.79302331E-02 -0.83053212E-02
 -0.32055388E-02 -0.36884110E-02  0.40878214E-02
 -0.68426966E-03 -0.46185112E-03 -0.74102310E-02
 -0.14439590E-03 -0.35175845E-02 -0.39322579E-02
 -0.30104072E-02  0.96207695E-02 -0.37325012E-02
 -0.64237693E-02  0.24168755E-02 -0.37502734E-02
 -0.40243765E-02 -0.89491997E-02  0.59274038E-02
  0.30844286E-02 -0.15100741E-03  0.28756237E-02
  0.66672612E-02 -0.23678508E-02  0.55268142E-02
  0.51672465E-02 -0.16384580E-02  0.23699053E-02
 -0.12278159E-02  0.12450261E-02  0.18246342E-02
 -0.33221106E-02 -0.13414299E-02  0.81934026E-02
 -0.64451361E-03 -0.89479044E-02 -0.47685666E-02
 -0.58533794E-02 -0.97124717E-03  0.30234873E-02
  0.17889694E-02  0.33579849E-02 -0.81111729E-03
 -0.23219671E-02 -0.31243142E-03 -0.76739382E-03
  0.84152527E-03 -0.27149041E-02  0.22329597E-03
  0.13261730E-02 -0.53764561E-03 -0.27333500E-04
 -0.93137773E-03  0.47110907E-03  0.12977006E-02
  0.25402073E-02  0.62549401E-03 -0.11203832E-02
  0.31272775E-03  0.17592008E-02 -0.10663887E-02
 -0.20850909E-03 -0.12719268E-02  0.16275126E-02
 -0.37277284E-03 -0.93046259E-03 -0.37012646E-03
 -0.29526313E-03 -0.62269358E-03 -0.10912669E-02
 -0.35892142E-03 -0.27621862E-02 -0.52322610E-03
  0.23912570E-02  0.18064906E-02 -0.11006690E-02
  0.15987467E-02 -0.42169940E-02  0.31351338E-02
 -0.11968935E-03  0.11764226E-02  0.12495052E-02
 -0.10193428E-02  0.17487941E-02 -0.36592062E-02
  0.16032527E-02  0.19900573E-03  0.29315680E-03
  0.39525385E-02 -0.38692596E-02 -0.30687784E-02
 -0.19893062E-02  0.37648858E-03  0.24615586E-02
  0.52361836E-02 -0.17169274E-02  0.18262499E-02
  0.46000027E-02  0.43600013E-03 -0.89476626E-02
 -0.82641271E-03  0.66645659E-02  0.21991893E-02
  0.27525853E-02 -0.11300334E-02 -0.16346918E-02
  0.52609335E-02  0.22278009E-02 -0.49308876E-02
 -0.33265519E-02  0.80717357E-03 -0.27604645E-02
 -0.34946790E-02  0.61978416E-02 -0.31813111E-03
 -0.59040254E-02  0.22485052E-02  0.64135917E-03
 -0.29581407E-02 -0.74738592E-03  0.10611334E-02
  0.58483490E-02  0.35326804E-02  0.74334085E-02
  0.38848108E-02  0.41408003E-02  0.90552567E-04
 -0.28354901E-02  0.75320199E-02 -0.25497644E-02
 -0.24127874E-03 -0.13694970E-02 -0.11964028E-02
  0.29244901E-02 -0.31708054E-02  0.70162426E-03
 -0.61930691E-02 -0.14434874E-02 -0.17831249E-02
  0.18955939E-02 -0.20417556E-02  0.60577857E-02
  0.13415002E-02  0.46908982E-02 -0.43620332E-03
 -0.16717206E-02 -0.20046428E-02  0.70065666E-03
  0.25961750E-02 -0.14352090E-02 -0.52896096E-02
  0.49279153E-02  0.35100335E-02 -0.14047530E-02
 -0.75952818E-02  0.33952342E-02  0.45763964E-02
  0.17965073E-02  0.74888705E-02 -0.95096110E-03
  0.60169381E-03  0.69919388E-02 -0.12410217E-02
 -0.42789420E-02 -0.64994743E-02 -0.42330160E-02
  0.31061978E-02 -0.58226244E-02  0.74150276E-02
 -0.62801363E-03 -0.25687630E-02 -0.11344738E-02
  0.27816484E-02  0.11416578E-02  0.34708398E-02
  0.36460572E-02  0.91487195E-03 -0.20144074E-02
 -0.52789652E-02  0.51687647E-02 -0.37488018E-02
 -0.39696885E-02  0.79861998E-03  0.29147514E-02
  0.30288058E-02  0.21086261E-02 -0.71364386E-02
  0.26963390E-02  0.36556860E-02  0.48053267E-03
 -0.15875377E-03 -0.30596924E-02 -0.22365850E-02
 -0.13369605E-02  0.60777419E-02 -0.18794603E-02
  0.17755067E-02  0.33434135E-02 -0.27150268E-02
  0.87209279E-02  0.24629297E-02  0.24624540E-02
  0.64033845E-02  0.61538299E-02 -0.16120369E-02
  0.72510718E-02  0.48049281E-02  0.69694841E-02
  0.35241682E-03  0.45384281E-02  0.57455976E-05
  0.23365101E-02 -0.11661817E-02 -0.11881835E-02
 -0.71219770E-03 -0.19497323E-02  0.49577943E-05
 -0.54858803E-02 -0.30216179E-02  0.75078881E-02
 -0.49483512E-02  0.16329609E-03 -0.27156407E-02
  0.47588034E-02 -0.20818261E-02  0.23118194E-02
  0.37911329E-03 -0.15108729E-02  0.79116028E-03
 -0.44148173E-02 -0.24732225E-02 -0.30295576E-02
 -0.79045715E-03 -0.46848113E-02 -0.20708137E-02
  0.71550476E-02  0.63043260E-02  0.80107379E-03
  0.14542348E-02 -0.23677439E-02 -0.10008937E-02
  0.17060574E-02  0.11676642E-02 -0.14348618E-02
  0.10377639E-03  0.73799774E-02 -0.15060359E-02
  0.56447527E-02  0.28275034E-02 -0.95522922E-03
 -0.27625478E-02  0.29139645E-02 -0.86098454E-03
 -0.10049654E-01 -0.40472539E-03  0.37777904E-02
 -0.48120601E-02  0.45628314E-03 -0.11047987E-02
 -0.65581366E-03  0.61778970E-03  0.23079834E-02
 -0.37712157E-02  0.12145616E-02 -0.59530251E-02
  0.15979753E-02 -0.10975500E-02 -0.64166303E-03
  0.13247285E-02  0.76059028E-03  0.54202599E-03
 -0.14255094E-02 -0.45659438E-02  0.32020019E-02
  0.18254119E-02  0.18777851E-02 -0.22776764E-03
  0.41241642E-02 -0.16574621E-02  0.50220430E-02
 -0.56704362E-03  0.24029453E-02 -0.11886305E-02
  0.19636969E-03 -0.40093328E-02  0.14359484E-02
  0.32487053E-02  0.36773313E-02 -0.43156021E-02
 -0.54714999E-02  0.61978994E-02 -0.18993263E-02
 -0.26604570E-02 -0.70372855E-02  0.12863239E-02
 -0.94703288E-03 -0.21197651E-02 -0.22712540E-02
 -0.14748777E-02  0.18481404E-02 -0.33846458E-02
 -0.45945670E-02 -0.88356506E-02 -0.34793440E-02
  0.87955213E-03  0.34849241E-02 -0.29030944E-03
 -0.21791033E-02  0.52859530E-02 -0.16708398E-02
  0.32111614E-02 -0.39379163E-02  0.57638927E-02
  0.15519266E-02  0.15736314E-02 -0.52554095E-02
 -0.46615084E-02 -0.30505117E-03  0.63588850E-02
 -0.67083325E-02 -0.79536482E-02 -0.45472410E-02
 -0.23540231E-02 -0.21366721E-02 -0.64430324E-02
 -0.18102296E-02  0.31501194E-02  0.53939487E-02
  0.19131734E-02 -0.25008313E-02 -0.63081846E-02
  0.41101246E-02 -0.79467351E-02 -0.39750102E-02
  0.35311012E-02  0.33222013E-02 -0.22000268E-02
  0.69399432E-02  0.65743562E-02 -0.18170240E-02
 -0.98361768E-04  0.71037184E-02  0.19669544E-02
 -0.23203524E-03  0.19286817E-02 -0.15146108E-02
  0.16720828E-02 -0.56916538E-02 -0.24087343E-02
 -0.18421151E-02  0.56358468E-03  0.18479722E-02
 -0.35174135E-02  0.64601124E-03  0.63512227E-02
  0.15874988E-02  0.35574100E-02  0.20998548E-02
  0.86450232E-03  0.12143444E-02 -0.39901172E-02
  0.59602918E-02 -0.38779765E-02  0.14934794E-02
  0.14662082E-02 -0.55349117E-02 -0.44348991E-02
  0.31377365E-02  0.49684864E-04  0.12191056E-02
 -0.24772698E-02  0.23866008E-02  0.47020239E-02
  0.30905630E-02 -0.10312605E-03 -0.30766219E-02
 -0.25206736E-02  0.23145187E-02  0.21733582E-02
  0.68486554E-02 -0.46745922E-02 -0.17521062E-02
  0.14513554E-02  0.15906871E-02  0.10296378E-02
  0.30775892E-03 -0.10776691E-01  0.49681897E-02
 -0.15374438E-02  0.27133461E-02 -0.21581281E-02
 -0.24417603E-02 -0.22259444E-02  0.85371559E-02
 -0.31153426E-02  0.48512392E-02  0.26778843E-02
  0.83783811E-03  0.85056442E-04  0.61494079E-02
 
           1
   2.00000000000000     
  0.17317941E+01 -0.21155302E-02  0.00000000E+00  0.00000000E+00
  0.19892836E-01  0.32153255E-02  0.13017423E+00
  0.29799447E+00  0.46167846E+00  0.60766154E+00
  0.52149008E+00  0.48960040E+00  0.86900742E+00
  0.46923162E-02  0.99351150E+00  0.37176945E+00
  0.24669578E-03  0.58280933E-02  0.87941677E+00
  0.72038723E+00  0.46913695E+00  0.36569977E+00
  0.97315047E+00  0.51856522E+00  0.22706307E+00
  0.29408329E+00  0.23189896E-01  0.11587401E+00
  0.73512222E+00  0.52566007E-03  0.61046123E+00
  0.76942776E+00  0.24411283E+00  0.74737930E+00
  0.78001836E+00  0.70417068E+00  0.51018255E+00
  0.25054516E+00  0.45854760E+00  0.85948976E+00
  0.76812156E+00  0.24979828E+00  0.12094806E+00
  0.26489906E+00  0.70285761E+00  0.62796171E+00
  0.99959720E+00  0.99290645E+00  0.75514977E+00
  0.24883824E+00  0.55174062E+00  0.37449040E+00
  0.12432337E-01  0.97926982E+00  0.60506083E+00
  0.60053856E-01  0.46001520E+00  0.62603928E+00
  0.51250886E+00  0.42198369E-01  0.23908118E+00
  0.16206144E-01  0.50796875E+00  0.88290470E+00
  0.50654625E+00  0.98800905E+00  0.35447706E+00
  0.23366927E+00  0.28447791E+00  0.36497951E+00
  0.73227884E+00  0.77585652E+00  0.97504089E+00
  0.75515078E+00  0.48405347E+00  0.62526334E+00
  0.23937235E+00  0.69122859E+00  0.99882339E+00
  0.25062969E+00  0.23356712E+00  0.76323238E+00
  0.78055701E+00  0.52916476E+00  0.11541466E+00
  0.74654352E+00  0.98302840E+00  0.37969886E+00
  0.50458524E+00  0.73132606E+00  0.49599258E+00
  0.51607898E+00  0.22025579E+00  0.32335469E-02
  0.99771881E+00  0.50156217E+00  0.38411139E+00
  0.50324798E+00  0.97245460E+00  0.76381112E+00
  0.90339424E+00  0.24325189E+00  0.25125439E+00
  0.53320321E+00  0.51897363E+00  0.74430193E+00
  0.27772441E-02  0.98963805E+00  0.10279501E-01
  0.50202665E+00  0.45200413E+00  0.50584476E+00
  0.50835960E+00  0.84239118E+00  0.99026995E+00
  0.24887817E+00  0.27238088E+00  0.12607496E+00
  0.55883355E-01  0.74016578E+00  0.75270756E+00
  0.78075940E+00  0.73821095E+00  0.24712933E+00
  0.34882689E-01  0.13588450E-01  0.25069605E+00
  0.35795431E+00  0.72657782E+00  0.76457963E+00
  0.49719664E+00  0.26912203E-01  0.89000230E+00
  0.61135945E+00  0.26464706E+00  0.23944460E+00
  0.34862929E-01  0.21137047E+00  0.11570573E-01
  0.99747548E+00  0.74541553E+00  0.47796209E+00
  0.99582406E+00  0.50648521E+00  0.50316609E+00
  0.74891397E+00  0.27353201E+00  0.99401863E+00
  0.11694186E-01  0.23916801E+00  0.74195677E+00
  0.46264467E+00  0.49053295E+00  0.25539185E+00
  0.73537435E-01  0.47967531E+00  0.75080415E+00
  0.51339562E+00  0.77824677E+00  0.23884222E+00
  0.51244258E+00  0.23292415E+00  0.48926421E+00
  0.69266168E+00  0.76296669E+00  0.11335811E+00
  0.78113292E+00  0.21469570E+00  0.49054838E+00
  0.98133812E+00  0.78047237E+00  0.99360390E+00
  0.27128855E-01  0.50933081E+00  0.10301903E-01
  0.53566646E+00  0.52277003E+00  0.62790967E+00
  0.50436891E+00  0.50159721E+00  0.99723509E+00
  0.41824033E-02  0.66599879E-01  0.47577265E+00
  0.51015061E+00  0.96757995E+00  0.10580363E+00
  0.22755623E+00  0.24633831E+00  0.49084713E+00
  0.75808101E+00  0.54358886E+00  0.86125123E+00
  0.49716892E+00  0.13072698E-01  0.49806581E+00
  0.19322370E+00  0.26052565E+00  0.26124339E+00
  0.69092196E+00  0.75998157E+00  0.76730100E+00
  0.25508986E+00  0.74605283E+00  0.25302579E+00
  0.76531672E+00  0.25344355E+00  0.61829467E+00
  0.70278952E-02  0.74459717E+00  0.26740174E+00
  0.51696790E+00  0.21465186E+00  0.74977277E+00
  0.72600302E+00  0.23722332E+00  0.35996073E+00
  0.23723256E+00  0.74767092E+00  0.86788176E+00
  0.17860659E+00  0.49970500E+00  0.13055294E+00
  0.48707352E+00  0.98208003E+00  0.63261797E+00
  0.77590984E+00  0.27752076E+00  0.86771835E+00
  0.24241126E+00  0.73686256E+00  0.50968753E+00
  0.26208485E+00  0.99699132E+00  0.87515047E+00
  0.75839088E+00  0.73486978E+00  0.38407164E+00
  0.77215579E+00  0.97243281E+00  0.12383772E+00
  0.21583794E+00  0.96438101E+00  0.61988654E+00
  0.73306920E+00  0.98375626E+00  0.86564939E+00
  0.27265417E+00  0.94347010E+00  0.38056980E+00
  0.74741135E+00  0.75661771E+00  0.63232736E+00
  0.26512309E+00  0.74439711E+00  0.12275349E+00
  0.23070041E+00  0.22866408E+00  0.61972248E+00
  0.49195110E+00  0.49789549E+00  0.11959053E+00
  0.25462863E+00  0.20203379E+00  0.98908679E+00
  0.45861112E+00  0.48102299E+00  0.37217394E+00
  0.27099484E+00  0.49562085E-02  0.25167820E+00
  0.80678066E+00  0.48698993E+00  0.73894785E+00
  0.24339309E+00  0.98600398E+00  0.75062736E+00
  0.70103379E+00  0.48734865E+00  0.25413613E+00
  0.25460646E+00  0.96610272E+00  0.99968748E+00
  0.72390407E+00  0.44716657E+00  0.49644173E+00
  0.25118628E+00  0.99344012E+00  0.50636008E+00
  0.77011509E+00  0.51397859E+00  0.99667232E+00
  0.73966241E+00  0.45950368E-02  0.73360201E+00
  0.20806984E+00  0.50234681E+00  0.25061219E+00
  0.29611704E+00  0.47258270E+00  0.74316195E+00
  0.76221491E+00  0.99512669E+00  0.24869951E+00
  0.25285468E+00  0.50656551E+00  0.49232842E+00
  0.75128977E+00  0.28139505E-01  0.75690250E-04
  0.76963264E+00  0.98216013E+00  0.49914679E+00
  0.27242001E+00  0.45294164E+00  0.99631595E+00
  0.97657735E+00  0.25891707E+00  0.37470468E+00
  0.49634363E+00  0.75306604E+00  0.87163731E+00
  0.51437555E+00  0.23552361E+00  0.61984220E+00
  0.99252607E+00  0.74847308E+00  0.12987351E+00
  0.29252681E-01  0.24268294E+00  0.87343252E+00
  0.50327013E+00  0.73655462E+00  0.37005769E+00
  0.12695855E-01  0.71631311E+00  0.62420508E+00
  0.52481008E+00  0.24443480E+00  0.12137440E+00
  0.15131471E+00  0.36726526E+00  0.44760160E-01
  0.65855854E+00  0.87454588E+00  0.54159395E+00
  0.65180276E+00  0.12408178E+00  0.94364048E+00
  0.13146500E+00  0.60839624E+00  0.45072780E+00
  0.39696219E+00  0.37124864E+00  0.94610257E+00
  0.85506372E+00  0.86183428E+00  0.44817622E+00
  0.87291318E+00  0.12326747E+00  0.54629077E-01
  0.35370101E+00  0.60351562E+00  0.55436509E+00
  0.87623789E+00  0.85689520E-01  0.19365290E+00
  0.38137805E+00  0.59236777E+00  0.69191813E+00
  0.87844874E+00  0.88473595E+00  0.29130272E+00
  0.39593588E+00  0.38481347E+00  0.79736622E+00
  0.10371405E+00  0.59239532E+00  0.30784676E+00
  0.64764093E+00  0.11119253E+00  0.79670115E+00
  0.11584354E+00  0.39297766E+00  0.19860430E+00
  0.63031443E+00  0.90428395E+00  0.68521287E+00
  0.87133312E+00  0.62197443E+00  0.94303279E+00
  0.35056391E+00  0.97731587E-01  0.45070264E+00
  0.85189703E+00  0.35940347E+00  0.54520933E+00
  0.35102991E+00  0.85835603E+00  0.59447669E-01
  0.14830847E+00  0.97074068E-01  0.55660265E+00
  0.65202609E+00  0.62443995E+00  0.31598954E-01
  0.14387114E+00  0.87997705E+00  0.94619763E+00
  0.63696448E+00  0.34084292E+00  0.43672879E+00