Na88 Sn16 P8 S96                        
   1.00000000000000     
    13.4813327813000008    0.0000000000000000    0.0000000000000000
     0.0000000000000000   13.4813327813000008    0.0000000000000000
     0.0000000000000000    0.0000000000000000   26.9626655626000016
   Na   Sn   P    S 
    88    16     8    96
Direct
  0.2325957608369566  0.9620002830300828  0.1329460953372396
  0.7688051341957746  0.5028260912071222  0.6242653535012519
  0.5357919456600598  0.5006526670011157  0.7571610498969297
  0.9792115135945433  0.0146798546060090  0.3760739876675280
  0.1771847569652160  0.9968572851543299  0.8730586585757639
  0.7179825490983319  0.5749402692960387  0.3826719904392238
  0.9733955389971516  0.5034031110138117  0.1419565795844269
  0.0066492669622610  0.5293882118086660  0.3491132877923396
  0.7481029284200790  0.9992940584224511  0.6320041575009440
  0.7024268138973435  0.2425650452660196  0.8819861069988409
  0.7191932461150923  0.8829594004923936  0.3789750185163330
  0.2661708812564434  0.4771076194053534  0.8664880086777854
  0.9211419569569719  0.9850566346690482  0.1281477143159011
  0.2521849354955851  0.7380077871679190  0.6300640161863788
  0.9501903659257412  0.9707584378661150  0.7456108567427764
  0.2338365953996535  0.2493113395529149  0.2888764120987479
  0.9757100307323253  0.9968883554821093  0.6268686617808492
  0.0187697391137588  0.5092451309597914  0.6305550510993888
  0.5429812458063243  0.9793754016459316  0.1245043606067836
  0.0173237386494530  0.5043741329368446  0.8712052069592394
  0.5277730026713092  0.0393382731007130  0.2347079168941753
  0.0126844119112323  0.2699216564073811  0.2480485742257090
  0.6946854555212256  0.9636719248846105  0.8846401498112125
  0.7909383019383557  0.2296663707559907  0.6278303005580839
  0.2655615912167083  0.7204920105282140  0.9881260975333455
  0.2243455497432766  0.2327561989011788  0.6251307686695762
  0.7308105681576470  0.4908295369548026  0.1238983788511449
  0.7221745194868349  0.2654061160463517  0.3800147236259649
  0.5353575091676276  0.7649519025007081  0.5047946472599780
  0.2521408937288464  0.2111653371075347  0.0159691370283867
  0.0237312822285752  0.5073124212448146  0.5052304567024083
  0.4435312296062687  0.0360255588398694  0.7412561078735787
  0.2225958506486126  0.7697247093492691  0.2169418956464362
  0.2723442703461106  0.2582073357434872  0.7442955341986172
  0.0011430937547333  0.9562337719084549  0.9975732168201281
  0.4834322322283394  0.2751826423042799  0.4931988023441162
  0.5064812962619208  0.6561260399915813  0.9911518278635253
  0.5063696064520542  0.2716443001455669  0.2517589913779990
  0.9635811839710005  0.7689648367664507  0.7548820854832806
  0.7203556142491703  0.7570426828782878  0.2583569001456003
  0.0199498871186231  0.9808080975300907  0.2504981929264948
  0.5700114700348280  0.7150589501287727  0.7435161556033683
  0.4585987449827580  0.9913561293644562  0.8536254023282795
  0.2503026791597804  0.5157874021885834  0.3808477680221204
  0.2283271832689202  0.1995196236973004  0.8863323399549294
  0.7739829833170176  0.7103896341558640  0.5066869387080242
  0.2711347672333689  0.7621399204683030  0.5144455026148895
  0.7759511708246991  0.2708885039070157  0.0041684491777342
  0.6463508568657942  0.2404923654494872  0.7400141973306996
  0.4794819909944056  0.5169563045158524  0.2660491410187081
  0.0288001141718973  0.4728103163873283  0.7573751639272119
  0.4054837425174385  0.7752873697744175  0.2656323200797014
  0.2558609724869715  0.2767125237668019  0.4772598379869922
  0.7571282010729632  0.7575997189237444  0.0062934684804131
  0.0191893500504362  0.2696928063899448  0.5080845851827301
  0.0396614716266658  0.7160197185250203  0.9750257592309510
  0.0130255557044017  0.2436096778915229  0.0291477976288350
  0.5149394314517367  0.5045507584411832  0.6165066188337582
  0.5071993711287118  0.3760511254657528  0.0029908296740377
  0.0153229670715611  0.7388385208740269  0.4766464785023305
  0.5013982622131689  0.9764908183631926  0.9945501426204957
  0.0189133687329249  0.0139792985283350  0.4877514612540956
  0.0172441101584099  0.4824480514485944  0.0176966741975812
  0.5423275920749153  0.0213900742261134  0.5118276840599937
  0.7458771029508846  0.2778498443628144  0.2562467978957181
  0.7913911812226833  0.7439110833846151  0.8648792226331505
  0.2819763648219255  0.7342982022586448  0.1056998791049781
  0.7319440079060632  0.2357575775013227  0.5043820926398961
  0.0010135694989087  0.7112436062994955  0.2385936140330848
  0.9688271314756807  0.2583082096833582  0.7393406498739868
  0.7685356283207491  0.2632181153498118  0.1471339648374168
  0.2199711483631147  0.7256523040350444  0.7422202486599296
  0.2522140327857963  0.4700558377422899  0.1251718783162347
  0.5128502068694177  0.9272079351199253  0.6267203205442703
  0.9392497755572595  0.0229540616356600  0.8732490705127870
  0.2412474577861814  0.7495738882616708  0.3849821110822912
  0.5085248457341195  0.4834812831739499  0.8851564302523818
  0.5209409019667293  0.0476691651076008  0.3716194298676626
  0.7136492000028031  0.7955980656225554  0.1252956372674107
  0.2818067684894459  0.4821259399143668  0.6221089474762495
  0.8053777718162153  0.4803621050694393  0.8859484495395810
  0.2467975334878563  0.0379574751434020  0.3777515938101543
  0.7335136105942852  0.7230611342427855  0.6424212242114076
  0.2637723946237600  0.2235778383715028  0.1480465385694950
  0.2395660989536547  0.9886645777737090  0.6113230825445124
  0.5244049615350249  0.5370260325547317  0.1282002358623220
  0.2357013722397784  0.7794652879142150  0.8522754105353182
  0.5013118668918902  0.5346141658802082  0.4342572393664484
  0.2689057424862557  0.9964704140040979  0.2495363894115224
  0.7749261441773507  0.4795993608701998  0.7560839243407229
  0.2165707366197881  0.9986447690118714  0.7438563960165732
  0.7523004878217034  0.5168003446176447  0.2560581153922838
  0.2579120895249823  0.9609608829551262  0.9903349098640545
  0.7586323905200997  0.4778069201920883  0.5072462038755369
  0.2759452780233668  0.0105898918733645  0.4939846914108528
  0.7583487829201242  0.5147992761152316  0.0090580604321647
  0.7259285866047529  0.0079021986361964  0.7613485819387895
  0.2589816368732907  0.4989425773041113  0.2557473791493374
  0.2931138508275349  0.4970100010424384  0.7515867257148515
  0.7708017545593688  0.0282875173106060  0.2570104161028129
  0.2829638391659147  0.5290616689892839  0.5139034055943197
  0.7609613645913914  0.0153933254995811  0.9984210663249855
  0.7775263351749524  0.9829442460310669  0.5100257732768753
  0.2591239130167452  0.4469768980535419  0.0041891615034248
  0.0156731425172103  0.2685872344022118  0.3862463044005883
  0.4939476900042409  0.7312040459779555  0.8664105613836406
  0.4932516484152426  0.2667058438855320  0.6221084478023965
  0.9876886705136153  0.7283271907640029  0.1156700455467072
  0.9930102354610696  0.2545039597266158  0.8807479729585838
  0.4971715357935552  0.7624148013545007  0.3814952821105075
  0.9970951870816163  0.7535428328475862  0.6279610061384934
  0.5031487750825778  0.2604770926672369  0.1252862573671814
  0.1453000830229179  0.3540191392561545  0.0560571544323130
  0.6711149217508666  0.8828214203923266  0.5604461841333983
  0.6518967218594929  0.1089159766209151  0.9469873445180704
  0.1736236063174018  0.6294141656425905  0.4619306189072772
  0.3475931574038681  0.3510049598152813  0.9418431492850025
  0.8876623891676189  0.8706819879026153  0.4721738184429149
  0.8647007775678673  0.1108929345103602  0.0544536820852858
  0.3896213783271203  0.6338409929933654  0.5606937334552361
  0.8869678379737006  0.1180265591901672  0.2045726095375374
  0.3872337525233546  0.5988183921257995  0.6925874886955141
  0.8496223236582138  0.9272195941906820  0.3107315837373994
  0.3915395292364472  0.3783531716012668  0.7978333762823117
  0.1648787152747360  0.6203344247038058  0.3015245456561434
  0.5945066919526718  0.0879025144729591  0.8048235310123188
  0.1785862736511794  0.3699989138033560  0.2051540034755506
  0.6371806204596518  0.9068966921360311  0.7046336469579200
  0.8618254889041320  0.6174856233661273  0.9535956148062965
  0.4028492459526730  0.1066294277167422  0.4549829597445529
  0.8581761064186921  0.3808768293891844  0.5618492799300009
  0.3609095569089604  0.8534777103396921  0.0403584777328720
  0.1652093543214629  0.1242539735593106  0.5465704508129888
  0.6519157479705090  0.6222142766656942  0.0475082464139396
  0.1491075337581826  0.8614124187770275  0.9333019759464894
  0.6630266189531338  0.3923289609693819  0.4515781116086208
  0.6439704347737956  0.4151953315573602  0.2982947403627184
  0.1233219448092323  0.8879575848980553  0.7958145803166038
  0.1044775112501055  0.0820935412684667  0.6935210974260518
  0.6632150168006599  0.6011784223674498  0.1963489653398398
  0.8687943030688334  0.4077177283978609  0.6946598907425164
  0.3843581541561521  0.9260069407630112  0.1954264979648906
  0.3674053116596480  0.0944069947892728  0.3008691502854656
  0.8757392573324700  0.5901000383144678  0.8077714876374993
  0.1525470152886999  0.0531338952117256  0.0530109309520641
  0.6530465204467569  0.5815191011614905  0.5496524623719178
  0.6720895301732576  0.4172608127874255  0.9481019168560000
  0.1583671722495576  0.9136367235676981  0.4501822584579534
  0.3589008112054379  0.0610851544927448  0.9331955914638030
  0.8678635238469202  0.5652883802807556  0.4546104203023303
  0.8585827695079824  0.4012620726848241  0.0630007714568635
  0.3629765539795458  0.9117665088691164  0.5523903111141212
  0.1622270112435442  0.0926822412112194  0.1985414102610310
  0.6674412580629008  0.5825687903235833  0.6970727320559966
  0.1652425275936013  0.8818932294647962  0.2938860571160465
  0.6723652689151063  0.4040963799268502  0.8080798075343490
  0.8389241954653947  0.6362690798185608  0.3049867125568537
  0.3055218498799171  0.1012137614670676  0.8036874744193463
  0.8508764237138419  0.4159203136074847  0.2005001444575302
  0.3483799744128202  0.8958691503475895  0.6988988898130793
  0.8464440217494255  0.8961812758638723  0.9430849849022483
  0.3514691619505060  0.4106475361033580  0.4532349430209702
  0.8444074525350459  0.1057747821990366  0.5556875384477228
  0.3721018668848193  0.5349061149623777  0.0542755248661327
  0.1600629916544938  0.4087488443977940  0.5542822174763804
  0.6551788079786902  0.9122899637356633  0.0485677759551035
  0.1594405612079670  0.5546761492133608  0.9524964105802378
  0.6873960059014859  0.0638134313657660  0.4442846635060724
  0.3498783651912916  0.3960861865433450  0.3126448500997171
  0.8158814239821335  0.8924745524790269  0.8130872568465869
  0.8285112065928190  0.1160333165684417  0.7122638603134870
  0.3425378858980211  0.6105325810358946  0.1961068329370503
  0.1641143126679382  0.4023034333721239  0.7030933901052623
  0.6823772512314003  0.9157967517672516  0.2066441680430629
  0.6505144883152422  0.1370111381175773  0.3001995513247711
  0.1844762654839053  0.5860234003062001  0.8015348494184082
  0.0769479602366228  0.1624373954094384  0.3394746042221228
  0.6046216877975515  0.6337373297040994  0.8409208125627984
  0.5780249761337510  0.3556711959563125  0.6650455737722025
  0.0579655583883505  0.8343963515517715  0.1620695494063294
  0.4066122796818996  0.1742266477965728  0.6620647117636927
  0.8690804034691385  0.6723662185208021  0.1575853671261534
  0.9277574575569368  0.3463742144557703  0.3354225969458156
  0.4176364213101263  0.8044133816762994  0.8104873399081591
  0.0511258576554417  0.1498389990110403  0.9295458734094992
  0.6217446770720112  0.7136229821235417  0.4232087978618109
  0.0787001172030992  0.8436320736495669  0.5827095504500999
  0.5932783255048958  0.3557700365598985  0.0892492390988169
  0.9166388233199176  0.6639502211632422  0.5835183376075316
  0.4327856660434433  0.1606174835146534  0.0816324296630167
  0.9376143846351443  0.3555326387181941  0.9304564915543417
  0.3978047734544793  0.8265430891488782  0.4342508405932464
  0.8923168994617547  0.8431065498759202  0.6656337798713904
  0.4037780057880397  0.3417309978270950  0.1667492839338678
  0.8935677390831355  0.2011772891547608  0.8321139009979434
  0.4309090192236024  0.6380858550692859  0.3534458413759319
  0.1052753883763627  0.3220720483555075  0.8298532105460082
  0.5349288020918542  0.8476599570385578  0.3221029476944551
  0.0852684244144389  0.6702655740053667  0.6708688884532734
  0.5927231232658481  0.1757697320735944  0.1734220109869893
  0.4205506013207075  0.3684981030570756  0.5739487168889863
  0.9221127154278301  0.8156523920036977  0.0650981015923954
  0.9282723185798483  0.1743532738315603  0.4290765355852836
  0.4047589600314034  0.6507142165701455  0.9139215204106876
  0.1101442901230804  0.3584242539487776  0.4196675346025324
  0.5600104592400256  0.8297400908013828  0.9138619546663638
  0.5869344659634282  0.1832063326665117  0.5770680492779565
  0.0906329942060238  0.6359145603091493  0.0798295958313063
 
  0.17204597E-02  0.27220834E-02 -0.82429244E-03
  0.81178222E-02 -0.95159967E-02  0.10277271E-01
  0.59535945E-02  0.95273416E-02  0.19021191E-02
  0.46789063E-02 -0.18295625E-02 -0.74720366E-02
  0.16516593E-02  0.67303617E-03  0.33811765E-02
  0.93623236E-03 -0.78052495E-02  0.21893755E-02
  0.58187249E-02 -0.65679883E-02  0.91737258E-03
 -0.69172750E-02 -0.15477082E-02 -0.53738774E-02
  0.47496609E-02  0.19805423E-02  0.27244401E-02
 -0.20074364E-02 -0.89842528E-02 -0.56167339E-02
  0.14876714E-02  0.24125693E-02  0.12703042E-02
  0.44952951E-03 -0.22435707E-02 -0.16345113E-02
  0.10324920E-01  0.82305356E-02  0.38793302E-02
  0.46424956E-02  0.38501748E-02  0.21412844E-02
  0.16518158E-01  0.13497116E-02 -0.48421617E-02
 -0.41416645E-02  0.20128037E-03 -0.43749346E-02
 -0.57410171E-02  0.25764927E-02 -0.35531015E-02
 -0.67110603E-02  0.27289831E-02  0.14438117E-02
 -0.37124256E-02 -0.95300673E-02 -0.27662599E-02
  0.34485645E-02 -0.24941954E-02 -0.48123647E-02
  0.41897580E-02 -0.12987986E-02  0.43775479E-02
  0.48475989E-02  0.64433107E-02  0.14642367E-02
 -0.65860697E-03  0.81004522E-03 -0.64987719E-02
  0.89221861E-02 -0.37111112E-02  0.69164952E-02
  0.72730675E-02  0.26096097E-02 -0.17096239E-03
 -0.39156348E-02 -0.38187442E-02  0.75329881E-02
  0.77307768E-03  0.12639872E-02  0.18284371E-02
  0.44427542E-02  0.65325858E-02  0.18363278E-02
  0.72301542E-02  0.29258789E-02 -0.56485700E-02
  0.31633357E-02 -0.65410553E-02  0.10081856E-01
 -0.55129108E-02 -0.68357072E-03  0.15065538E-02
 -0.67852028E-02  0.65170916E-02 -0.14636716E-01
 -0.36565367E-04  0.53073008E-03  0.58931706E-02
  0.31043198E-02 -0.28545129E-03  0.13181303E-01
  0.46303308E-02 -0.53098644E-02  0.21932523E-02
  0.55112002E-02  0.57520673E-02 -0.52072528E-02
  0.10600093E-03 -0.24057093E-02  0.77823257E-02
  0.11274922E-01  0.12775165E-01  0.56163442E-02
 -0.75366916E-03 -0.15194043E-02 -0.91102420E-02
 -0.21863676E-02 -0.79272002E-02 -0.48455727E-02
  0.26003937E-03 -0.44638955E-02  0.95971261E-02
 -0.34827966E-02 -0.17489573E-02 -0.10708883E-02
 -0.48999835E-02 -0.13030755E-01  0.30618180E-02
  0.20830895E-04 -0.36322153E-02  0.42516802E-02
  0.14167496E-02  0.37331269E-03  0.14193019E-02
 -0.37272050E-02 -0.53084649E-03  0.98500254E-03
  0.96480447E-03 -0.95217716E-03 -0.87791957E-02
 -0.33157654E-02 -0.24900190E-02 -0.33726988E-02
 -0.91782232E-03  0.64181575E-03  0.12187852E-02
  0.40887508E-02  0.25964268E-02 -0.32685909E-03
 -0.13569175E-01  0.27244265E-02 -0.43601693E-02
  0.61473438E-02 -0.91225226E-02  0.63120422E-02
 -0.34168945E-02 -0.69285467E-02  0.35360741E-02
  0.14711885E-02  0.46823479E-02  0.18660670E-02
 -0.65148312E-02 -0.99701389E-03 -0.53733661E-02
  0.33225421E-02 -0.11029415E-02  0.63080749E-02
  0.73131315E-02  0.42367967E-02 -0.23745512E-02
  0.17197249E-01  0.33921971E-02 -0.23571804E-02
 -0.11587917E-01 -0.68320533E-02 -0.73268878E-02
 -0.62087842E-02  0.49357818E-02 -0.10198544E-02
  0.74516237E-02  0.12200323E-02 -0.18473743E-03
  0.64041662E-02  0.82492189E-02  0.24692078E-02
 -0.57775864E-02 -0.60971678E-02  0.23654629E-02
  0.69175816E-02 -0.21030963E-02 -0.30734859E-02
  0.39574470E-02  0.58593517E-05  0.30224153E-02
 -0.10901796E-02 -0.67756757E-02 -0.62688319E-02
  0.17246629E-02 -0.41465607E-02 -0.26877308E-02
  0.44799111E-02 -0.71491974E-02  0.33511713E-02
  0.38657403E-02  0.25604923E-02 -0.40384442E-02
  0.51350006E-03  0.41338442E-04  0.39532811E-02
 -0.92299907E-02  0.84182963E-02 -0.56812657E-02
 -0.26632155E-02  0.19739582E-03 -0.69712151E-02
 -0.39917915E-02  0.16484804E-02 -0.13847199E-01
  0.41164161E-02  0.14169622E-01  0.73489802E-03
  0.50138282E-02  0.12701668E-02  0.17571170E-02
 -0.35368850E-02 -0.21507124E-02 -0.14554772E-02
 -0.55675019E-02 -0.11428626E-02  0.17875179E-02
 -0.91833404E-02 -0.14433377E-01  0.26652371E-02
  0.14737568E-02 -0.27017755E-02  0.26799986E-02
  0.12372675E-02 -0.14418555E-01  0.65671873E-02
 -0.11509599E-02 -0.64864055E-02  0.55043604E-02
 -0.10436752E-01  0.62610092E-03 -0.51232374E-03
  0.96048123E-03 -0.72803182E-02  0.37591445E-02
 -0.51636024E-03  0.26061706E-03 -0.45205651E-02
 -0.21806972E-02  0.22535481E-02  0.62639249E-02
 -0.43283304E-02 -0.62853907E-02  0.81431983E-02
  0.40861357E-04  0.14020444E-02 -0.52751166E-02
  0.15908968E-03 -0.75855418E-02  0.17963226E-02
 -0.18122557E-02  0.44115770E-03  0.14878140E-02
  0.95165508E-03  0.12936450E-02  0.15646271E-02
  0.11137886E-02 -0.29302615E-03 -0.11125079E-02
 -0.33101196E-03 -0.14844600E-02  0.18630040E-02
 -0.37646825E-02  0.69656818E-03  0.99726010E-03
 -0.32118897E-03  0.93346046E-03 -0.11022304E-02
 -0.19590076E-02  0.16999441E-02 -0.13743604E-03
 -0.15961047E-02  0.41431513E-02  0.22352227E-03
  0.11522744E-02 -0.11995697E-03 -0.17437500E-02
 -0.69282709E-03  0.31856536E-02 -0.68775715E-03
  0.23706633E-02 -0.46272202E-03 -0.35478961E-02
  0.31554276E-02 -0.12830030E-02 -0.24110189E-02
  0.31851605E-02  0.95630138E-03 -0.26084165E-03
 -0.15788081E-02 -0.65200892E-03  0.10875720E-02
 -0.57632192E-03 -0.53124540E-03 -0.38224232E-02
 -0.63010713E-03  0.71822951E-03  0.15747402E-03
 -0.99971223E-02 -0.13030863E-02 -0.27224573E-02
 -0.31299825E-02 -0.13687597E-02  0.41093928E-02
  0.26088066E-02  0.57357408E-02 -0.13373480E-02
  0.73209380E-02  0.67560598E-02  0.39347872E-02
  0.36597332E-02  0.10391114E-02 -0.43686208E-03
  0.41163041E-02  0.66508020E-03 -0.54453534E-02
 -0.14353517E-02 -0.52877007E-02  0.21842092E-02
  0.52426489E-02 -0.16986891E-02  0.24523575E-02
 -0.41672286E-02 -0.10731105E-02  0.77924342E-02
 -0.32681861E-02 -0.64836122E-02 -0.27960424E-02
 -0.14480861E-02  0.13966254E-02 -0.11087530E-02
  0.15626001E-02 -0.31706915E-02 -0.26226983E-02
 -0.39652410E-02  0.15095465E-02  0.66955005E-02
  0.14481552E-02  0.17176599E-02  0.15025510E-02
 -0.39012788E-02 -0.37676298E-02 -0.52589115E-02
 -0.25849912E-02 -0.30910581E-02 -0.67201652E-02
  0.17707753E-02 -0.13813433E-02 -0.21445043E-02
 -0.32120098E-02  0.31586230E-02  0.94231452E-02
  0.34073033E-02  0.56819059E-03 -0.67961758E-03
  0.71018168E-02 -0.32694398E-03 -0.28378354E-02
 -0.57772427E-02  0.25337898E-02 -0.12164131E-02
 -0.23237428E-02  0.19317210E-02  0.99520031E-02
 -0.45904086E-02 -0.32375206E-02 -0.10142529E-01
 -0.45430799E-02 -0.75638680E-02 -0.27896213E-02
 -0.59916800E-02  0.38715232E-02 -0.59733118E-02
 -0.27987064E-02 -0.21706585E-02  0.90348036E-03
  0.61170052E-02 -0.33541044E-02 -0.91890260E-02
 -0.36386253E-02 -0.40999025E-02  0.85032049E-02
  0.59107630E-03 -0.24135982E-02 -0.36919674E-02
 -0.20898820E-02  0.30769401E-02  0.11084363E-01
  0.26798633E-02  0.44720549E-02  0.52338201E-04
 -0.12529455E-02 -0.10395600E-01 -0.57454569E-02
 -0.33964700E-02  0.45125028E-02 -0.41404678E-02
  0.61249227E-02 -0.44753814E-02 -0.21814739E-02
 -0.30541679E-02  0.70611149E-03 -0.14329028E-02
  0.14866907E-02  0.93192035E-03 -0.13813637E-01
 -0.26772665E-02 -0.92826382E-02  0.75951754E-03
  0.13480392E-02 -0.68533124E-02  0.46414857E-02
 -0.21702169E-02 -0.18374608E-02  0.39231664E-02
 -0.23103790E-02  0.39738449E-02  0.15435657E-02
 -0.79083198E-02  0.80426349E-02  0.16549082E-02
 -0.27057004E-02  0.52454462E-02  0.11043236E-02
  0.25972135E-02 -0.38085420E-02  0.53196935E-02
  0.50473848E-02  0.75897822E-02  0.10682043E-02
 -0.76619922E-04 -0.26278979E-02  0.10700956E-02
 -0.13493312E-02 -0.79267258E-03  0.77002682E-02
  0.80456020E-02  0.60480637E-02 -0.78063298E-02
 -0.50774710E-02  0.31731405E-02 -0.30839324E-02
 -0.41806314E-02 -0.37828561E-03  0.19065103E-02
  0.59629342E-02  0.53100510E-02  0.23190843E-03
 -0.13267928E-02 -0.27614433E-02  0.31840076E-02
 -0.14252132E-02  0.15973365E-02  0.21150895E-02
  0.33660152E-02 -0.84399227E-02  0.37254788E-02
  0.26509507E-02  0.22841053E-02 -0.26838892E-02
  0.17607994E-02  0.51415291E-02  0.70064766E-02
  0.95122318E-03 -0.15641561E-02 -0.57178014E-02
  0.93911454E-03 -0.25356463E-02 -0.77858007E-02
  0.34355256E-02  0.38353808E-02  0.43272930E-02
  0.51741691E-02  0.46795673E-02  0.10245835E-01
 -0.29940798E-02  0.82508495E-02  0.81116216E-03
 -0.21080951E-03  0.45387509E-02 -0.36339592E-02
 -0.41309103E-03 -0.16806367E-02  0.66642148E-02
 -0.63373129E-03  0.78007665E-02  0.90465265E-03
  0.48977662E-02  0.88601157E-02  0.62436045E-02
  0.40105036E-03  0.21419719E-02  0.19608091E-02
 -0.32863566E-02  0.42946041E-02  0.27799461E-02
  0.31241937E-02 -0.54808956E-02  0.33248764E-02
  0.24043262E-02  0.19260816E-02 -0.85564661E-03
  0.42578144E-02  0.16737216E-02 -0.18230943E-02
 -0.86610414E-02  0.51202013E-02 -0.14889776E-02
  0.42635288E-02  0.50263612E-02 -0.88788171E-02
  0.24827006E-02 -0.35695714E-02 -0.43238792E-02
 -0.35182555E-02 -0.21092019E-02  0.93044922E-03
  0.20947736E-02  0.19353003E-02  0.15844164E-02
  0.27655895E-04 -0.31191746E-02 -0.57934312E-02
  0.50927763E-03 -0.40914292E-02  0.52507527E-03
 -0.20508549E-02 -0.21655441E-02 -0.96892375E-02
  0.54435731E-02  0.15426210E-02  0.50770795E-02
  0.12560896E-02  0.11229166E-02  0.13495169E-02
  0.22294533E-02  0.17002859E-02 -0.16400696E-02
  0.41920021E-02 -0.40579049E-03  0.34391865E-02
  0.20845838E-03  0.16641114E-02  0.82601208E-02
 -0.42419203E-02  0.18173716E-02 -0.10955037E-02
  0.39797564E-03  0.51624748E-03  0.69509339E-02
  0.59947644E-03 -0.57685413E-03  0.88245648E-02
 -0.17992693E-02 -0.30676810E-03  0.16576791E-02
 -0.57909203E-02  0.12657554E-02  0.25965668E-02
 -0.42834517E-02  0.15163204E-02 -0.79759791E-02
  0.26909568E-03  0.60934441E-02 -0.75506791E-02
 -0.30094676E-02 -0.11079572E-02 -0.72354281E-02
 -0.13924012E-02 -0.38277842E-02 -0.51054999E-02
 -0.52862462E-02 -0.10362469E-02  0.13971714E-02
 -0.18917836E-02  0.71675950E-03  0.44332737E-02
 -0.87267538E-02  0.84575329E-03  0.81339026E-02
  0.15247039E-02 -0.61809274E-03  0.36009006E-02
  0.14122428E-03  0.10234801E-02 -0.41428109E-03
  0.65436080E-03 -0.26256042E-02 -0.14967220E-02
 -0.28423213E-02  0.96284230E-03  0.11708228E-02
 -0.26161454E-02 -0.39742982E-03 -0.12383715E-02
  0.57611202E-02 -0.38017448E-02  0.65975865E-02
  0.16257811E-02 -0.12278637E-01 -0.74178076E-03
 -0.25051460E-02  0.93172320E-03 -0.44915901E-02
 -0.50759062E-02 -0.13713360E-02 -0.11112739E-02
 -0.41554332E-02  0.39605575E-02 -0.61022788E-02
 
           1
   2.00000000000000     
  0.10214306E+01 -0.40124082E-02  0.00000000E+00  0.00000000E+00
  0.23285100E+00  0.96240411E+00  0.13288495E+00
  0.77000944E+00  0.50141436E+00  0.62502769E+00
  0.53667518E+00  0.50206608E+00  0.75730214E+00
  0.97990564E+00  0.14408433E-01  0.37551974E+00
  0.17742979E+00  0.99695713E+00  0.87330946E+00
  0.71812144E+00  0.57378233E+00  0.38283439E+00
  0.97425877E+00  0.50242873E+00  0.14202463E+00
  0.56230665E-02  0.52915860E+00  0.34871467E+00
  0.74880756E+00  0.99958788E+00  0.63220625E+00
  0.70212900E+00  0.24123220E+00  0.88156948E+00
  0.71941395E+00  0.88331731E+00  0.37906925E+00
  0.26623757E+00  0.47677478E+00  0.86636677E+00
  0.92267369E+00  0.98627766E+00  0.12843547E+00
  0.25287366E+00  0.73857897E+00  0.63022285E+00
  0.95264089E+00  0.97095867E+00  0.74525168E+00
  0.23322217E+00  0.24934120E+00  0.28855189E+00
  0.97485833E+00  0.99727059E+00  0.62660510E+00
  0.17774131E-01  0.50964998E+00  0.63066215E+00
  0.54243050E+00  0.97796158E+00  0.12429917E+00
  0.17835345E-01  0.50400411E+00  0.87084824E+00
  0.52839457E+00  0.39145592E-01  0.23503263E+00
  0.13403569E-01  0.27087754E+00  0.24815719E+00
  0.69458775E+00  0.96379210E+00  0.88415809E+00
  0.79226194E+00  0.22911582E+00  0.62834334E+00
  0.26664057E+00  0.72087915E+00  0.98811342E+00
  0.22376465E+00  0.23218968E+00  0.62568954E+00
  0.73092526E+00  0.49101705E+00  0.12403401E+00
  0.72283362E+00  0.26637525E+00  0.38015094E+00
  0.53643013E+00  0.76538597E+00  0.50437566E+00
  0.25261018E+00  0.21019495E+00  0.16716975E-01
  0.22913424E-01  0.50721101E+00  0.50534221E+00
  0.44252462E+00  0.36992391E-01  0.74017041E+00
  0.22259043E+00  0.76980344E+00  0.21737903E+00
  0.27280481E+00  0.25816499E+00  0.74527328E+00
  0.18300185E-02  0.95544604E+00  0.99773590E+00
  0.48424984E+00  0.27603598E+00  0.49281255E+00
  0.50649702E+00  0.65576915E+00  0.99172909E+00
  0.50804228E+00  0.27353954E+00  0.25217559E+00
  0.96346937E+00  0.76873943E+00  0.75420632E+00
  0.72003126E+00  0.75586666E+00  0.25799747E+00
  0.19988465E-01  0.98014586E+00  0.25121008E+00
  0.56949479E+00  0.71479949E+00  0.74343672E+00
  0.45787182E+00  0.98942297E+00  0.85385252E+00
  0.25030577E+00  0.51524855E+00  0.38116314E+00
  0.22853736E+00  0.19957501E+00  0.88643762E+00
  0.77343004E+00  0.71031088E+00  0.50676000E+00
  0.27127790E+00  0.76199866E+00  0.51379429E+00
  0.77545927E+00  0.27051910E+00  0.39182737E-02
  0.64621469E+00  0.24058758E+00  0.74010460E+00
  0.48008857E+00  0.51734149E+00  0.26602490E+00
  0.26787083E-01  0.47321449E+00  0.75705174E+00
  0.40639572E+00  0.77393401E+00  0.26610053E+00
  0.25535406E+00  0.27568465E+00  0.47752213E+00
  0.75734646E+00  0.75829436E+00  0.64318871E-02
  0.18222853E-01  0.26954490E+00  0.50768601E+00
  0.40154382E-01  0.71585609E+00  0.97549367E+00
  0.14110483E-01  0.24423822E+00  0.28971661E-01
  0.51749070E+00  0.50505400E+00  0.61633177E+00
  0.50548027E+00  0.37503757E+00  0.24473457E-02
  0.14401874E-01  0.73957076E+00  0.47657083E+00
  0.50250374E+00  0.97667181E+00  0.99453644E+00
  0.19863448E-01  0.15203097E-01  0.48793462E+00
  0.16386986E-01  0.48154352E+00  0.17872136E-01
  0.54335384E+00  0.21078073E-01  0.51159970E+00
  0.74646420E+00  0.27785071E+00  0.25647099E+00
  0.79122945E+00  0.74290589E+00  0.86441422E+00
  0.28223222E+00  0.73368305E+00  0.10550051E+00
  0.73260862E+00  0.23469697E+00  0.50463067E+00
  0.15870648E-02  0.71162346E+00  0.23829406E+00
  0.96890331E+00  0.25831434E+00  0.73963389E+00
  0.76716633E+00  0.26446700E+00  0.14671255E+00
  0.21957605E+00  0.72568159E+00  0.74170315E+00
  0.25162184E+00  0.47030040E+00  0.12414474E+00
  0.51346089E+00  0.92931005E+00  0.62677483E+00
  0.93999359E+00  0.23142495E-01  0.87337941E+00
  0.24072275E+00  0.74925482E+00  0.38487415E+00
  0.50769889E+00  0.48331174E+00  0.88528902E+00
  0.51957852E+00  0.45527926E-01  0.37181713E+00
  0.71386784E+00  0.79519725E+00  0.12549443E+00
  0.28199032E+00  0.47998690E+00  0.62259608E+00
  0.80520702E+00  0.47939983E+00  0.88635674E+00
  0.24524921E+00  0.38050359E-01  0.37771359E+00
  0.73365610E+00  0.72198108E+00  0.64270006E+00
  0.26369579E+00  0.22361650E+00  0.14771122E+00
  0.23924259E+00  0.98899890E+00  0.61178772E+00
  0.52376284E+00  0.53609357E+00  0.12880427E+00
  0.23570743E+00  0.77967329E+00  0.85188412E+00
  0.50133547E+00  0.53348883E+00  0.43439048E+00
  0.26863689E+00  0.99653586E+00  0.24964675E+00
  0.77506733E+00  0.47979128E+00  0.75619998E+00
  0.21673597E+00  0.99860130E+00  0.74377387E+00
  0.75225138E+00  0.51658012E+00  0.25619631E+00
  0.25735359E+00  0.96106422E+00  0.99040888E+00
  0.75858474E+00  0.47794540E+00  0.50716444E+00
  0.27565465E+00  0.10842084E-01  0.49397450E+00
  0.75811200E+00  0.51541393E+00  0.90746406E-02
  0.72609953E+00  0.78844026E-02  0.76121924E+00
  0.25887885E+00  0.49941518E+00  0.25569636E+00
  0.29346555E+00  0.49694135E+00  0.75132355E+00
  0.77126987E+00  0.28097180E-01  0.25683157E+00
  0.28343637E+00  0.52920354E+00  0.51388406E+00
  0.76072714E+00  0.15296598E-01  0.99850174E+00
  0.77744084E+00  0.98286543E+00  0.50974224E+00
  0.25903043E+00  0.44708345E+00  0.42008424E-02
  0.14190037E-01  0.26839392E+00  0.38604436E+00
  0.49348335E+00  0.73100099E+00  0.86671538E+00
  0.49363867E+00  0.26755676E+00  0.62200925E+00
  0.98877476E+00  0.72932947E+00  0.11596191E+00
  0.99355317E+00  0.25465812E+00  0.88071557E+00
  0.49778220E+00  0.76251347E+00  0.38109136E+00
  0.99688225E+00  0.75275839E+00  0.62812302E+00
  0.50392654E+00  0.26022509E+00  0.12546817E+00
  0.14468186E+00  0.35385994E+00  0.56635171E-01
  0.67063008E+00  0.88185956E+00  0.56023878E+00
  0.65168189E+00  0.10912317E+00  0.94690510E+00
  0.17385542E+00  0.62894378E+00  0.46173608E+00
  0.34700490E+00  0.35122891E+00  0.94233980E+00
  0.88787723E+00  0.87093681E+00  0.47228527E+00
  0.86412201E+00  0.11033399E+00  0.54063594E-01
  0.38923789E+00  0.63338242E+00  0.56019525E+00
  0.88723054E+00  0.11782163E+00  0.20441354E+00
  0.38675724E+00  0.59928698E+00  0.69328647E+00
  0.85012781E+00  0.92730389E+00  0.31068117E+00
  0.39259311E+00  0.37830467E+00  0.79762288E+00
  0.16402164E+00  0.62071032E+00  0.30143432E+00
  0.59416196E+00  0.88189092E-01  0.80556174E+00
  0.17790527E+00  0.36951862E+00  0.20440166E+00
  0.63650664E+00  0.90577457E+00  0.70442672E+00
  0.86093660E+00  0.61805998E+00  0.95315253E+00
  0.40243405E+00  0.10630740E+00  0.45504998E+00
  0.85908358E+00  0.38037924E+00  0.56116767E+00
  0.36036975E+00  0.85286948E+00  0.40989217E-01
  0.16529704E+00  0.12389591E+00  0.54629659E+00
  0.65160571E+00  0.62267075E+00  0.48330447E-01
  0.14950510E+00  0.86207586E+00  0.93330586E+00
  0.66284074E+00  0.39078674E+00  0.45115193E+00