Na88 Sn16 P8 Se96                       
   1.00000000000000     
    14.0793397336999995    0.0000000000000000    0.0000000000000000
     0.0000000000000000   14.0793397336999995    0.0000000000000000
     0.0000000000000000    0.0000000000000000   28.1586794673000007
   Na   Sn   P    Se
    88    16     8    96
Direct
  0.0330406337664210  0.0405381316197239  0.0009987707202567
  0.7373510526936834  0.9936431149340523  0.6091033701645117
  0.4576052597827839  0.5049342566844459  0.8504671260702779
  0.6638277053786646  0.7375859150151227  0.5968950557001800
  0.1890333631416223  0.1848133401320095  0.8786786745607198
  0.2466261444507233  0.2498509459968428  0.5030470973771720
  0.8061190854812490  0.2283064838987441  0.2976542381151029
  0.2025504583243486  0.7212116261936768  0.2221144483855973
  0.4920629576096485  0.2411750042411177  0.4968989983279223
  0.7619560746470995  0.2648173340813523  0.1656391380299277
  0.7439632499504093  0.0100674467553836  0.3669821930537349
  0.1765751082348438  0.1926036845863782  0.7632219932204181
  0.9920710712099196  0.0202049973171728  0.1226064512329303
  0.2078602233654680  0.8179836288181229  0.8764939223818023
  0.9707102696068622  0.0215857395469181  0.8737407108702410
  0.3058044065562328  0.4159492059707928  0.1080436340940818
  0.7310970037310726  0.7188374868389585  0.3409851657267189
  0.7332551239911597  0.4597205480929661  0.6270073404752591
  0.5291715179132125  0.5116572826405991  0.1229207501035056
  0.4679523774183860  0.0198979673619246  0.7305893586891619
  0.4862606982326225  0.4939479565603543  0.7388315604287641
  0.0226538787975740  0.2118292558833552  0.5008318834013100
  0.8076108593835558  0.7378171333106929  0.0037307272454387
  0.9549353016574578  0.5146239921022187  0.5116780357711544
  0.2619970027493941  0.0326300800882007  0.1204910741366840
  0.2366511866508988  0.7297083605239456  0.7268691360482215
  0.6735465056543017  0.7989942771314759  0.1023834962348813
  0.3379417452577476  0.2048404804868830  0.3731149062266403
  0.4626023609692504  0.4978417719145781  0.4814043588772794
  0.0325531227143201  0.0788484692839815  0.2691189649208782
  0.1591356280539235  0.9399712325216834  0.6205768223584881
  0.0023894078474709  0.7421287268171929  0.7389049832816288
  0.0269934076719785  0.5093973380323219  0.1051494706624524
  0.2484575575711946  0.4343694961897552  0.6069459798812845
  0.0030884132436809  0.7749808003190167  0.9703763790823002
  0.0114013219430078  0.4818610406541927  0.6521361758510857
  0.5248912776487387  0.1870994032610335  0.2308912491268664
  0.4950514457061649  0.0140769072271456  0.3290539876544883
  0.2340834278244890  0.5257799741067577  0.8534622194083528
  0.9904353374240661  0.9718078974790630  0.5080870750498258
  0.2623300857011707  0.7203719407985006  0.3631270377624657
  0.4519030306660972  0.2530364411065783  0.7570800010914841
  0.7185119803609624  0.7526028452981841  0.8181525598351688
  0.9317853958079703  0.7650972258687815  0.2356897493213216
  0.2682823057214865  0.7325094259742336  0.0991399422851208
  0.8698438787835735  0.7279724232609703  0.5107751072238773
  0.8178276192494301  0.7023842237884954  0.6944315773713421
  0.2587501283087711  0.2934032109990379  0.9896578347284486
  0.9868216200417620  0.3045179515230581  0.9869240741424575
  0.0175621481110901  0.5475186410536200  0.2142977434217189
  0.4784457507330102  0.9558948936364590  0.6137793388316417
  0.5047207778827093  0.9914236158495392  0.1287962474641634
  0.4738456930337837  0.5098283345520916  0.6003352497208010
  0.5129076687353397  0.1129196372808157  0.0288991951783917
  0.9681218422934152  0.0015710464521688  0.7472226517589313
  0.4771154934786080  0.0342605014646972  0.8843292334622284
  0.2701286456742651  0.2401299940906980  0.1683055328827595
  0.7198967145088767  0.2355377827388261  0.5574274807546445
  0.7060778213683429  0.0135765750232728  0.8841310290521363
  0.2351545066436440  0.2265529957509547  0.6187787450781131
  0.5067795905837302  0.3152888635305898  0.9906046125056753
  0.2836169847073783  0.7319892613989881  0.4896410118227500
  0.0014051958701373  0.5242292205727552  0.9753620125299337
  0.5049771099132890  0.9801533753774385  0.4861101749057393
  0.2516787513840793  0.9620769436223054  0.3618372385588869
  0.2969856646572980  0.7364814355638151  0.6234625979845264
  0.9859291036412994  0.6194449745481596  0.3691760124947978
  0.9390988786607276  0.2636916484140627  0.7276153955115344
  0.8143134414692635  0.4614530850166289  0.3777259260647411
  0.7184623371385365  0.5246486637623269  0.8555145390423947
  0.1884351672563725  0.2098301020568705  0.2661971320051882
  0.5026193776334202  0.5391536858508916  0.9724162807697968
  0.5201803853685276  0.7425525404787381  0.2392025233371637
  0.6849787195503289  0.2221782634132524  0.7105850375060020
  0.7840013601981266  0.5576394463502518  0.1160675460541595
  0.4511276357131524  0.4839896217723677  0.3744660488621231
  0.2952047320085896  0.7814206471991128  0.9767160807743618
  0.6250271951458065  0.7063627297711949  0.4557241076903643
  0.7297091725964885  0.0005340671582886  0.1168581691825405
  0.7420942073760812  0.2363945724085508  0.8403686579203798
  0.7686385069613050  0.2629509500666438  0.9890355173537494
  0.7880296625836430  0.2458901700347578  0.4449665342436964
  0.4801619221952689  0.7627319189511305  0.7257939455700463
  0.5013607653571757  0.7944780450239974  0.9969014077016772
  0.9958835829301143  0.5572379949022154  0.8471899181877343
  0.0210904305060185  0.9581832412980533  0.3946811230408558
  0.1612342534901489  0.4231830019767798  0.3725619344862768
  0.5398174128977690  0.5119279401625841  0.2526094717130165
  0.2428861444382317  0.9614671250736829  0.2290811247645547
  0.7226406161165908  0.4885969719576151  0.7434002652748692
  0.2005773745836302  0.9649939670025462  0.7456207985385294
  0.7855340706080959  0.5036265230873391  0.2384726076599553
  0.2953526508022704  0.0432606117609721  0.9919612296166218
  0.7201388558240244  0.4892705174997805  0.4972354534551364
  0.2394826755218976  0.9897961890943302  0.5056129782642759
  0.7456495170065475  0.5130436889467849  0.9761431255464835
  0.7387539833899359  0.0071871616155509  0.7484565213459318
  0.2720889594249216  0.4791206589217237  0.2465318933967544
  0.2213478331847810  0.4601647092235606  0.7331663873908550
  0.7677029995554870  0.9892273949230556  0.2502011706237895
  0.1938286708896981  0.4763249279726086  0.4842325016175938
  0.7573608027047980  0.0128984700060142  0.9890029351398856
  0.7303221526386219  0.9958133469736976  0.4898252866408102
  0.2411219374597530  0.5440233865528231  0.9870025156731078
  0.0076735174920530  0.2418079589841610  0.3753436280451356
  0.4796639905518282  0.7543468012923492  0.8536311521214842
  0.5010874604241403  0.2291050592679514  0.6142854285379433
  0.9649513094833861  0.7687772568446742  0.1023424899425118
  0.9743475917186527  0.2892711310285942  0.8623081785404545
  0.4744672920811888  0.7583816113573396  0.3775253481408035
  0.9803989748205787  0.7359453681185379  0.6110778508530225
  0.5249511185680331  0.2933667215552682  0.1227627959728337
  0.1443082755454479  0.4428242741379471  0.0338533050354116
  0.6334955018632562  0.8882961261933069  0.5438633042159533
  0.6314388321311967  0.1140880500429607  0.9482342603813599
  0.1059019973038696  0.6117465023408771  0.4461722285460305
  0.3407078699661216  0.4351251481812634  0.9308709044755265
  0.8311001463028487  0.8762865812133267  0.4364981274112288
  0.8605912176191740  0.1156296193806956  0.0415244866711229
  0.3118507233443085  0.5622303822474700  0.5334551474229119
  0.8752386781333522  0.1009755147298131  0.2077835817554236
  0.3512213908047486  0.5801719602467057  0.6855222051686770
  0.8453075298465078  0.8858215212265906  0.3071316983678450
  0.3130890102787425  0.3786936656810959  0.7977839678366135
  0.1541719077648135  0.5623729303619885  0.3084631472547513
  0.6095808368534100  0.1063391989407799  0.7868802228095128
  0.1743036597261224  0.3982576405674705  0.1826788966657889
  0.6263905834430886  0.8905989474212027  0.7055138089681890
  0.8309961880421473  0.6193004478832835  0.9148836529623307
  0.3494844470057654  0.0670463788646271  0.4359371998373279
  0.8415289656225493  0.3732089545231342  0.5343047701384064
  0.3694446135689256  0.9307014883701413  0.0492512859861687
  0.1282180929245840  0.0744991326368641  0.5634838456427725
  0.6519650562599811  0.6371677446944515  0.0340794856971388
  0.1537181511918813  0.9769260266397924  0.9293704179755831
  0.6253230279096624  0.3940485203051411  0.4444705576805110
  0.7042076565934057  0.4043673207515597  0.2959095238933365
  0.0931531805090603  0.8751776119330273  0.8022396021717562
  0.1250800623090607  0.0565536336901075  0.6837923366749847
  0.6589027640635066  0.6055314809171557  0.1843746279089511
  0.8265826397874525  0.3803000197266024  0.6999933736095385
  0.3236049357991553  0.8696566939467405  0.1721591055597411
  0.3509211842715041  0.0840791480402813  0.2808879815971052
  0.8423601869030843  0.5971929704489406  0.7862511469233114
  0.1841091035030599  0.1351937700250308  0.0497748457482441
  0.5971778600160953  0.5770898509819387  0.5423425486371827
  0.6371810804837822  0.3993733528614422  0.9303209366560540
  0.1360808018891785  0.8664361389668976  0.4608200750507201
  0.3917675626563154  0.1822808428421434  0.9458313221441410
  0.7927030405976668  0.6109440982954553  0.4500955733265015
  0.8757793692107562  0.4318720407959366  0.0290882339169679
  0.3653040397404421  0.8537880809741386  0.5456437851048269
  0.1437313303336482  0.0881967579754985  0.1885645115194730
  0.6391133454277245  0.6112613794965231  0.6874886152971040
  0.1618152993137290  0.8688806022573905  0.2956466130763445
  0.6087037778461061  0.4158796000960696  0.7954317820413722
  0.8738055245976902  0.6061422308763099  0.2935334709844586
  0.3054438565873351  0.0749110973747943  0.7934127801843354
  0.8874652264267149  0.4160839408932410  0.1722548116480933
  0.3415010046071925  0.8941708304582714  0.6784165912432596
  0.8437512481302407  0.8995298877539032  0.9288132181413405
  0.3061678358061626  0.3525774517238544  0.4386175191247035
  0.8479433718217884  0.1034176702428748  0.5361145717109994
  0.3667010640205638  0.6070576654913085  0.0440752019522520
  0.1052161986698741  0.3535473627082052  0.5421887682417358
  0.6235619873089976  0.9322343877054869  0.0346336119487384
  0.1320669787386886  0.6402992954362570  0.9336954978023464
  0.6048048821346339  0.0999606442369437  0.4415769367218795
  0.3392940608322596  0.3378533680588755  0.2892311657169587
  0.8301133795492169  0.9321669774773802  0.8252010091919126
  0.8410798468462052  0.1065080402364431  0.6865755816269423
  0.3800239109329511  0.6067668079188315  0.2133629840462192
  0.1302477433794976  0.3239496916233408  0.6873875304599494
  0.6529143965021535  0.8882368246903808  0.1897521570648757
  0.6419308623954080  0.1029880384054275  0.2889316631778090
  0.1401023827583988  0.6131590596313968  0.7755753037593691
  0.8953302891941886  0.1310506723523940  0.3736186513772953
  0.3548427505168931  0.6925832523121760  0.8166664741706162
  0.5541321427453668  0.1257523912287352  0.5712704129714836
  0.0494035925616633  0.6986114943452663  0.1587607082836895
  0.3916375678647109  0.3121480862812437  0.5740337386189548
  0.0875962029189267  0.8677482369881586  0.0710235051379408
  0.9689027465044239  0.3441255708677710  0.4333929925047856
  0.4050678722607445  0.8478402944757881  0.9154535555636820
  0.0811107300352055  0.3833339310402292  0.8942037203165207
  0.4038292561053512  0.8625522551563729  0.3251111900570051
  0.1162188963428456  0.6789331249120598  0.6565066275521814
  0.6187695157561783  0.3686503348269873  0.0744647516233128
  0.0625286240895289  0.7762111463237031  0.5530938115392012
  0.3897626212430559  0.2444060741721289  0.0905325073975821
  0.0260001232746720  0.1707892695013378  0.8118251024200489
  0.3992498307508222  0.6737328520205219  0.4299340989301385
  0.9219097389233422  0.8558969645173904  0.6532568724084277
  0.4577437794131253  0.3423912688061548  0.1960407630739956
  0.8728466768390148  0.3574557698657407  0.8175333627558542
  0.5632060366591775  0.8846624334533038  0.4122936804966997
  0.9051934608915061  0.1931165143843895  0.9211903831026327
  0.5509883754344189  0.6238920581814691  0.3358230531275863
  0.8761207309740620  0.6182464083921652  0.5951895565014641
  0.6089536034524498  0.1570936866755546  0.1327021914640134
  0.4178770178457926  0.1424173619963932  0.6651014744489909
  0.9262982949072349  0.6489479388577160  0.0577841381452636
  0.1354492492786002  0.1442860797898433  0.3825866213682618
  0.5571997827985912  0.6550345918046847  0.8975848098907200
  0.0165940403127833  0.3141306496802349  0.3021987084083566
  0.5599781738221459  0.8399307169136008  0.8072813839838389
  0.5804609171591929  0.3393782899999208  0.6549183349190627
  0.8427563091793794  0.8325353530213926  0.1452769219782975
 
 -0.61018357E-02 -0.18010631E-02 -0.18456777E-02
 -0.54904492E-02  0.34725280E-02  0.35257672E-02
  0.71686766E-02 -0.10703826E-01 -0.12328730E-02
 -0.79452100E-04  0.14521633E-02 -0.38932636E-02
  0.19132514E-02 -0.11169289E-01  0.38294351E-02
 -0.46332671E-02  0.51710937E-03  0.18627357E-02
 -0.71987955E-02 -0.36624107E-02 -0.83656137E-02
  0.38933571E-02  0.23006178E-02 -0.53458705E-02
 -0.35141391E-02  0.85576123E-02  0.21334916E-02
  0.41827157E-02  0.11356472E-02  0.17055328E-02
 -0.84543470E-02  0.65404765E-03 -0.10535869E-01
  0.58882140E-02  0.81522848E-02 -0.34454789E-02
  0.92266508E-03  0.55644559E-02  0.79710270E-03
 -0.10633744E-01 -0.71999771E-02 -0.39942537E-02
 -0.22538512E-02  0.21037162E-02 -0.32681294E-02
 -0.71347086E-02 -0.97026553E-02  0.33712260E-03
 -0.24857312E-03  0.36658426E-02 -0.73159677E-03
  0.11753666E-01  0.48223737E-02 -0.11882085E-01
  0.24600258E-02  0.64681942E-02  0.23850201E-02
  0.68840971E-03  0.12054758E-02  0.45492688E-02
  0.16842760E-02 -0.12257014E-02  0.11466245E-02
 -0.67649461E-02  0.45885428E-02 -0.68006629E-02
 -0.16618402E-02  0.75320908E-02 -0.62445311E-02
  0.67177315E-02 -0.46552431E-02 -0.10196799E-01
  0.38926847E-02  0.30027556E-02 -0.10182854E-01
 -0.32332324E-02 -0.84515511E-02  0.13406927E-01
 -0.11576116E-01 -0.27735356E-02 -0.62564987E-02
 -0.11654685E-01  0.54326528E-02  0.87642640E-02
 -0.36268917E-02  0.30304461E-02 -0.60231990E-02
 -0.11350808E-01 -0.27040686E-02 -0.15183497E-02
  0.12990192E-01  0.30794090E-02 -0.56905018E-02
 -0.11788062E-01  0.95084888E-02 -0.28795784E-02
  0.79979323E-02  0.49989674E-04  0.44055221E-02
 -0.81591968E-02 -0.16265323E-02 -0.63305345E-02
  0.27270794E-02 -0.48608138E-02 -0.55292257E-02
  0.12382677E-01 -0.84525105E-03 -0.26839102E-02
 -0.29503497E-02  0.13851863E-02  0.16322743E-02
  0.33834443E-02 -0.35734866E-02 -0.10310763E-01
  0.14531619E-02 -0.30360532E-02 -0.14457397E-02
  0.10542470E-01  0.17580993E-02  0.25790869E-04
 -0.16708722E-02  0.33800468E-02  0.41181631E-02
 -0.15634812E-02  0.70785525E-02 -0.13440820E-01
  0.53496544E-02  0.18082060E-02  0.35826392E-02
  0.29563940E-02 -0.48259240E-02  0.86288648E-02
 -0.12217896E-03  0.50866847E-02  0.60385705E-02
  0.59677939E-02  0.28927140E-02  0.69319747E-03
  0.12947266E-01  0.12838213E-02 -0.59598830E-02
 -0.14551013E-01 -0.88626169E-02  0.11675819E-01
 -0.18136558E-02 -0.10726432E-01  0.14904454E-02
 -0.78727667E-02  0.33167411E-02 -0.18988112E-04
  0.89627617E-02  0.60960402E-02  0.60355548E-02
  0.55567005E-02 -0.93253508E-02 -0.36031551E-02
  0.32293318E-02 -0.15935925E-01  0.18559402E-02
 -0.40373632E-02  0.34893040E-02 -0.55773473E-02
 -0.51593269E-02 -0.57452750E-03  0.53181554E-02
 -0.64989602E-02  0.21358169E-02 -0.86548262E-02
  0.11366596E-02 -0.14767305E-02 -0.76662947E-03
  0.13867723E-03 -0.27222464E-02  0.48205109E-02
  0.45454560E-02  0.15956343E-02 -0.66611159E-03
  0.92516124E-02  0.29494398E-02 -0.10461389E-01
 -0.63265243E-02  0.11145308E-01  0.85944146E-02
  0.75465965E-03 -0.39229375E-02  0.77063444E-02
 -0.70849111E-02  0.16965534E-02  0.10670842E-02
  0.25777356E-02 -0.34179821E-02  0.81104898E-02
  0.40752803E-02  0.63220188E-02  0.22694516E-02
 -0.25885944E-02  0.49430751E-02  0.63430695E-02
  0.51559012E-02 -0.55636175E-02 -0.18294370E-02
  0.38718806E-02  0.61025057E-02  0.29675475E-02
  0.77260207E-02 -0.58168534E-02 -0.64192653E-04
 -0.14844663E-02 -0.32522388E-03 -0.41640772E-02
 -0.10411737E-01 -0.56500353E-02 -0.25796020E-02
 -0.13464601E-01  0.30288617E-02 -0.10475906E-02
 -0.15134661E-02  0.98424882E-02  0.84691139E-02
 -0.12465971E-02 -0.77879276E-04 -0.38128897E-02
 -0.22769372E-03 -0.14768643E-01  0.33454087E-02
  0.14055574E-02 -0.49154532E-03  0.40458085E-02
  0.44540151E-02  0.86414186E-02  0.65554555E-02
 -0.99310777E-02 -0.13422283E-02  0.18919182E-02
 -0.95192174E-02  0.33632826E-02  0.81819170E-02
  0.60448531E-02 -0.22266902E-02 -0.45413908E-02
  0.18474207E-02 -0.17513006E-02 -0.83397641E-02
  0.64043768E-03 -0.78006820E-02 -0.63862392E-02
 -0.66277367E-03 -0.38276916E-02  0.58764814E-02
 -0.45018449E-02 -0.10041684E-02 -0.15166740E-02
  0.32931308E-02  0.98282287E-02  0.35481810E-02
 -0.98875013E-03  0.64832158E-02  0.51406817E-03
  0.17451948E-02  0.44667813E-02 -0.12011522E-02
  0.55867911E-03 -0.34352668E-02  0.16377201E-02
 -0.16933820E-02  0.22336819E-02  0.82151489E-03
 -0.12011966E-02 -0.38114694E-03 -0.66116179E-02
  0.10439816E-02 -0.21319477E-02 -0.14616090E-02
  0.23657598E-02 -0.26463485E-02  0.28507188E-02
  0.19909842E-02 -0.17445316E-02 -0.36832407E-02
 -0.13644129E-02  0.14986563E-02 -0.47712173E-03
 -0.28647234E-02 -0.14907660E-02 -0.41735838E-02
  0.51025404E-02  0.83559225E-03  0.24793042E-02
 -0.37644332E-02 -0.24668638E-02  0.21665015E-02
 -0.39578499E-03 -0.37122809E-02 -0.19865468E-02
 -0.58768714E-02  0.87738129E-03 -0.48957817E-03
  0.22248329E-02 -0.18383526E-03  0.44992633E-03
 -0.84893197E-03 -0.35949539E-02 -0.96244911E-03
 -0.11657078E-03  0.54213082E-03 -0.10484895E-03
 -0.15092175E-03  0.43171924E-02  0.21278818E-02
  0.62377572E-02 -0.53856148E-02 -0.30855336E-02
 -0.12263521E-01  0.54042932E-02  0.94443162E-03
  0.11578618E-02 -0.24225528E-02  0.47297198E-02
 -0.53125712E-04 -0.96129548E-02  0.83128985E-05
 -0.83439577E-02  0.70490508E-02  0.21117810E-02
  0.25374471E-02 -0.10913823E-02  0.24621612E-02
  0.41804896E-02  0.28311900E-02  0.21945960E-02
 -0.24994025E-02  0.43236686E-02 -0.44253271E-02
  0.46004377E-02 -0.52597041E-02  0.58324561E-02
  0.32878823E-02  0.27266745E-03  0.52306936E-02
 -0.30552413E-02  0.49783133E-03 -0.15741986E-02
 -0.13642325E-02  0.12843978E-02  0.14545274E-02
 -0.16987483E-03  0.47269220E-03  0.37332310E-02
 -0.34637381E-02  0.52656201E-04 -0.29632225E-03
  0.43294926E-02  0.20920635E-02  0.12134164E-02
  0.50136793E-02  0.56724395E-02  0.43013186E-03
  0.12723251E-02  0.43659462E-02  0.23218343E-02
 -0.83246327E-02  0.32840601E-02  0.91918156E-03
 -0.52367882E-04 -0.15699684E-02 -0.31964469E-02
  0.17368727E-03 -0.28123684E-02  0.37554017E-02
 -0.62233812E-03 -0.25327741E-02  0.21346673E-02
  0.89174619E-02  0.14395386E-02  0.25426730E-02
 -0.50384724E-02 -0.25764986E-02 -0.12443470E-02
  0.45654323E-02  0.34547840E-02 -0.40406284E-02
  0.43563467E-02 -0.23123114E-02  0.35838725E-02
  0.69924629E-03  0.45189990E-02 -0.15340561E-02
  0.47442402E-02 -0.30593311E-02 -0.22104779E-02
  0.38008181E-02  0.70509239E-02  0.58318041E-03
  0.12640975E-02  0.29222032E-02 -0.40543240E-03
 -0.67904976E-02  0.24001568E-02 -0.44330266E-03
 -0.27794158E-02 -0.32022677E-02 -0.75703265E-03
 -0.10223242E-02 -0.16048992E-02  0.15859966E-02
 -0.31307340E-02  0.22659049E-02 -0.22476509E-02
 -0.16605147E-02 -0.43089201E-02 -0.27965002E-02
 -0.15542657E-02 -0.29053409E-02 -0.26707115E-02
 -0.88798467E-03 -0.13236050E-02  0.86589509E-03
 -0.32999476E-02  0.10042350E-02 -0.71837701E-02
 -0.33773640E-02 -0.12033787E-02  0.50054967E-02
 -0.76948595E-03 -0.11852556E-01  0.16936486E-02
 -0.16279481E-02  0.34823754E-02  0.13512814E-03
 -0.31874141E-02  0.15259893E-02  0.23747100E-02
 -0.11590300E-02  0.12142766E-02 -0.66577075E-03
 -0.79359297E-03  0.17574482E-02  0.41895066E-02
 -0.49698446E-02  0.29255758E-02 -0.51341781E-02
  0.57193174E-02  0.19883288E-02  0.28290656E-02
  0.52071345E-02  0.72658470E-03  0.26063641E-02
  0.11650134E-02 -0.32246062E-02 -0.59242938E-02
 -0.41879177E-02 -0.22105924E-03  0.62107894E-02
  0.59035669E-03  0.10646999E-03 -0.22968521E-02
 -0.13221368E-02  0.21142004E-02  0.89297179E-04
 -0.28121019E-02  0.18819800E-02 -0.39960493E-02
 -0.23272835E-02 -0.43693357E-05  0.45768455E-02
  0.31616670E-03  0.42267132E-02  0.39903586E-02
  0.35935765E-02 -0.39467177E-02  0.66808305E-02
 -0.41644385E-02  0.96277302E-03 -0.28082292E-03
 -0.69335431E-03 -0.22242340E-02 -0.23571409E-02
  0.61356723E-02 -0.44858588E-02  0.41599776E-02
  0.22472306E-02  0.18980389E-02 -0.33165740E-02
  0.40326890E-02 -0.32746593E-03  0.26331822E-02
 -0.10469368E-03 -0.21009020E-02  0.15896882E-03
  0.40153743E-02  0.15897630E-02  0.78444201E-02
  0.81563999E-03 -0.44484344E-03 -0.10213854E-02
 -0.94545315E-03 -0.33755300E-02 -0.45031061E-02
 -0.81400286E-03  0.29329077E-02  0.79704084E-04
 -0.17622127E-02  0.75204304E-04 -0.28289986E-02
  0.22977322E-02 -0.29241663E-03  0.22543372E-02
  0.31903003E-02  0.74074802E-03  0.83443811E-03
  0.52244925E-02  0.53328013E-02 -0.10710367E-01
 -0.21902938E-03 -0.46693732E-02 -0.56783698E-02
  0.11274917E-02  0.66816521E-02 -0.23873503E-02
 -0.62672007E-04 -0.30640024E-03 -0.31183442E-02
  0.19075147E-02 -0.97073004E-03  0.18920162E-02
 -0.29096549E-02  0.12971333E-02  0.25410119E-02
 -0.30578159E-02  0.97723855E-03  0.74251507E-03
  0.68378561E-03 -0.38873771E-02 -0.27109347E-02
 -0.15631085E-02  0.25952716E-03 -0.29931871E-02
  0.23632457E-04  0.49129962E-03  0.92708057E-03
 -0.35926291E-03  0.28562808E-02  0.38187388E-02
  0.59946214E-03 -0.78147638E-03 -0.27933236E-02
  0.35177936E-02 -0.30597507E-02  0.55452839E-02
 -0.25010606E-03 -0.49994961E-02  0.25261891E-02
  0.31597196E-02 -0.36736559E-02  0.23630779E-02
  0.34040117E-02  0.99988546E-03  0.47405458E-02
 -0.17219984E-03  0.51340782E-02  0.64155352E-02
 -0.32302410E-02 -0.40460328E-02 -0.42745650E-02
  0.15999146E-02  0.46976080E-02 -0.13192799E-02
  0.21983861E-03 -0.15638490E-03  0.32544580E-02
  0.60341909E-02  0.12643503E-02  0.13131943E-03
 -0.12670296E-02 -0.15431743E-02 -0.40323488E-02
  0.14603189E-02 -0.17456190E-02  0.39962096E-02
 -0.21258622E-02  0.29782067E-02 -0.18330649E-02
  0.41131132E-02  0.48781780E-02  0.47347894E-02
 -0.38548861E-02 -0.18786680E-02  0.10278074E-02
 -0.34999667E-02  0.11163188E-02  0.47016796E-02
  0.54751628E-03 -0.10844851E-03 -0.58011114E-02
  0.16454788E-02 -0.14491655E-02 -0.23466337E-02
 -0.53480712E-02  0.11198494E-02 -0.28863914E-02
  0.25846551E-02  0.16678353E-02 -0.34890476E-02
 -0.14956955E-02 -0.52894294E-02  0.21981324E-02
  0.53215230E-02 -0.24744118E-02  0.22639590E-02
  0.11728645E-02  0.20733726E-02 -0.25061852E-02
 -0.50887635E-02  0.11316406E-02  0.33891549E-02
  0.24605273E-02 -0.10555867E-02  0.23367310E-02
 -0.14236345E-02  0.19134522E-02 -0.27783699E-02
 -0.10742377E-02 -0.17606397E-05 -0.54702480E-03
 
           1
   2.00000000000000     
  0.96187470E+00  0.59849037E-03 -0.20750954E-17  0.00000000E+00
  0.32173855E-01  0.40282287E-01  0.86767951E-03
  0.73657112E+00  0.99413639E+00  0.60935379E+00
  0.45862359E+00  0.50341376E+00  0.85037956E+00
  0.66381642E+00  0.73779220E+00  0.59661853E+00
  0.18930514E+00  0.18322672E+00  0.87895066E+00
  0.24596798E+00  0.24992440E+00  0.50317940E+00
  0.80509648E+00  0.22778623E+00  0.29706006E+00
  0.20310352E+00  0.72153843E+00  0.22173475E+00
  0.49156377E+00  0.24239063E+00  0.49705053E+00
  0.76255024E+00  0.26497866E+00  0.16576028E+00
  0.74276229E+00  0.10160356E-01  0.36623387E+00
  0.17741154E+00  0.19376173E+00  0.76297727E+00
  0.99220214E+00  0.20995440E-01  0.12266307E+00
  0.20634968E+00  0.81696086E+00  0.87621023E+00
  0.97039011E+00  0.21884577E-01  0.87350859E+00
  0.30479091E+00  0.41457092E+00  0.10806758E+00
  0.73106169E+00  0.71935823E+00  0.34093320E+00
  0.73492476E+00  0.46040558E+00  0.62616340E+00
  0.52952097E+00  0.51257610E+00  0.12309015E+00
  0.46805017E+00  0.20069208E-01  0.73091248E+00
  0.48649995E+00  0.49377384E+00  0.73891300E+00
  0.21692904E-01  0.21248107E+00  0.50034886E+00
  0.80737479E+00  0.73888708E+00  0.32872028E-02
  0.95588957E+00  0.51396270E+00  0.51095380E+00
  0.26254997E+00  0.33056628E-01  0.11976783E+00
  0.23619190E+00  0.72850780E+00  0.72782138E+00
  0.67190209E+00  0.79860029E+00  0.10193912E+00
  0.33628617E+00  0.20561220E+00  0.37373740E+00
  0.46208715E+00  0.49827225E+00  0.48097655E+00
  0.30940716E-01  0.78464351E-01  0.26901112E+00
  0.16098091E+00  0.94040867E+00  0.62017265E+00
  0.71488863E-03  0.74347943E+00  0.73870046E+00
  0.28129531E-01  0.50940444E+00  0.10546238E+00
  0.24729853E+00  0.43413844E+00  0.60649635E+00
  0.34758006E-02  0.77429031E+00  0.96998366E+00
  0.13160307E-01  0.48174097E+00  0.65194555E+00
  0.52447217E+00  0.18729617E+00  0.23100718E+00
  0.49553207E+00  0.13569286E-01  0.32832165E+00
  0.23428985E+00  0.52534870E+00  0.85335953E+00
  0.99193292E+00  0.97205764E+00  0.50808891E+00
  0.26209273E+00  0.72085208E+00  0.36341953E+00
  0.45168093E+00  0.25404196E+00  0.75612535E+00
  0.71927191E+00  0.75285970E+00  0.81840702E+00
  0.93220536E+00  0.76441169E+00  0.23630262E+00
  0.26826495E+00  0.73323200E+00  0.99568838E-01
  0.87069162E+00  0.72838334E+00  0.51082434E+00
  0.81966681E+00  0.70256659E+00  0.69400827E+00
  0.25668313E+00  0.29214426E+00  0.99048712E+00
  0.98656399E+00  0.30299424E+00  0.98702993E+00
  0.16443805E-01  0.54798979E+00  0.21429639E+00
  0.47971893E+00  0.95676085E+00  0.61420802E+00
  0.50551012E+00  0.99009893E+00  0.12854033E+00
  0.47430443E+00  0.50756460E+00  0.60046707E+00
  0.51233415E+00  0.11341530E+00  0.28503058E-01
  0.96738895E+00  0.14894336E-02  0.74760038E+00
  0.47619230E+00  0.34563899E-01  0.88371452E+00
  0.27029011E+00  0.23992022E+00  0.16825108E+00
  0.71991641E+00  0.23515108E+00  0.55776986E+00
  0.70672351E+00  0.13803238E-01  0.88408372E+00
  0.23646872E+00  0.22697197E+00  0.61803571E+00
  0.50588089E+00  0.31687208E+00  0.99121504E+00
  0.28372419E+00  0.73143200E+00  0.49018836E+00
  0.39876926E-03  0.52447022E+00  0.97543780E+00
  0.50534328E+00  0.97966784E+00  0.48668623E+00
  0.25225765E+00  0.96297500E+00  0.36199843E+00
  0.29661795E+00  0.73718361E+00  0.62391312E+00
  0.98666151E+00  0.61865465E+00  0.36904607E+00
  0.93964889E+00  0.26455852E+00  0.72782617E+00
  0.81541094E+00  0.46062679E+00  0.37772137E+00
  0.71825147E+00  0.52460247E+00  0.85521878E+00
  0.18695616E+00  0.20902750E+00  0.26601391E+00
  0.50070670E+00  0.53958394E+00  0.97234187E+00
  0.51996539E+00  0.74395069E+00  0.23980405E+00
  0.68480164E+00  0.22216720E+00  0.71031422E+00
  0.78396902E+00  0.55554153E+00  0.11630516E+00
  0.45132730E+00  0.48391980E+00  0.37475341E+00
  0.29583743E+00  0.78264818E+00  0.97718169E+00
  0.62361646E+00  0.70617206E+00  0.45585848E+00
  0.72835695E+00  0.10118286E-02  0.11743930E+00
  0.74295289E+00  0.23607827E+00  0.84004610E+00
  0.76890094E+00  0.26270217E+00  0.98844318E+00
  0.78812064E+00  0.24478207E+00  0.44451294E+00
  0.48006777E+00  0.76218819E+00  0.72621133E+00
  0.50072127E+00  0.79433540E+00  0.99679368E+00
  0.99635138E+00  0.55863412E+00  0.84744193E+00
  0.20949976E-01  0.95910420E+00  0.39471764E+00
  0.16148216E+00  0.42381752E+00  0.37247662E+00
  0.53989677E+00  0.51143995E+00  0.25272579E+00
  0.24264560E+00  0.96178442E+00  0.22913947E+00
  0.72246998E+00  0.48854283E+00  0.74293067E+00
  0.20072567E+00  0.96469112E+00  0.74551699E+00
  0.78587013E+00  0.50325060E+00  0.23867508E+00
  0.29563547E+00  0.43012797E-01  0.99169962E+00
  0.71994504E+00  0.48948340E+00  0.49720157E+00
  0.23907574E+00  0.98958442E+00  0.50531655E+00
  0.74637434E+00  0.51316239E+00  0.97631922E+00
  0.73821924E+00  0.68367384E-02  0.74861040E+00
  0.27203274E+00  0.47859332E+00  0.24639080E+00
  0.22051301E+00  0.46028934E+00  0.73313161E+00
  0.76801904E+00  0.98920128E+00  0.25023313E+00
  0.19370808E+00  0.47581426E+00  0.48416414E+00
  0.75734424E+00  0.12975481E-01  0.98899549E+00
  0.73030071E+00  0.99642661E+00  0.48997642E+00
  0.24200802E+00  0.54325835E+00  0.98678336E+00
  0.59314584E-02  0.24257565E+00  0.37541071E+00
  0.47982847E+00  0.75400267E+00  0.85396709E+00
  0.50107991E+00  0.22773952E+00  0.61428602E+00
  0.96376603E+00  0.76977859E+00  0.10249248E+00
  0.97470804E+00  0.28911610E+00  0.86248306E+00
  0.47506114E+00  0.75878379E+00  0.37768122E+00
  0.98004393E+00  0.73655955E+00  0.61076354E+00
  0.52560462E+00  0.29261957E+00  0.12317705E+00
  0.14477533E+00  0.44286301E+00  0.34224821E-01
  0.63306150E+00  0.88836684E+00  0.54375150E+00
  0.63124504E+00  0.11427050E+00  0.94833757E+00
  0.10587787E+00  0.61181365E+00  0.44643739E+00
  0.34021584E+00  0.43513263E+00  0.93084986E+00
  0.83171516E+00  0.87658376E+00  0.43658431E+00
  0.86130342E+00  0.11643540E+00  0.41555037E-01
  0.31203146E+00  0.56285057E+00  0.53362006E+00
  0.87405615E+00  0.10144202E+00  0.20784887E+00
  0.35121395E+00  0.57994894E+00  0.68529517E+00
  0.84533220E+00  0.88542202E+00  0.30739843E+00
  0.31300061E+00  0.37833388E+00  0.79793558E+00
  0.15543865E+00  0.56257742E+00  0.30864374E+00
  0.60886511E+00  0.10597320E+00  0.78679184E+00
  0.17495219E+00  0.39874840E+00  0.18239191E+00
  0.62700941E+00  0.89027048E+00  0.70576836E+00
  0.83109552E+00  0.61994238E+00  0.91477470E+00
  0.35015838E+00  0.66611794E-01  0.43578020E+00
  0.84206888E+00  0.37421055E+00  0.53434619E+00
  0.36962418E+00  0.93111659E+00  0.49222490E-01
  0.12725349E+00  0.74840080E-01  0.56345236E+00
  0.65157023E+00  0.63671286E+00  0.34025717E-01
  0.15357293E+00  0.97669805E+00  0.92948307E+00
  0.62487830E+00  0.39437040E+00  0.44431092E+00