Na88 Ge16 P8 S96                        
   1.00000000000000     
    13.3422163233000006    0.0000000000000000    0.0000000000000000
     0.0000000000000000   13.3422163233000006    0.0000000000000000
     0.0000000000000000    0.0000000000000000   26.6844326466999995
   Na   Ge   P    S 
    88    16     8    96
Direct
  0.9836938187824574  0.7263715077739975  0.2675043839682020
  0.4461157456205834  0.5058108931111881  0.7480509305094418
  0.6462391290957527  0.7491109104547443  0.7623079538287114
  0.0173868556975111  0.4429986922416328  0.5132536023952349
  0.5143225529548806  0.9881066333354401  0.9155766132634474
  0.2622711619378453  0.6935642096768987  0.4935620902533463
  0.2162029721103972  0.8030671503823736  0.1150621437256227
  0.2252398525808391  0.2389445134949888  0.2559513199686103
  0.0205363340896130  0.0543774403431883  0.6316687098048882
  0.7325175024224594  0.2580133988634055  0.8449316249118064
  0.7841450642781599  0.9972521153021158  0.3789371737237606
  0.3135528697637471  0.7074653737278768  0.6296624083579713
  0.5078606348752249  0.9757905200011955  0.2304314392576656
  0.2573668976567692  0.4449767198616234  0.6404367002024460
  0.9755717385746452  0.9947727934107644  0.0009634474038480
  0.4798530425033158  0.4910650791975369  0.3601851904288595
  0.0184901175848893  0.9348974992720545  0.5161033610423476
  0.0190476293366926  0.4451648644635082  0.6389035271213779
  0.9779335593181574  0.2671288394252454  0.2467437123904334
  0.9909019193092664  0.5171914209867233  0.8817311807498379
  0.3945376887558342  0.9474646778892082  0.3850080708617682
  0.0603717156232276  0.0051391148742722  0.3663669261199632
  0.4493512922534368  0.5859318485790290  0.9570399108507662
  0.7396736369385091  0.5219786342221031  0.6233407747795433
  0.2123049258976027  0.7697960829509454  0.0047092088906352
  0.2607410421153835  0.2006612488617634  0.6131156517754411
  0.4995770207022825  0.4359964792387764  0.2220445123715275
  0.2156202348862072  0.2114876776938406  0.5046960443934241
  0.5083275692575973  0.7097461978223374  0.5121398993394617
  0.7377168793802629  0.9915073105782694  0.1415041782132775
  0.2558128337388047  0.1887490862832566  0.3884346396159429
  0.7509343613918866  0.9864553883450075  0.6294540773250266
  0.0057355867605798  0.4686436806752430  0.3353487270845021
  0.5207833483256890  0.9822393616297050  0.7527144477703066
  0.9830598351875878  0.2518905481846218  0.0130909605478784
  0.8220880820394275  0.2709003333399328  0.4744890059309823
  0.5495019982883461  0.0637566726229110  0.0558474458830940
  0.6728480000018082  0.2120629684543525  0.2247248321080337
  0.0294247345831994  0.0206233575899672  0.7543163837078830
  0.5206085066272667  0.7444762462751991  0.2499069332128254
  0.9843881582759142  0.9986144930669376  0.2385195212594695
  0.4858655251565588  0.8316860871327284  0.0084403449865239
  0.4847522051048384  0.9716732615165676  0.6173029729281272
  0.9899701957972824  0.5109736016748915  0.1997428325360237
  0.2828649220393294  0.9969630785478236  0.8819248776997900
  0.7292386583711831  0.7570988412797389  0.3729604338147436
  0.7725538459742031  0.7623717461281142  0.4945794742776617
  0.2271298427742217  0.2804639944968486  0.9863366260751821
  0.0017040512570313  0.0099771445580373  0.8702626556820997
  0.7342430749617492  0.2398856597259462  0.1082918777402202
  0.9747399784531108  0.5091943274632360  0.7417014756001294
  0.3327480283394484  0.0401013947961575  0.1322068000330808
  0.5703321997520913  0.2564884033676054  0.4743897283578283
  0.7242269271489116  0.7037334398406776  0.0010036621622873
  0.7702429340793729  0.2412358010190910  0.5955436453349298
  0.2214705913011829  0.7578853135666150  0.8732923551488581
  0.6885233024728489  0.6929439818107686  0.1098132145235421
  0.4913230218523250  0.4943861914924795  0.4903778473719092
  0.2216223016766011  0.4915175538733377  0.8889339136808222
  0.4856594089880772  0.2031255788236839  0.3042105881071662
  0.2141959262471587  0.2426015653199011  0.7575374520886705
  0.0160712054461204  0.6932139022841305  0.4931265802577900
  0.7566962215313835  0.2223673275886604  0.9735775288933284
  0.5246647484964786  0.0022219125876105  0.4882860822807076
  0.7540507820623329  0.2345452406701197  0.3533492714789899
  0.6279133285671237  0.5136020758635940  0.8629819497093898
  0.4377420889468410  0.4997887522942462  0.1206449152052863
  0.6330550938213808  0.2752988996816326  0.7072590958995247
  0.7673543997123985  0.7329886924919298  0.2562313676572446
  0.9575686254731378  0.2755641022976197  0.7414439043016915
  0.2016984623128576  0.2590444904253528  0.1363214761158552
  0.9262713604600875  0.7518890927110592  0.7532735983365066
  0.4912929619928465  0.3288270949510825  0.0077453424301130
  0.7677047373615179  0.7451182954646297  0.6574365286551507
  0.7505553696690208  0.0149778010647887  0.8789931035732265
  0.2031586682817705  0.7666988848069557  0.3523843143733541
  0.3134399305964471  0.7352131545237552  0.7620379283084717
  0.7284255269273421  0.4910355354780429  0.3663346288517483
  0.1807677743076208  0.5098242178940491  0.1170136460237814
  0.4922602808789601  0.5040050006330814  0.6134525301808752
  0.9809814233150510  0.0121641240474273  0.1099833650043534
  0.2316326832130355  0.7447114232189737  0.2429044494652934
  0.7298691947185516  0.7565652463909889  0.8640664156886113
  0.9590445849683323  0.5235018675519122  0.0057254758054748
  0.2080859336964581  0.9292841434310315  0.6312902847651788
  0.7533327795578773  0.4817116915495733  0.1127979916725250
  0.3381557789817858  0.2414403907179631  0.8596402548112316
  0.2307105042801909  0.4599389242789723  0.3856255179463689
  0.2363065408247927  0.9835557309708077  0.2470718242622319
  0.7121151844378635  0.5002351045748008  0.7475940367920542
  0.2656725992589939  0.9721319013059236  0.7550580495123629
  0.7452978699777133  0.4871072618655540  0.2380660495372406
  0.2274482001214776  0.0198152301675445  0.9974940659732885
  0.7541231067759746  0.4855817359946193  0.5043546624625890
  0.2603865401680734  0.9354091579234169  0.5040330275152666
  0.7126871950236250  0.4656898646269916  0.9761199768162595
  0.7586577685460025  0.9963907926489297  0.7528462135093855
  0.2499602290212318  0.5117386478244343  0.2538797446550498
  0.2135055858795592  0.4952170460646564  0.7623654073415264
  0.7450683491171741  0.9713594570377833  0.2623962513166236
  0.2501868495311729  0.4614638867986341  0.5054756792501196
  0.7318617230129986  0.9784713201103263  0.9942817342678542
  0.7545055154675614  0.0056842183978816  0.5019273970330942
  0.2502009200143829  0.5152268437377848  0.0129381916939734
  0.0254926596656408  0.2338413730892683  0.3847068132706074
  0.4732439016262185  0.7370191551625999  0.8835916054214871
  0.4997116711547245  0.2463368452198312  0.6078434308549731
  0.9852199131417430  0.7325780707614483  0.1225352252713137
  0.9909024264468149  0.2618516189397546  0.8711004976195417
  0.4951789161310696  0.7328848539379099  0.3751399272509006
  0.0087898559980762  0.7406282763737324  0.6249582480329918
  0.4591249491831302  0.2417819488809408  0.1389694911681087
  0.1293294603432876  0.4093143581403211  0.0506551814402261
  0.6556887540075041  0.9064652508916609  0.5515393255223191
  0.6274797060476627  0.0844647201037192  0.9603607635426538
  0.1352382718477722  0.5384390744864458  0.4596083257993823
  0.3490019035657469  0.4369900621121269  0.9604583408860433
  0.8577475185231150  0.9042182418504995  0.4586670655770901
  0.8310515710866182  0.0739215801061332  0.0500049403317970
  0.3431241898434876  0.5726951697286060  0.5554930227093300
  0.8043067538618586  0.0975107389285290  0.2081094956234213
  0.3019805111417556  0.5970192337895611  0.7039975021586492
  0.8516934509221636  0.8864627423420179  0.3062596847111131
  0.3072708037462104  0.4178861025513195  0.8138294646146690
  0.1504746170425367  0.5839272962674467  0.3075462879221904
  0.6712880872754462  0.0855765178151766  0.7940518164256719
  0.1555854553094643  0.4060864270632800  0.2054516857976691
  0.6589821407307715  0.9074344740554598  0.7043234606226831
  0.8124074560240275  0.5629237001774180  0.9232738149290847
  0.3431249230305695  0.0483542261323907  0.4643182368823328
  0.8380079556900879  0.3933972314416446  0.5518796520663048
  0.3146633443665438  0.9182421450608969  0.0503892281563371
  0.1763792998920326  0.0261614387834708  0.5547760168998122
  0.6198474671596457  0.5240117554167796  0.0376457617986899
  0.1494332749804853  0.9177167455767535  0.9453633868488823
  0.6668927978316906  0.3932635439638162  0.4368553579652295
  0.6531787361493995  0.3798609203381311  0.2855638073984855
  0.1590880659535476  0.8729627393069161  0.7990977717817895
  0.1851446647991723  0.0886248088406471  0.6967106311948810
  0.6474609966211513  0.5868100858085435  0.1942967436727015
  0.8220842741076705  0.4038162027256696  0.7009682950000500
  0.3405650903154938  0.8855130541422451  0.2025039518687296
  0.3221485114566897  0.0758863555818782  0.3124275824937503
  0.8053397865363154  0.6186419458130927  0.7866049165161059
  0.1176636771892799  0.1212585600029401  0.0467225631412257
  0.6627778871924115  0.6044570367490745  0.5479855369846686
  0.6170350571866243  0.3549500929388488  0.9287873674790326
  0.1614955725983185  0.8460399518175078  0.4459560084562632
  0.3389613843242257  0.1253064126053131  0.9583395038578529
  0.8630772688399825  0.5753253108426282  0.4631435995471014
  0.8302591943877135  0.3760658481185539  0.0248941304322706
  0.3661042406498086  0.8657299013972340  0.5495484930167088
  0.1498074535004000  0.0931980777357496  0.2080549071885203
  0.6068156305205690  0.5902283003917256  0.6925627991369762
  0.1200775929233996  0.8878829085313387  0.2889504974547796
  0.6107340803308330  0.3859640284335425  0.7800927248434530
  0.8504952950786958  0.5421188216058646  0.2925025591088043
  0.3540709035262151  0.0812350583094646  0.7982594888728330
  0.8226798473079163  0.3679487249970657  0.1853340682379923
  0.3614096781372190  0.8812931348475951  0.7013703827064662
  0.8280757168158639  0.8885601447597258  0.9513207686532601
  0.3640909892719393  0.3628190949693698  0.4657260200868014
  0.8604206343601893  0.1072099840202423  0.5467075279257765
  0.3468423016060811  0.6025029263538663  0.0655382307171602
  0.1713736593210166  0.3542388006697942  0.5643777626243203
  0.6536458792213579  0.8763086743449782  0.0498978871875498
  0.1334941953123487  0.6020915134269933  0.9678829842780591
  0.6870395298970683  0.1050566221212316  0.4475539437748721
  0.3328108040860621  0.4121562581689261  0.3089804237235794
  0.8619522186410725  0.9093759132739662  0.8037357712316445
  0.8650026902535271  0.0892962335594701  0.7088171013174493
  0.3552881023582912  0.5816364934847131  0.2046536940564404
  0.1282294771563660  0.3804507118126570  0.7108576116672675
  0.6591889258526842  0.8586278158910381  0.2162672544831555
  0.6217292594028840  0.0530807233155875  0.3003967879800695
  0.1208091878373697  0.6035543301958145  0.8087119018699900
  0.9458443197505603  0.1528860879340723  0.3322338681849656
  0.5486265963094525  0.8450587688881035  0.8402759751746015
  0.5968766366906865  0.3372806422814189  0.5697659754004060
  0.0274954573795968  0.8236700931498411  0.0672708644988067
  0.4120158295728958  0.3114143746607864  0.6593658550063786
  0.9262599684222089  0.8456748634979622  0.1703367826860636
  0.0822732573215557  0.1442241339964296  0.4345997672360961
  0.4097973131542640  0.6335891951569766  0.8425831332389433
  0.0690770479198084  0.3311171859455314  0.9272588130564557
  0.4143200206072518  0.6461137261973482  0.4231986337815966
  0.0731519643159871  0.8160352919120051  0.6856933780174772
  0.3927287308261782  0.2798342221078382  0.2052925130942478
  0.1285085764345831  0.6912406915446518  0.5812673857528230
  0.5577443983045016  0.1069375344969809  0.1578088293931780
  0.8900980368585546  0.1691177021704862  0.9076271892855580
  0.3980188276902993  0.7950636759960250  0.3289507520968464
  0.9120426010817904  0.8225888351106205  0.5775186759230048
  0.5593115399764660  0.3535067729674213  0.1266694970897354
  0.0817103009777363  0.1811122209749055  0.8293343296286405
  0.6064365179588860  0.6468375680095779  0.3359713220434112
  0.8910411931808322  0.3513830281102974  0.8278920465855187
  0.5747686537090604  0.8272914666610320  0.4243356766722690
  0.9246696651014756  0.6160748112401851  0.6467983969858629
  0.3743411380235100  0.1921654149763773  0.0754863530609644
  0.4187896899951679  0.1528740544237050  0.5575959358098695
  0.8783164312716173  0.6417679836619243  0.0887863069642061
  0.1271347308016830  0.2963804406220380  0.3419947987076951
  0.5896437302024835  0.6875233147319602  0.9307599779884720
  0.9242741222879811  0.3396989543112688  0.4040992232028627
  0.3766729840888347  0.8232276233093049  0.9244276470754783
  0.5858516378039021  0.1344611127014138  0.6447842879682141
  0.0929225571340233  0.6752475000658091  0.1652755657576110
 
  0.51184686E-04 -0.66776046E-04  0.92207101E-03
  0.12109871E-01 -0.17388893E-02  0.55023103E-02
  0.23980542E-02  0.65156701E-02  0.11509020E-01
  0.65182429E-02  0.12557143E-02 -0.16066477E-02
  0.11527868E-02  0.31309901E-02  0.62875292E-02
 -0.58453506E-02  0.15704307E-01  0.19935753E-02
 -0.23886719E-02  0.10358232E-01 -0.11076089E-02
  0.14617375E-02  0.34337790E-03 -0.48601203E-02
 -0.15030282E-02  0.15951888E-02  0.32009495E-03
  0.90722841E-03 -0.10330218E-01  0.69296332E-02
  0.54559711E-02 -0.17794344E-02 -0.88304183E-03
 -0.34839710E-02 -0.73939489E-02  0.11455518E-01
 -0.45758613E-02  0.21328709E-02 -0.72700360E-02
  0.18928050E-02 -0.18049432E-02  0.63595438E-02
 -0.28090752E-02 -0.44779743E-02 -0.50139303E-02
 -0.45471601E-02  0.20672657E-03 -0.32923163E-02
 -0.17003988E-02  0.51142313E-02  0.87401666E-02
 -0.87064839E-02 -0.14762520E-02  0.26544263E-02
 -0.30044792E-02 -0.32628185E-02 -0.18357189E-02
 -0.45468298E-02  0.60195515E-02  0.83171701E-02
  0.26903278E-02  0.80063934E-03  0.28716018E-02
  0.20638804E-02  0.58450031E-02  0.16086809E-02
 -0.88153904E-02  0.44413730E-03  0.85048439E-02
 -0.30972439E-02  0.54787379E-02 -0.41498132E-02
  0.48817038E-02 -0.68022295E-02 -0.39932705E-02
  0.29535693E-02  0.40971646E-02 -0.79376699E-02
  0.57308462E-02 -0.11320825E-02 -0.73251071E-02
 -0.66074926E-02 -0.43313577E-02 -0.24155332E-02
  0.54036857E-02  0.15942280E-02 -0.22837446E-02
 -0.48915892E-03 -0.25110541E-02  0.14530545E-02
 -0.30327305E-02  0.92178011E-02  0.10754307E-01
 -0.53947903E-02 -0.18956603E-02  0.17171079E-01
  0.50897595E-03 -0.13944208E-01  0.23169207E-02
  0.29722095E-02  0.59138902E-02 -0.49895443E-02
 -0.51979322E-03  0.19462648E-02  0.23868504E-02
  0.11974383E-02 -0.38443105E-02 -0.72491852E-02
  0.84688569E-03 -0.25216509E-02 -0.53287703E-02
  0.61003059E-02 -0.20487451E-02  0.37465256E-02
 -0.45885489E-02  0.10207934E-01 -0.29463088E-02
  0.75283917E-02  0.33471731E-02  0.32176320E-02
  0.36082101E-02 -0.27986381E-02  0.38804770E-02
 -0.56056138E-02  0.23218315E-02 -0.35927231E-02
  0.29801162E-02  0.24361808E-02 -0.59748365E-02
 -0.35502974E-02  0.27051047E-02 -0.51596300E-03
  0.26733728E-02  0.66345873E-02  0.41183595E-02
  0.26956050E-02  0.61272898E-02  0.10244203E-03
 -0.69705429E-03 -0.29565815E-02  0.88392211E-02
 -0.39949376E-02 -0.10906065E-01 -0.19500978E-02
  0.50181046E-02 -0.77380565E-03  0.94477758E-03
  0.42930247E-02 -0.64595582E-02 -0.94140823E-02
  0.53625809E-02 -0.85842427E-02  0.94093710E-03
  0.61297215E-02 -0.55019636E-02  0.39382303E-02
  0.87102684E-03  0.62950254E-03  0.84606464E-02
  0.52871909E-02 -0.16652636E-02 -0.70096026E-02
  0.68550395E-02 -0.37580294E-03  0.19696871E-02
 -0.58418555E-03  0.10937744E-01  0.11572570E-02
  0.17430108E-02 -0.20015306E-02  0.22153784E-02
  0.16832975E-02 -0.19906684E-02 -0.20931175E-02
  0.49625342E-02  0.33692384E-02 -0.19140335E-02
 -0.78995830E-02 -0.49456920E-02  0.98991442E-02
  0.10362127E-01  0.18117642E-02 -0.25165572E-02
 -0.17153110E-02  0.18867269E-02  0.23141972E-02
  0.29647486E-02 -0.36326234E-02 -0.56199529E-02
  0.91839861E-02  0.20637793E-02  0.72299359E-02
 -0.41142261E-02  0.31588055E-02 -0.49452245E-02
  0.51599351E-02  0.57211129E-03  0.53040253E-02
  0.56541160E-02  0.61156900E-02 -0.61745078E-02
  0.68788851E-02 -0.24055984E-02 -0.58579886E-02
 -0.60340760E-04 -0.87417904E-02  0.73689895E-02
  0.16413806E-02  0.66371383E-02  0.20435361E-02
  0.93276582E-02 -0.40961749E-02 -0.34884473E-02
  0.90200002E-02 -0.31378327E-02  0.29470712E-03
  0.71910564E-02 -0.60079018E-02 -0.28957558E-03
 -0.41557081E-02 -0.31807567E-02 -0.50782904E-02
 -0.35263449E-02  0.11086783E-02 -0.28594694E-02
 -0.47339244E-02  0.11337576E-01  0.48236940E-02
  0.30329140E-02  0.61262490E-02 -0.36676856E-02
  0.69286656E-02  0.22127940E-02  0.63865536E-02
 -0.63407923E-02  0.28987813E-02  0.41789943E-03
  0.50933018E-03 -0.25032134E-02  0.82903001E-02
 -0.32013572E-02 -0.12059107E-02  0.54824494E-02
 -0.74592689E-02 -0.99513209E-02  0.62370257E-02
  0.30156261E-02  0.61808894E-03 -0.50281412E-02
  0.82259555E-02 -0.37510108E-02  0.42927318E-02
  0.30085998E-02 -0.31570566E-03 -0.69629116E-02
 -0.20196437E-02 -0.49861634E-02 -0.60396994E-02
  0.66238149E-02  0.31741131E-02  0.68727928E-02
  0.13310974E-01 -0.10684424E-01 -0.52497157E-02
  0.50386926E-02  0.11917661E-02  0.34686692E-02
 -0.47257598E-02 -0.31254230E-02 -0.27515362E-02
 -0.47723251E-02  0.10272807E-02 -0.12941629E-02
 -0.56676444E-02 -0.82900167E-02 -0.20611425E-02
 -0.52038203E-03 -0.12790936E-02  0.19845589E-03
 -0.51713980E-02 -0.99482232E-03  0.25243512E-02
  0.34921624E-02 -0.24691291E-02  0.19846422E-02
 -0.68240340E-02 -0.60101189E-03 -0.54828147E-02
 -0.31587549E-02  0.64353963E-02 -0.12134269E-02
 -0.15948314E-02 -0.32509214E-03 -0.22894554E-02
  0.95581269E-03 -0.59448683E-02  0.42677791E-03
 -0.63340523E-03 -0.52197290E-02  0.42644182E-03
  0.32658819E-02 -0.66735143E-03  0.65149082E-03
  0.10989460E-02  0.94705062E-03 -0.11823064E-02
 -0.12715721E-02  0.32933372E-02  0.88581079E-03
 -0.34927667E-02 -0.43150122E-02 -0.23130774E-02
 -0.32552504E-02  0.53844422E-02 -0.59869559E-02
  0.11688982E-02 -0.25044973E-02  0.37884260E-02
  0.52165013E-02 -0.37860732E-02  0.37578673E-02
  0.82600867E-02 -0.59367587E-02  0.88472736E-02
 -0.15473370E-03 -0.34396207E-05 -0.14006894E-03
 -0.39904766E-02  0.24804289E-02 -0.16909893E-02
 -0.71803356E-02  0.14562398E-02 -0.23069636E-02
 -0.30636148E-02  0.44096478E-02 -0.27637540E-02
  0.23075697E-02  0.60101194E-04  0.25642393E-02
 -0.32938374E-02 -0.11438040E-01 -0.30994469E-03
  0.14302356E-02 -0.43332145E-02  0.41643233E-02
 -0.27790887E-02  0.34203498E-02 -0.20187123E-02
 -0.28779988E-02  0.46089280E-02 -0.21097825E-02
  0.12669541E-01  0.98369416E-06  0.23805686E-02
  0.19618052E-02 -0.45282861E-02 -0.19350858E-02
 -0.93376374E-03 -0.29277671E-03  0.92013673E-03
  0.43452139E-02  0.86976801E-02 -0.51476214E-02
 -0.33654866E-03 -0.54913373E-02  0.38266873E-02
  0.11794974E-02  0.17681536E-03  0.38721104E-02
  0.40688067E-02  0.46967899E-02  0.27508262E-02
 -0.11619158E-02 -0.38403533E-02  0.28437114E-02
 -0.38696182E-02  0.19702891E-03  0.22049695E-02
 -0.96697695E-02 -0.11668151E-03 -0.44019609E-02
 -0.57593888E-03  0.38431528E-02  0.51310808E-02
 -0.37741923E-02 -0.10668686E-02  0.23711307E-02
  0.46564406E-03  0.49968192E-02 -0.70628346E-02
  0.75539876E-02 -0.20152755E-04 -0.52443820E-02
 -0.48078572E-02 -0.65415743E-02  0.35754941E-02
  0.18170576E-02 -0.37253846E-02  0.31873225E-02
  0.22708572E-02  0.33235632E-02 -0.46568070E-02
 -0.10153653E-02  0.10497161E-02  0.14166987E-02
 -0.20408676E-02  0.40765589E-02 -0.43412787E-02
 -0.56080140E-02  0.10113864E-02 -0.24783304E-03
  0.46454839E-02  0.50298275E-02 -0.67524996E-02
  0.30422049E-02 -0.59558350E-03 -0.54203676E-02
 -0.38649099E-02 -0.20704305E-02 -0.73520870E-02
  0.10547198E-01  0.20623466E-02  0.22401763E-02
  0.18742837E-02 -0.30771212E-02 -0.51435226E-02
 -0.64008111E-02 -0.79019271E-02  0.66052902E-03
  0.37731412E-02  0.88020594E-03 -0.21971352E-02
 -0.62190844E-02  0.47003893E-02 -0.24576928E-02
 -0.16598964E-02  0.68930461E-03 -0.38213656E-02
  0.34167814E-02 -0.51930522E-02 -0.14585407E-02
  0.63242080E-03 -0.26240558E-03 -0.63687180E-02
  0.71813831E-02  0.14051218E-02 -0.15456354E-02
  0.83897053E-03  0.81506933E-03  0.44282229E-02
  0.47882136E-03 -0.29431240E-02  0.65184437E-02
 -0.20727692E-02 -0.65644405E-02 -0.65654648E-02
 -0.80120684E-02  0.62326546E-02 -0.49070883E-02
  0.68488695E-02  0.33097009E-02  0.37000616E-02
 -0.26913546E-02 -0.35965315E-02  0.21847338E-02
 -0.72930727E-02 -0.58161699E-02 -0.34338212E-03
  0.23248081E-02 -0.52876306E-02 -0.26526093E-02
 -0.85322764E-03  0.31943516E-02  0.62139095E-02
 -0.94407359E-02  0.52414861E-02 -0.72678217E-02
 -0.32688354E-02 -0.16028318E-02 -0.65556375E-03
  0.56054021E-03 -0.50131181E-02  0.34652067E-03
  0.52453235E-02  0.48023237E-02  0.57435120E-02
 -0.15594430E-02 -0.33766418E-03 -0.36037668E-02
 -0.10554838E-01  0.32982825E-02 -0.20809999E-02
 -0.52431849E-02 -0.80418421E-03 -0.23093607E-02
  0.11292979E-01  0.47865243E-02 -0.51060823E-02
  0.69389133E-02  0.20070558E-02  0.16658684E-02
  0.35951314E-02 -0.45270964E-02  0.30801944E-02
 -0.33453678E-02  0.63000288E-02 -0.40726436E-02
  0.25527420E-03  0.12714119E-01  0.15122980E-03
  0.11260971E-02  0.14581395E-02  0.32329192E-02
 -0.77662931E-02  0.10695356E-01 -0.55784401E-02
 -0.10204669E-02 -0.27196709E-02  0.25312563E-02
 -0.69718592E-02 -0.66886764E-02  0.88620944E-02
  0.29138279E-02 -0.14512126E-02 -0.86661561E-03
  0.51559857E-02  0.69325229E-02  0.81789938E-03
 -0.16171300E-03 -0.24669912E-02  0.17317138E-02
 -0.32315183E-03  0.13836959E-01  0.44693268E-02
 -0.52138413E-02  0.21773138E-02  0.11816165E-02
 -0.34340812E-02  0.50117936E-02 -0.79287561E-02
  0.45927978E-02 -0.95994160E-02  0.16355784E-02
  0.19412601E-02 -0.62728323E-02  0.71309527E-02
  0.21705222E-02  0.89982467E-03 -0.49214595E-02
 -0.36228868E-02  0.27573002E-02 -0.45776233E-02
 -0.28835944E-02  0.30924648E-02  0.11803697E-02
 -0.59659005E-02  0.33959791E-02  0.37110242E-02
 -0.72215373E-03  0.34860715E-02 -0.48484785E-02
 -0.98793735E-03 -0.34170607E-02 -0.68154530E-02
 -0.18857308E-02 -0.12988081E-02  0.20086597E-02
  0.54049028E-02  0.31084845E-02 -0.38654037E-02
 -0.35898992E-02  0.19199946E-02  0.68728791E-02
  0.23044438E-02  0.32735200E-02 -0.35399417E-02
  0.40904260E-02  0.15108534E-02  0.39452417E-02
  0.67097105E-02  0.41149097E-02 -0.21297411E-02
  0.11564707E-02 -0.85526188E-04 -0.11799486E-01
 -0.21782475E-02  0.28637315E-02  0.29021132E-02
  0.83754530E-02 -0.17680529E-03  0.90475225E-03
 -0.24363974E-02  0.61771921E-03 -0.23513291E-02
 -0.26834226E-02  0.12501875E-02  0.90452091E-02
  0.90814844E-02 -0.45021652E-02 -0.37104388E-02
  0.92371665E-04 -0.11404927E-02 -0.50274314E-03
 -0.31871261E-02 -0.10109743E-02  0.22190322E-02
 -0.12144903E-01  0.31586722E-03  0.44534163E-03
  0.14034224E-02 -0.12119576E-02  0.42429778E-03
  0.41181905E-02  0.15767127E-02  0.61327675E-02
 -0.53015465E-02 -0.16028959E-02 -0.35831896E-02
  0.22620166E-02  0.46030176E-02 -0.14171246E-02
 -0.73488987E-02 -0.21749675E-02  0.44078666E-02
 
           1
   2.00000000000000     
  0.10497035E+01  0.28938892E-02  0.00000000E+00  0.00000000E+00
  0.98370149E+00  0.72636150E+00  0.26757349E+00
  0.44793102E+00  0.50555023E+00  0.74846333E+00
  0.64659860E+00  0.75008761E+00  0.76317056E+00
  0.18363941E-01  0.44318692E+00  0.51313318E+00
  0.51449536E+00  0.98857597E+00  0.91604786E+00
  0.26139494E+00  0.69591829E+00  0.49371151E+00
  0.21584491E+00  0.80461985E+00  0.11497913E+00
  0.22545897E+00  0.23899599E+00  0.25558705E+00
  0.20311030E-01  0.54616559E-01  0.63169270E+00
  0.73265350E+00  0.25646490E+00  0.84545100E+00
  0.78496292E+00  0.99698538E+00  0.37887099E+00
  0.31303062E+00  0.70635702E+00  0.63052100E+00
  0.50717471E+00  0.97611024E+00  0.22988655E+00
  0.25765063E+00  0.44470616E+00  0.64091335E+00
  0.97515066E+00  0.99410154E+00  0.58765299E-03
  0.47917142E+00  0.49109607E+00  0.35993843E+00
  0.18235228E-01  0.93566412E+00  0.51675844E+00
  0.17742526E-01  0.44494357E+00  0.63910248E+00
  0.97748319E+00  0.26663974E+00  0.24660613E+00
  0.99022035E+00  0.51809375E+00  0.88235455E+00
  0.39494097E+00  0.94758469E+00  0.38522330E+00
  0.60681092E-01  0.60152816E-02  0.36648750E+00
  0.44802986E+00  0.58599842E+00  0.95767735E+00
  0.73920936E+00  0.52279990E+00  0.62302975E+00
  0.21303669E+00  0.76877643E+00  0.44099130E-02
  0.26118378E+00  0.20127541E+00  0.61252072E+00
  0.50043608E+00  0.43582678E+00  0.22149550E+00
  0.21462977E+00  0.21083841E+00  0.50451500E+00
  0.50913758E+00  0.70998517E+00  0.51196873E+00
  0.73764355E+00  0.99113090E+00  0.14161308E+00
  0.25535823E+00  0.19013084E+00  0.38924068E+00
  0.75012568E+00  0.98617123E+00  0.63074105E+00
  0.58118823E-02  0.46655344E+00  0.33552238E+00
  0.52122888E+00  0.98312585E+00  0.75234048E+00
  0.98298192E+00  0.25218229E+00  0.13269855E-01
  0.82226758E+00  0.27032407E+00  0.47394568E+00
  0.54962895E+00  0.63378677E-01  0.55448054E-01
  0.67376244E+00  0.21175586E+00  0.22500563E+00
  0.28736910E-01  0.22153528E-01  0.75409556E+00
  0.52173701E+00  0.74497799E+00  0.25014809E+00
  0.98492903E+00  0.99819498E+00  0.23881036E+00
  0.48502524E+00  0.83203413E+00  0.81710702E-02
  0.48519892E+00  0.97203845E+00  0.61685516E+00
  0.98943801E+00  0.51137910E+00  0.19970416E+00
  0.28326566E+00  0.99795760E+00  0.88223355E+00
  0.72964273E+00  0.75801732E+00  0.37296811E+00
  0.77244936E+00  0.76192855E+00  0.49524197E+00
  0.22653100E+00  0.27882917E+00  0.98619047E+00
  0.24562658E-02  0.98611510E-02  0.87033347E+00
  0.73488660E+00  0.23891737E+00  0.10758629E+00
  0.97554383E+00  0.50790755E+00  0.74177200E+00
  0.33366687E+00  0.39276650E-01  0.13250197E+00
  0.57046277E+00  0.25658277E+00  0.47502385E+00
  0.72501948E+00  0.70348382E+00  0.47829198E-03
  0.77127051E+00  0.24117947E+00  0.59569127E+00
  0.22138302E+00  0.75952488E+00  0.87337909E+00
  0.68878458E+00  0.69264395E+00  0.10997926E+00
  0.49157535E+00  0.49408779E+00  0.49022097E+00
  0.22236619E+00  0.49202260E+00  0.88879046E+00
  0.48447526E+00  0.20238422E+00  0.30495253E+00
  0.21574921E+00  0.24287315E+00  0.75734884E+00
  0.15814080E-01  0.69349672E+00  0.49330003E+00
  0.75714064E+00  0.22182280E+00  0.97315631E+00
  0.52604143E+00  0.25312734E-02  0.48882797E+00
  0.75343406E+00  0.23501875E+00  0.35297863E+00
  0.62868680E+00  0.51368784E+00  0.86337949E+00
  0.43858964E+00  0.50070550E+00  0.12018214E+00
  0.63408624E+00  0.27493830E+00  0.70682004E+00
  0.76734535E+00  0.73167830E+00  0.25678367E+00
  0.95781467E+00  0.27655901E+00  0.74159707E+00
  0.20309668E+00  0.25843047E+00  0.13606002E+00
  0.92762346E+00  0.75141873E+00  0.75329569E+00
  0.49237090E+00  0.32792651E+00  0.77236387E-02
  0.76708180E+00  0.74464150E+00  0.65705591E+00
  0.75002677E+00  0.15143992E-01  0.87877879E+00
  0.20244905E+00  0.76839839E+00  0.35274585E+00
  0.31389456E+00  0.73613148E+00  0.76176304E+00
  0.72946413E+00  0.49136723E+00  0.36681330E+00
  0.17981729E+00  0.51025875E+00  0.11704497E+00
  0.49233663E+00  0.50362977E+00  0.61407389E+00
  0.98050154E+00  0.11983358E-01  0.11039427E+00
  0.23051454E+00  0.74321972E+00  0.24337191E+00
  0.73032124E+00  0.75665790E+00  0.86368956E+00
  0.96027766E+00  0.52293959E+00  0.60472163E-02
  0.20853692E+00  0.92923682E+00  0.63076841E+00
  0.75303003E+00  0.48096426E+00  0.11234532E+00
  0.33914869E+00  0.24191619E+00  0.86015537E+00
  0.23270582E+00  0.45833733E+00  0.38523205E+00
  0.23706184E+00  0.98373438E+00  0.24733180E+00
  0.71140679E+00  0.49976660E+00  0.74738781E+00
  0.26495723E+00  0.97228589E+00  0.75496105E+00
  0.74444829E+00  0.48586459E+00  0.23791157E+00
  0.22737019E+00  0.19623494E-01  0.99750894E+00
  0.75334791E+00  0.48543261E+00  0.50454386E+00
  0.26091002E+00  0.93503904E+00  0.50418178E+00
  0.71166427E+00  0.46559977E+00  0.97570904E+00
  0.75818427E+00  0.99735546E+00  0.75275527E+00
  0.24972116E+00  0.51168992E+00  0.25370815E+00
  0.21364886E+00  0.49432591E+00  0.76239739E+00
  0.74497340E+00  0.97057702E+00  0.26242821E+00
  0.25067641E+00  0.46136385E+00  0.50552451E+00
  0.73202646E+00  0.97861328E+00  0.99419312E+00
  0.75431491E+00  0.61778901E-02  0.50199379E+00
  0.24967735E+00  0.51458002E+00  0.12764826E-01
  0.25004697E-01  0.23464850E+00  0.38425809E+00
  0.47341912E+00  0.73664373E+00  0.88387555E+00
  0.50049363E+00  0.24576931E+00  0.60812508E+00
  0.98645810E+00  0.73168815E+00  0.12319833E+00
  0.99087923E+00  0.26185110E+00  0.87109000E+00
  0.49458074E+00  0.73325667E+00  0.37501319E+00
  0.77135227E-02  0.74084657E+00  0.62478534E+00
  0.45866571E+00  0.24244296E+00  0.13876235E+00
  0.12967537E+00  0.40932337E+00  0.50847371E-01
  0.65519501E+00  0.90475069E+00  0.55151610E+00
  0.62769410E+00  0.83815171E-01  0.96067288E+00
  0.13482169E+00  0.53895179E+00  0.45945702E+00
  0.34857049E+00  0.43768094E+00  0.96030021E+00
  0.85964668E+00  0.90421839E+00  0.45884549E+00
  0.83134565E+00  0.73242789E-01  0.49859906E-01
  0.34298422E+00  0.57265128E+00  0.55556199E+00
  0.80495810E+00  0.98814522E-01  0.20772368E+00
  0.30193006E+00  0.59619608E+00  0.70428431E+00
  0.85187026E+00  0.88648925E+00  0.30654990E+00
  0.30788072E+00  0.41859015E+00  0.81403564E+00
  0.15030045E+00  0.58335163E+00  0.30775942E+00
  0.67070803E+00  0.85606052E-01  0.79421708E+00
  0.15413596E+00  0.40606894E+00  0.20512176E+00
  0.65889581E+00  0.90801056E+00  0.70470804E+00
  0.81184170E+00  0.56276378E+00  0.92345153E+00
  0.34319472E+00  0.49103250E-01  0.46378888E+00
  0.83914030E+00  0.39339421E+00  0.55148659E+00
  0.31394265E+00  0.91726156E+00  0.50657212E-01
  0.17665168E+00  0.25603003E-01  0.55501491E+00
  0.62018787E+00  0.52450996E+00  0.37296734E-01
  0.14928107E+00  0.91787410E+00  0.94546957E+00
  0.66658687E+00  0.39387462E+00  0.43652998E+00