Na88 Sn16 P8 Se96                       
   1.00000000000000     
    14.0793397336999995    0.0000000000000000    0.0000000000000000
     0.0000000000000000   14.0793397336999995    0.0000000000000000
     0.0000000000000000    0.0000000000000000   28.1586794673000007
   Na   Sn   P    Se
    88    16     8    96
Direct
  0.7296091004848746  0.7691339225411196  0.1120061647368234
  0.5991325832615518  0.5703206913228820  0.6491755801335650
  0.4860398494360145  0.9843473409163962  0.6279279199354382
  0.9996124343068606  0.0074100584994384  0.2712046843347811
  0.4955885738936441  0.9795090941405732  0.9921728231313703
  0.7104300326261963  0.5143569191441951  0.3938584662868076
  0.9835796507678782  0.4395454294129251  0.1370153599771700
  0.9355374179706071  0.0030444070727402  0.1289736804430352
  0.9789042488869334  0.0381048213366627  0.7538948723105819
  0.6328586978943443  0.2401290117738271  0.0100797316841988
  0.9586978250059353  0.7649862675794430  0.2874577220148394
  0.7697786786412282  0.2612346600147387  0.7648957801786113
  0.1860943910034325  0.7490155073209949  0.1922241198966790
  0.3189271446705484  0.5231880995470490  0.6277613544732780
  0.8936533581043263  0.7863679813172982  0.7363247510800259
  0.2258056746471385  0.2403452434444067  0.2723652471053395
  0.7598255498829294  0.7335961036672228  0.3825456957689364
  0.9927931703921278  0.5090370764798707  0.6290062982277551
  0.2177107048013442  0.7075270785610634  0.0223921192991001
  0.0552645239089047  0.2622264594438096  0.7711801617879402
  0.9435713423212436  0.0406985176051061  0.4501618641510020
  0.3534476424638162  0.5288587415972759  0.3958244796997058
  0.7540528820604798  0.7020061049256204  0.8705294973436407
  0.9896427340749118  0.5326689654592954  0.5042149399587574
  0.2095260850378514  0.7483212534094416  0.8762136992995251
  0.2071806083484997  0.2648771538771398  0.5061812226779768
  0.9962789445292487  0.0603911880725867  0.9835629924891451
  0.7970209134855786  0.7680989834051957  0.5246001612678605
  0.5172860334345228  0.5431632719482181  0.5138335909947868
  0.2628856580310407  0.2087056040233659  0.8693172323345008
  0.0321627684742637  0.5483208286967367  0.3884973613180747
  0.5533090422887594  0.9849247201047091  0.8657919565793466
  0.2485358100153852  0.7724317805919392  0.3633640927344993
  0.7115902698782250  0.2706641083366245  0.5107085992783489
  0.9817756475174282  0.9266317918938141  0.8779762391597461
  0.3508710321640924  0.1229578127771641  0.5785328656425105
  0.7507381344495341  0.7973644088774051  0.0111940670770292
  0.1883478609482402  0.3361234013310322  0.3996761436044706
  0.1739816848647438  0.2780338358295935  0.6176589299223042
  0.7177342164179470  0.5355984072595842  0.1466856784745385
  0.3967924089090256  0.0012680964762871  0.1117965193882739
  0.9937246127095715  0.0100938428451253  0.5676762217174549
  0.1664736919668493  0.9814262545639925  0.6350860246899045
  0.9415731681756819  0.4768535883569647  0.2799571329454966
  0.5097809442521151  0.2577014830206334  0.7680977997184055
  0.7085807270851249  0.0028549105732434  0.3658578962014875
  0.2290684672239264  0.7654168016688851  0.6198511624334623
  0.7835713021465487  0.2861417303324616  0.1249763515678865
  0.9560090824973009  0.3044445808197896  0.5024447303518098
  0.4946322481643818  0.9928519694306818  0.2321571029048264
  0.2816855405371804  0.2564151803269344  0.7279853871923082
  0.4659734583901291  0.7465063649876005  0.2569964856458148
  0.0435334756436786  0.5167559756588240  0.7450828164398696
  0.6355668808257873  0.7820292900809593  0.7810538017781952
  0.5612303645158179  0.6023922845202174  0.7604942139209933
  0.4622471136335030  0.7499754805416748  0.0099434570298331
  0.8264203277492609  0.2765328274150490  0.9615092394842948
  0.2715009053413142  0.7838566608919354  0.5035881259657066
  0.5030079150568476  0.2120753375837382  0.2492601196978124
  0.1458215488849692  0.0954588906735163  0.3727846605109121
  0.4924822408239524  0.4333340977599882  0.8911726480791770
  0.4608897614044041  0.9985459539692656  0.4790530169289588
  0.7088067637894060  0.7424392154577698  0.2361303429294342
  0.4777674742383041  0.0035001646100960  0.7355701546565289
  0.2311921807397599  0.2727855487496503  0.1434673964244306
  0.2685778746767248  0.7705680412208211  0.7498171406431988
  0.2342283696947587  0.4957785796472706  0.1321690257025139
  0.8259731936275452  0.0933025544582310  0.8682421490754367
  0.2008960375027376  0.9260457330450403  0.1294290091444151
  0.4892433714083684  0.4566904254010884  0.0129242483238291
  0.6998053001512735  0.2422770884757780  0.3605561169846088
  0.2665451555670619  0.4976618506227606  0.8811412026407485
  0.4542108990429488  0.4941025410092783  0.2623580733456596
  0.7452783089180341  0.7855748823951531  0.6368115556097096
  0.9759605451057944  0.4402139923396780  0.9837848242539446
  0.5606869888936760  0.7710896827800906  0.5108598438808013
  0.7934457448356118  0.5059666949341389  0.8802852619110174
  0.9889084985123249  0.2399466393479818  0.2308371935214472
  0.7012769803154896  0.0304053814248528  0.1120495690656931
  0.4760944890868155  0.2649387064894910  0.4742854419680809
  0.0404808297160784  0.5579137235430583  0.8689548482601961
  0.4148040787026883  0.9926813741368661  0.3738846911062805
  0.7817155784873894  0.3025240291089508  0.6522973734261903
  0.2314306539652248  0.2151479016373797  0.0138341560216858
  0.7282177932189878  0.0715917798427384  0.6085698783168757
  0.9069200052369468  0.6328503444882099  0.0594610667618504
  0.3049907183347313  0.9530188325461921  0.8697145665626658
  0.4899030210883575  0.5195863963809079  0.1342115091548405
  0.2107055750042666  0.9921367630980920  0.2579805540397565
  0.8049354308337296  0.5178060094325670  0.7452581528415383
  0.2508460804570494  0.0024794791593671  0.7506064958790273
  0.6879146852211679  0.4878516982614847  0.2632613328072494
  0.2258592470386312  0.9533971029989916  0.0025696633193173
  0.7404254103032487  0.5063034982896047  0.5197841868001194
  0.2255310802986082  0.0210947329767084  0.5026190967888569
  0.7329867010298757  0.5283996673541403  0.0052683726277942
  0.7554466530422680  0.0233220652238407  0.7349579230783818
  0.2358203406389016  0.5000663559354146  0.2623027676802746
  0.2959811040463994  0.4995201821710816  0.7500112725967196
  0.7408697581798153  0.9967134476653783  0.2372585056212164
  0.2508989926860810  0.5153985231166573  0.5066753021201466
  0.7188908948532721  0.0240479017378800  0.9952351355523091
  0.7285720751697414  0.9984417251548049  0.4976272637162774
  0.2419150154804711  0.4683033866220281  0.0146354047007256
  0.9730014562828376  0.2674206761748528  0.3811904583069372
  0.4627584916968579  0.7488236965013414  0.8899730777470366
  0.4780692164693642  0.2548132654614551  0.6314457654484967
  0.9721467972440183  0.7582880006089473  0.1397847525175224
  0.0196937614059699  0.2658655781169373  0.8824129903277578
  0.4820582063480472  0.7313187684569752  0.3730262893387169
  0.0119867091549151  0.7646277398894082  0.6281607439893123
  0.4868113877862224  0.2535217498778214  0.1118132923838542
  0.1353371893303656  0.3656572339698784  0.0761790565720676
  0.6167992433827921  0.9400236057723343  0.5587336799053486
  0.6280264240296736  0.1208784072544772  0.9361187270996012
  0.1850520952377386  0.6266810445126674  0.4493418209877862
  0.3370430420572545  0.3786921661613693  0.9618775829975984
  0.8287625445926294  0.8849447186528333  0.4520034467804253
  0.8195979148296588  0.1399195995829970  0.0484760679672969
  0.3616605064670861  0.6293024080060572  0.5588503501780656
  0.8314157441420517  0.1204492989079557  0.1930130421838238
  0.4003563893885621  0.6154230538578327  0.7012412441745782
  0.8157075023502655  0.9016441101154037  0.3024804966411191
  0.3730601692156091  0.3631620282333999  0.8013483190487332
  0.0912716190771334  0.6095796314621786  0.2989166726487441
  0.6369617177802166  0.1156155238041944  0.7909924533891861
  0.1243414670406079  0.3879041035849213  0.2073924059211018
  0.6308678421629109  0.9085042976405471  0.6962760011696596
  0.8533814140555788  0.6359522839229053  0.9623083584333832
  0.3005604413625755  0.1179925512848291  0.4325386453694845
  0.8443369957099656  0.4240450154086016  0.5772017179892979
  0.3382817097776971  0.8622712765151033  0.0552437807664717
  0.1237010181966890  0.1381259941710012  0.5561220089226451
  0.6135593686536127  0.6319534471085219  0.0531392602899975
  0.1362815663461715  0.8771666014249304  0.9360130974456539
  0.6401505170818910  0.4219913393749579  0.4614926410038622
  0.5828689345719690  0.3859955818480261  0.3053614396163109
  0.1316826310081258  0.9039084317839198  0.8027183771974379
  0.1415644267688056  0.1322961966762523  0.7045615230833621
  0.5773867919884214  0.5959850840551039  0.2071574766679359
  0.9207886022095613  0.3959607622799867  0.7028319466799453
  0.3181755585185402  0.8798639866543501  0.2131383569883773
  0.3354392962345860  0.0898844771202195  0.3044550951867183
  0.8967790890461854  0.6272016647749435  0.8086827773359584
  0.1237770590408514  0.0349995909409102  0.0611919811512258
  0.6598151333712966  0.6391946085049000  0.5652144553114418
  0.6559112618572183  0.3955321679428734  0.9417089742199899
  0.1295024671884143  0.9042883431232059  0.4568302016230025
  0.3392400141721906  0.0621478774260994  0.9515400868459849
  0.8400093465604170  0.5964825778696067  0.4595049956940395
  0.8446764004354673  0.4372301901072695  0.0562637739382345
  0.3685512309388130  0.9413007252821304  0.5521957794231411
  0.1337674965454665  0.1034057609122079  0.1987380224008414
  0.7235103513101607  0.6621342696186340  0.7135418794107730
  0.1249357748926561  0.8991234049184136  0.3256681001197005
  0.6697268825542142  0.4251754152090106  0.7862337185211625
  0.7845083072829031  0.5887722993748403  0.3203130579592748
  0.3540603202934862  0.1053840158230012  0.8011781894156356
  0.8261249131896194  0.4191770183505721  0.2046051278293539
  0.3442774899588406  0.9085920722664389  0.6870158514163467
  0.8450825342681959  0.9224996621696490  0.9462870524908858
  0.3373290570469103  0.3915018327356679  0.4634643502231280
  0.8524924220047734  0.1168738031761186  0.5298671521664945
  0.3604742749809290  0.5676681193740162  0.0589800562762790
  0.1101038740587376  0.4278931811255193  0.5503844714199678
  0.6217618651102684  0.9014995858560694  0.0553893642723752
  0.1156756025982304  0.5589322146989826  0.9634921095790226
  0.6460034591663162  0.1308195225167685  0.4501093183946309
  0.3068907352640491  0.3971966586300273  0.3242723528077708
  0.8025503737643527  0.9146565848308401  0.8041779394660399
  0.8571408921457411  0.1292814331128610  0.6862192398136525
  0.3342993803475167  0.6035840730977821  0.2023492182143587
  0.1825853292693760  0.4273666731924677  0.6948895774476370
  0.6275249774587055  0.8971851057555744  0.1832491249987433
  0.6199399501210858  0.0953927998174023  0.2949795514615682
  0.2095333478361147  0.6223576657431227  0.7983097955105712
  0.0553058624009165  0.3255853658372729  0.3226350715481296
  0.3622885161236388  0.6496854458347702  0.9306994775722531
  0.3690360750946626  0.3452788848360955  0.5974470425418789
  0.0365953341560514  0.8731344338889965  0.1857577993237613
  0.5574919981525381  0.1870225447222045  0.5711841217415636
  0.8698982993762499  0.6503575640457269  0.1749572159611848
  0.8842047602285921  0.3776247808314546  0.4102804189646213
  0.4289246405005501  0.8135514180235680  0.8253648429991611
  0.0334371049877999  0.2709018517909356  0.9653769024053974
  0.5754559912804675  0.8220872296641546  0.3354061039494703
  0.9002437177257321  0.6681291268408864  0.6176530594341572
  0.5951817338171713  0.3648962844653219  0.0960780771214037
  0.1038913479079314  0.6841208906519912  0.6893726773818115
  0.4030380108550857  0.1899559647976379  0.0535503343494530
  0.8797737939633260  0.3217701094404474  0.8617862521654976
  0.4014057132956419  0.8176948122072457  0.4228423938553232
  0.9518987252867710  0.8920183911984527  0.6591866517401156
  0.4145594539860983  0.3334819296421959  0.1714384429803201
  0.0267690359646341  0.1160128082802267  0.8655487313687866
  0.5622260391770948  0.6343321509507996  0.4169686381371333
  0.1299433360909410  0.3562146750080106  0.8476683898882662
  0.3768741577789491  0.6445038811446204  0.3299559635312183
  0.0741447696850113  0.8023200746997594  0.5610126277953541
  0.5467298959681827  0.1284353250733689  0.1524556404459613
  0.5707209953671271  0.3379892344495299  0.6786700397113651
  0.9161074820496755  0.8277031254479887  0.0764551846407528
  0.8699149312085777  0.1648161353295651  0.3466543718471432
  0.5496510981860737  0.8452759172416949  0.9271616726929218
  0.0605873302032056  0.1985381525420088  0.4377438650373768
  0.5722857616775108  0.6349840587802323  0.8579446854907468
  0.4098713635635027  0.1432793553052448  0.6725425031201924
  0.0833575442897942  0.6724912215515561  0.1117857635578490
 
 -0.75483735E-03  0.89354859E-02  0.41243418E-02
  0.27742697E-02  0.12835332E-02  0.41105822E-03
 -0.46794975E-03 -0.93565031E-03 -0.50906025E-02
  0.17235981E-02  0.20572167E-02  0.83888290E-02
 -0.41888580E-03 -0.45819009E-02  0.60334300E-02
  0.43729628E-02  0.34511098E-03 -0.68291188E-02
 -0.29210837E-02 -0.65189389E-02  0.85991062E-02
  0.11272528E-01  0.61821209E-02  0.98515793E-03
 -0.21650214E-02 -0.94080186E-04  0.69762324E-02
 -0.72791964E-03  0.18871400E-02 -0.28477286E-02
  0.96241327E-02 -0.33912930E-02  0.80274124E-04
 -0.19738418E-02 -0.53835282E-02  0.10204946E-01
  0.10782721E-01  0.39652453E-02  0.67095941E-02
  0.23632612E-03  0.11674055E-01  0.75260404E-03
  0.13625365E-02  0.35828401E-02  0.58308512E-03
  0.12055078E-02  0.79648701E-02 -0.45742418E-02
 -0.58347676E-02  0.47176041E-03  0.80962120E-02
 -0.53078596E-03  0.48872136E-02  0.48719206E-02
 -0.99616025E-03  0.67691845E-02  0.26128979E-02
  0.30658632E-02 -0.42232936E-02  0.23570159E-02
  0.48105588E-02 -0.56455370E-03 -0.14142757E-01
 -0.43407326E-02 -0.17614447E-02  0.21590218E-02
 -0.11533973E-01  0.81099862E-03  0.18689837E-02
  0.16262169E-02  0.62795990E-02  0.60988537E-03
 -0.27888783E-02 -0.21570321E-02 -0.38443126E-02
 -0.15276224E-03 -0.68188617E-02  0.19867882E-02
  0.62993949E-03 -0.49060562E-02 -0.13625550E-03
 -0.53483951E-03  0.84499688E-02 -0.93700763E-03
 -0.44453629E-02  0.14488298E-02 -0.32644139E-02
  0.74306678E-02  0.16327180E-01 -0.61200464E-02
  0.21592274E-02 -0.62349724E-02  0.54449716E-02
  0.91984739E-02  0.71436486E-03 -0.18901450E-03
 -0.34125692E-02 -0.63974095E-03  0.86680668E-02
  0.44482845E-02  0.69682086E-02  0.14465278E-01
 -0.45142711E-03  0.28390524E-02 -0.43569506E-02
  0.73712949E-02  0.27585727E-02  0.10200367E-02
  0.11164726E-03  0.43250189E-02 -0.79554659E-02
 -0.17044782E-01 -0.16014301E-02 -0.62683793E-02
  0.41321488E-02  0.87542238E-02 -0.72988776E-02
 -0.45957917E-02  0.16133551E-02 -0.37780475E-02
 -0.25239046E-02 -0.32780653E-02  0.14714323E-02
  0.10929356E-01 -0.23943450E-02  0.35366475E-02
 -0.77771354E-02  0.40611588E-02 -0.10170686E-01
  0.25118037E-02 -0.68403737E-02 -0.82266388E-03
 -0.74404251E-02  0.21939504E-02  0.42798937E-02
  0.24226753E-02 -0.29738020E-02 -0.31182942E-02
  0.69039156E-03 -0.10935427E-01  0.37959378E-02
 -0.10579467E-01  0.60256923E-02  0.91682142E-02
  0.22092143E-02 -0.60062260E-02  0.59806012E-02
  0.61946381E-03 -0.61721746E-02 -0.10681856E-01
 -0.26704912E-02 -0.16637472E-02  0.10371442E-01
 -0.60890775E-02  0.63177936E-02  0.53161012E-02
  0.19206965E-02  0.89060280E-02  0.68834679E-02
 -0.44943946E-02 -0.72842238E-02  0.79090817E-02
  0.83733493E-04  0.47134944E-02  0.72248022E-02
  0.23263435E-02  0.79578861E-02 -0.13015723E-02
 -0.49774032E-02  0.42659192E-02  0.70000895E-02
 -0.79199229E-03  0.23096964E-02  0.10606815E-03
  0.30477114E-02  0.28594776E-02  0.16171545E-02
 -0.15008805E-02  0.49774043E-03  0.86901355E-02
  0.89128734E-02 -0.26484717E-02 -0.61727405E-03
 -0.30767900E-02 -0.12854179E-01  0.40999132E-02
  0.68873992E-02  0.60220857E-02  0.42608914E-02
  0.72922463E-02 -0.67623317E-02 -0.93381177E-03
 -0.13967186E-02  0.42068307E-02 -0.20789271E-03
  0.55610851E-02 -0.11061059E-03 -0.59144336E-02
 -0.26076721E-02  0.51717566E-02 -0.39030701E-02
 -0.80248199E-02  0.60813846E-02 -0.39959399E-02
  0.67095193E-02 -0.33543736E-02 -0.13391857E-02
 -0.88288033E-02 -0.87396082E-03  0.89701318E-02
 -0.16507864E-02  0.12314653E-01  0.66846790E-02
  0.23708373E-02  0.93105980E-02  0.11152127E-01
 -0.30517996E-02 -0.10087964E-01 -0.13567092E-01
 -0.51231863E-02  0.40394843E-02 -0.33993274E-02
  0.16915946E-02 -0.26535818E-02  0.50812933E-02
 -0.49825926E-02  0.73512617E-02  0.31705477E-02
  0.65443373E-02  0.84541479E-02  0.71612332E-02
  0.24035104E-02 -0.23216708E-03  0.17742548E-02
 -0.15731127E-01 -0.17166009E-02  0.42553528E-02
  0.91646078E-02  0.23677706E-02  0.49926027E-02
  0.40768447E-02  0.13101946E-02  0.37098360E-02
  0.75499972E-02  0.21806416E-02 -0.97527527E-02
 -0.59933403E-02  0.63943994E-03 -0.22823638E-02
 -0.69150657E-02 -0.97467482E-03 -0.60128864E-02
  0.34456278E-03  0.43287562E-03  0.31940124E-02
  0.29881062E-02  0.85980656E-03 -0.32619088E-02
  0.64362993E-02 -0.11338606E-01 -0.42099090E-02
  0.61699852E-02  0.45957382E-02  0.61247122E-02
 -0.52447709E-03 -0.38551592E-02 -0.19432688E-03
 -0.17806509E-02 -0.50025606E-03 -0.54307655E-02
 -0.61259310E-03 -0.65623143E-02  0.36145875E-02
  0.11256405E-02 -0.15650900E-02  0.17314195E-02
 -0.20120278E-02 -0.62285289E-02 -0.40114200E-03
  0.68756556E-04 -0.66328618E-02  0.13072395E-02
  0.75662185E-03  0.20117212E-02 -0.51010556E-03
  0.43020543E-03 -0.46357189E-03  0.12745636E-02
 -0.17502864E-02  0.13351015E-02 -0.37113613E-02
  0.13587397E-02  0.19799294E-02  0.31439732E-02
 -0.34838785E-02  0.13973029E-02 -0.61059360E-03
  0.33905165E-02  0.28759474E-02  0.43440376E-02
 -0.19307807E-02 -0.31059468E-02 -0.27443847E-03
 -0.12703798E-02 -0.24689734E-02  0.27670360E-02
 -0.38432420E-02 -0.34270078E-02 -0.48974365E-02
  0.95101213E-04  0.25665588E-02 -0.75727297E-03
  0.13796592E-02 -0.77809032E-02 -0.79727892E-02
  0.29625902E-02  0.71856112E-02 -0.40078794E-02
 -0.51700301E-02 -0.32522994E-02  0.49215441E-02
 -0.38406368E-02  0.23032697E-03 -0.15380520E-03
  0.96438960E-02  0.21712176E-02 -0.19996119E-02
 -0.36824604E-02  0.14555418E-01  0.79482086E-02
 -0.40033914E-02 -0.91636296E-02 -0.31587404E-02
 -0.93518273E-03 -0.60722872E-02 -0.54968344E-02
  0.15406091E-02  0.57051108E-02  0.28126739E-02
 -0.19953775E-02 -0.15033705E-02 -0.24402794E-02
  0.87311240E-02  0.46061202E-02 -0.22030718E-02
 -0.75791628E-02  0.26250641E-02  0.28513934E-02
 -0.15892238E-02  0.21532864E-02 -0.40664462E-03
 -0.36548983E-02  0.34347959E-02 -0.44154330E-02
  0.14251451E-02  0.19527132E-02 -0.37121155E-02
  0.39900699E-02  0.37840471E-02 -0.32640712E-03
 -0.37192477E-02 -0.89082671E-03 -0.36073058E-02
  0.18816289E-02 -0.24180090E-02 -0.52281654E-02
  0.43866455E-02 -0.38143579E-02  0.24980162E-02
  0.48796536E-02  0.62537998E-02  0.15766559E-02
  0.56525623E-02  0.73540180E-03 -0.26047378E-02
 -0.17299063E-02  0.34896249E-02 -0.90085784E-03
 -0.18817337E-02  0.12448055E-02 -0.28694982E-02
  0.41687901E-03 -0.44063993E-04  0.95660338E-03
  0.30756808E-02 -0.10056950E-02 -0.15081200E-03
 -0.26364884E-02 -0.37234719E-02  0.22586411E-03
 -0.42332123E-02 -0.39031275E-02 -0.10791379E-02
 -0.36394724E-02 -0.64579104E-02  0.42171462E-02
  0.13844026E-02 -0.16580202E-02 -0.19224777E-03
 -0.52964142E-02  0.12894840E-02  0.25943243E-02
  0.50690567E-03  0.39666979E-02  0.26503665E-02
 -0.24135059E-02 -0.24464209E-02  0.46105734E-02
  0.21922932E-02 -0.52553819E-03  0.31362079E-02
 -0.53306388E-02  0.82303122E-03 -0.12425061E-02
  0.16687706E-02  0.10518087E-02  0.28985373E-02
 -0.33274357E-02 -0.13087859E-03 -0.10604315E-02
 -0.18647108E-03 -0.11469184E-02 -0.48640253E-02
  0.30251873E-02 -0.10082623E-02  0.59946018E-02
 -0.29889112E-02  0.27871944E-02  0.35046715E-02
 -0.53672760E-02  0.44127203E-02  0.54237263E-02
  0.24562826E-02 -0.56185962E-02  0.37060273E-02
  0.16697448E-02 -0.11261249E-02 -0.24877860E-02
  0.36498388E-02 -0.53253238E-02 -0.36841987E-02
  0.28674398E-02  0.46601176E-03  0.14977637E-02
 -0.11570046E-02 -0.58840118E-02 -0.52053865E-02
 -0.66647916E-04 -0.27319987E-02  0.36768450E-02
  0.21777067E-02  0.20325669E-02  0.24029637E-03
  0.58366765E-04 -0.45538924E-02 -0.53949095E-02
 -0.82619772E-04 -0.29817687E-02 -0.26389337E-02
  0.60262062E-03 -0.18471345E-02  0.32344028E-02
 -0.21028080E-02  0.31211227E-02  0.14519081E-03
  0.39296538E-02 -0.59624049E-02  0.39993163E-02
  0.13344280E-02  0.21300526E-02 -0.48155668E-02
  0.47384002E-03 -0.76417717E-03 -0.11456561E-03
 -0.30691611E-02 -0.12288249E-02  0.34179908E-03
 -0.14834910E-02 -0.26490468E-02 -0.27510974E-02
 -0.98133681E-03  0.40140034E-02 -0.17018923E-03
 -0.30109003E-02  0.32806194E-02  0.54662456E-03
 -0.31985165E-02 -0.37793261E-03 -0.65019297E-02
  0.12562028E-02 -0.34125038E-02 -0.21425310E-02
  0.36301295E-02  0.49337516E-02 -0.86119097E-02
  0.30300974E-02  0.11416499E-02  0.59906946E-02
  0.90778427E-03 -0.24036480E-02  0.54827750E-02
 -0.24628804E-03 -0.29879194E-02 -0.23858804E-02
  0.90599348E-03 -0.36288769E-02 -0.19059408E-02
 -0.18689354E-03  0.24109617E-03 -0.20719149E-02
 -0.65188629E-03 -0.23447159E-02 -0.79000867E-03
  0.12578152E-02  0.50096006E-02  0.69657022E-03
 -0.21426831E-02 -0.87303765E-03  0.30692755E-03
  0.21679541E-02 -0.49244776E-03 -0.31221807E-02
  0.16576153E-02  0.71491276E-02 -0.74191463E-03
  0.32520711E-03  0.17399078E-02  0.61296655E-02
  0.68624374E-03  0.52242621E-02  0.18810877E-03
 -0.34941757E-02  0.11026574E-02 -0.46823326E-04
  0.48261436E-02  0.56643653E-03 -0.73457331E-03
  0.21524210E-02 -0.47556748E-02 -0.11890186E-02
  0.10306317E-02  0.27639125E-02 -0.47448216E-02
 -0.11703184E-02  0.18414314E-02 -0.37908321E-02
  0.32537045E-03 -0.43678170E-02  0.17491827E-03
  0.53483116E-02 -0.21415771E-02 -0.74777877E-02
  0.59100859E-02 -0.63911424E-02 -0.25774480E-02
 -0.20374763E-02 -0.12597655E-02 -0.15132453E-02
 -0.72801451E-03  0.35167618E-02  0.10212958E-02
 -0.81448492E-02  0.26948128E-02  0.35095145E-02
 -0.43560641E-02 -0.16243985E-02  0.24099651E-02
 -0.26782300E-02 -0.58104880E-03 -0.16168799E-02
 -0.22895002E-02 -0.81120005E-04  0.33387049E-02
  0.98087245E-03  0.15074384E-02  0.38899845E-02
  0.26880238E-02  0.49823707E-02 -0.37119759E-02
  0.29347273E-02  0.19366591E-02 -0.23709469E-03
 -0.23121377E-02 -0.21954552E-02  0.14368376E-02
  0.41298635E-03 -0.18698727E-02 -0.50352414E-02
  0.22706165E-02 -0.26276475E-02  0.86083627E-03
  0.20012801E-02  0.31288100E-02  0.20229736E-03
 -0.29128674E-02  0.11110989E-02 -0.37235315E-02
  0.41639228E-02  0.28796993E-02  0.27869256E-02
  0.41716492E-02 -0.37664404E-02  0.10334669E-02
  0.35357360E-02  0.26430206E-02 -0.46448976E-02
 -0.56866074E-03  0.16705179E-02  0.47534354E-02
 -0.19182421E-02  0.21934075E-02  0.12029839E-02
  0.10026275E-02  0.20963088E-02  0.13344137E-02
  0.55689194E-03 -0.47502239E-03 -0.46231242E-03
 -0.30173116E-02  0.81006051E-03  0.10358679E-02
 -0.13061287E-02 -0.12458608E-02 -0.49359256E-02
 
           1
   2.00000000000000     
  0.53021132E+00  0.10790749E-02  0.00000000E+00  0.00000000E+00
  0.72950187E+00  0.77040323E+00  0.11229910E+00
  0.59952667E+00  0.57050302E+00  0.64920478E+00
  0.48597338E+00  0.98421443E+00  0.62756635E+00
  0.99985728E+00  0.77022905E-02  0.27180051E+00
  0.49552907E+00  0.97885823E+00  0.99260135E+00
  0.71105122E+00  0.51440594E+00  0.39337342E+00
  0.98316470E+00  0.43861940E+00  0.13762612E+00
  0.93713870E+00  0.39225904E-02  0.12904365E+00
  0.97859670E+00  0.38091457E-01  0.75439037E+00
  0.63275530E+00  0.24039708E+00  0.98774687E-02
  0.96006495E+00  0.76450453E+00  0.28746342E+00
  0.76949829E+00  0.26046992E+00  0.76562060E+00
  0.18762610E+00  0.74957878E+00  0.19270068E+00
  0.31896072E+00  0.52484642E+00  0.62781481E+00
  0.89384691E+00  0.78687693E+00  0.73636617E+00
  0.22597692E+00  0.24147667E+00  0.27204036E+00
  0.75899671E+00  0.73366312E+00  0.38312074E+00
  0.99271777E+00  0.50973132E+00  0.62935233E+00
  0.21756920E+00  0.70848866E+00  0.22577703E-01
  0.55700036E-01  0.26162653E+00  0.77134757E+00
  0.94425469E+00  0.40618322E-01  0.44915736E+00
  0.35283103E+00  0.52860852E+00  0.39597783E+00
  0.75241446E+00  0.70212131E+00  0.87066224E+00
  0.98987374E+00  0.53356100E+00  0.50425826E+00
  0.20912992E+00  0.74801484E+00  0.87594065E+00
  0.20715891E+00  0.26390852E+00  0.50632234E+00
  0.99636843E+00  0.59694272E-01  0.98355331E+00
  0.79694494E+00  0.76929932E+00  0.52453361E+00
  0.51665456E+00  0.54336908E+00  0.51360173E+00
  0.26394120E+00  0.21102491E+00  0.86888255E+00
  0.32469491E-01  0.54743514E+00  0.38888410E+00
  0.55461570E+00  0.98502620E+00  0.86577853E+00
  0.24805105E+00  0.77234090E+00  0.36397975E+00
  0.71222216E+00  0.27165396E+00  0.51173601E+00
  0.98171152E+00  0.92703509E+00  0.87766678E+00
  0.35191814E+00  0.12334967E+00  0.57860531E+00
  0.75075399E+00  0.79797879E+00  0.10629022E-01
  0.18592661E+00  0.33589591E+00  0.39923093E+00
  0.17456867E+00  0.27927739E+00  0.61714052E+00
  0.71708137E+00  0.53582759E+00  0.14641734E+00
  0.39643388E+00  0.80244036E-03  0.11190103E+00
  0.99527715E+00  0.97537211E-02  0.56792742E+00
  0.16536893E+00  0.98200315E+00  0.63436364E+00
  0.94192998E+00  0.47588190E+00  0.27989870E+00
  0.50872402E+00  0.25801314E+00  0.76840178E+00
  0.70892487E+00  0.24324757E-02  0.36563642E+00
  0.22916654E+00  0.76386340E+00  0.62012077E+00
  0.78206847E+00  0.28699769E+00  0.12562753E+00
  0.95632291E+00  0.30359138E+00  0.50286951E+00
  0.49472024E+00  0.99197520E+00  0.23139841E+00
  0.28130619E+00  0.25617884E+00  0.72872203E+00
  0.46510849E+00  0.74740382E+00  0.25737407E+00
  0.43806315E-01  0.51802110E+00  0.74557172E+00
  0.63492844E+00  0.78099455E+00  0.78161555E+00
  0.56124226E+00  0.60306185E+00  0.76100736E+00
  0.46257758E+00  0.75110592E+00  0.98510115E-02
  0.82571328E+00  0.27713881E+00  0.96200643E+00
  0.27138840E+00  0.78418476E+00  0.50359566E+00
  0.50344085E+00  0.21248153E+00  0.24937498E+00
  0.14560835E+00  0.95529596E-01  0.37340189E+00
  0.49374833E+00  0.43295788E+00  0.89112881E+00
  0.46045270E+00  0.99671999E+00  0.47934422E+00
  0.70978513E+00  0.74329467E+00  0.23643298E+00
  0.47880335E+00  0.25395611E-02  0.73550383E+00
  0.23099377E+00  0.27338314E+00  0.14345263E+00
  0.26936784E+00  0.77055233E+00  0.74939706E+00
  0.23385794E+00  0.49651324E+00  0.13189181E+00
  0.82483325E+00  0.94166428E-01  0.86795833E+00
  0.20184914E+00  0.92556924E+00  0.12933389E+00
  0.48798922E+00  0.45656628E+00  0.13561361E-01
  0.69957080E+00  0.24402641E+00  0.36103090E+00
  0.26688194E+00  0.49898444E+00  0.88193329E+00
  0.45377738E+00  0.49266952E+00  0.26139446E+00
  0.74455055E+00  0.78614870E+00  0.63657011E+00
  0.97620084E+00  0.43983705E+00  0.98414573E+00
  0.55997920E+00  0.77213395E+00  0.51108504E+00
  0.79437538E+00  0.50716762E+00  0.88079390E+00
  0.98924992E+00  0.23991366E+00  0.23096321E+00
  0.69904234E+00  0.30161535E-01  0.11235181E+00
  0.47739634E+00  0.26527505E+00  0.47464005E+00
  0.41059954E-01  0.55809984E+00  0.86921834E+00
  0.41587657E+00  0.99299114E+00  0.37319199E+00
  0.78086421E+00  0.30261486E+00  0.65213527E+00
  0.23044835E+00  0.21500945E+00  0.13407084E-01
  0.72826674E+00  0.71653271E-01  0.60879674E+00
  0.90734447E+00  0.63297248E+00  0.59229386E-01
  0.30590501E+00  0.95140816E+00  0.86941555E+00
  0.49077948E+00  0.52023923E+00  0.13464652E+00
  0.21063107E+00  0.99158913E+00  0.25796675E+00
  0.80468249E+00  0.51773495E+00  0.74487243E+00
  0.25075906E+00  0.15472885E-02  0.75086323E+00
  0.68807458E+00  0.48762937E+00  0.26338431E+00
  0.22557343E+00  0.95251233E+00  0.25411718E-02
  0.74043518E+00  0.50536129E+00  0.51987703E+00
  0.22563856E+00  0.21380502E-01  0.50258287E+00
  0.73304781E+00  0.52833382E+00  0.53588999E-02
  0.75519802E+00  0.23511719E-01  0.73469432E+00
  0.23601335E+00  0.50034761E+00  0.26252607E+00
  0.29548621E+00  0.49971867E+00  0.74996790E+00
  0.74135139E+00  0.99712198E+00  0.23756705E+00
  0.25062472E+00  0.51495732E+00  0.50665581E+00
  0.71871043E+00  0.23697179E-01  0.99543167E+00
  0.72802613E+00  0.99795491E+00  0.49727942E+00
  0.24192852E+00  0.46866797E+00  0.14581619E-01
  0.97319744E+00  0.26631538E+00  0.38062418E+00
  0.46317933E+00  0.74984443E+00  0.88968841E+00
  0.47733480E+00  0.25435127E+00  0.63179532E+00
  0.97160123E+00  0.75832072E+00  0.13977383E+00
  0.21063697E-01  0.26617400E+00  0.88227097E+00
  0.48153511E+00  0.73338640E+00  0.37359082E+00
  0.11418019E-01  0.76332603E+00  0.62793639E+00
  0.48667854E+00  0.25265917E+00  0.11142287E+00
  0.13555604E+00  0.36646766E+00  0.76378830E-01
  0.61651580E+00  0.93981005E+00  0.55856036E+00
  0.62926670E+00  0.12153272E+00  0.93596225E+00
  0.18397546E+00  0.62705394E+00  0.44954434E+00
  0.33681729E+00  0.37899805E+00  0.96184870E+00
  0.82824336E+00  0.88543264E+00  0.45168984E+00
  0.81980036E+00  0.14019699E+00  0.48212411E-01
  0.36222730E+00  0.62983994E+00  0.55882717E+00
  0.83088742E+00  0.12032276E+00  0.19275683E+00
  0.40062368E+00  0.61507957E+00  0.70086991E+00
  0.81633063E+00  0.90110227E+00  0.30265792E+00
  0.37375333E+00  0.36405039E+00  0.80146030E+00
  0.92074578E-01  0.60968410E+00  0.29873167E+00
  0.63671598E+00  0.11611123E+00  0.79092847E+00
  0.12407416E+00  0.38808093E+00  0.20718860E+00
  0.63092706E+00  0.90849804E+00  0.69634394E+00
  0.85381832E+00  0.63580942E+00  0.96229765E+00
  0.30018592E+00  0.11746362E+00  0.43255469E+00
  0.84373566E+00  0.42349057E+00  0.57712507E+00
  0.33776472E+00  0.86135392E+00  0.55543308E-01
  0.12389768E+00  0.13789047E+00  0.55610835E+00
  0.61280700E+00  0.63213662E+00  0.53323525E-01
  0.13635357E+00  0.87773008E+00  0.93620134E+00
  0.63980767E+00  0.42164382E+00  0.46182011E+00