Na88 Sn16 P8 S96                        
   1.00000000000000     
    13.4813327813000008    0.0000000000000000    0.0000000000000000
     0.0000000000000000   13.4813327813000008    0.0000000000000000
     0.0000000000000000    0.0000000000000000   26.9626655626000016
   Na   Sn   P    S 
    88    16     8    96
Direct
  0.0400577981236154  0.0240428259067898  0.1362205495772925
  0.5248394252126286  0.5337079719083697  0.6264462974946882
  0.5227833471918302  0.7316504784072192  0.7474744870435222
  0.7178020189317531  0.5974780802128352  0.3661041133710181
  0.0362236839035311  0.9951567048821217  0.8678395753106291
  0.9881143915937483  0.5352966341411201  0.3730806582019702
  0.0174179797365119  0.4625356359598304  0.1369391890058640
  0.2616886358063585  0.2156990432891829  0.0073685210211843
  0.8010027119262365  0.9768420677510522  0.6350980051761084
  0.0089577953015147  0.0057293020534136  0.0025287610793608
  0.7577232175084195  0.2160517362782566  0.3863890377446074
  0.2698292618074936  0.2306253387319298  0.8862106489219719
  0.7895686677811441  0.9764518117005352  0.1194032913168080
  0.2586900618106922  0.7348762236839725  0.3904003653262497
  0.9695318850362071  0.9838539272367112  0.7223251650846991
  0.1989586209519922  0.4474147268012713  0.3763038395465622
  0.0005068241036269  0.9797817578884890  0.5163155230907591
  0.2918084232393061  0.5056503952388903  0.6295451048905379
  0.2933702474436156  0.9997718827839986  0.1276789780381951
  0.2704877529701663  0.5325695122888330  0.8751298486448982
  0.5136142136746196  0.0475262512596211  0.3800970762867933
  0.2027732162905578  0.2420005158778181  0.4579526267582482
  0.7955784979283189  0.0301682587842468  0.8749007680037767
  0.0333260568957183  0.4870326446490224  0.6241844445732475
  0.2794694825330877  0.7057342036279431  0.0047757806827610
  0.2897680950601355  0.2627032315298725  0.7559760526709675
  0.7665019548340737  0.2686538292065034  0.1080784456417929
  0.8354294782504416  0.2664461514616544  0.2491175836977139
  0.4924076400387611  0.5076555566189274  0.4974032821961965
  0.5317559181918615  0.2292275460756118  0.9905448641724524
  0.9680202099523624  0.2534722901423556  0.5148907350483108
  0.4821362267475887  0.9898418430837403  0.7422895130472273
  0.0398861003736551  0.7553507140178349  0.2624262446893147
  0.7756699046854439  0.2433361055595142  0.8206994601206491
  0.0396899012118663  0.7474613013139099  0.9954372592490254
  0.7191519025825034  0.2539437894573104  0.5147347458361730
  0.5093943680535251  0.0034480388412389  0.0034150285857865
  0.5426263615387907  0.2190815594944279  0.2576526884528241
  0.7718530963636616  0.7551450421916095  0.7540616440391265
  0.5052379739418245  0.5391022798340623  0.2642627305461411
  0.0158202331270469  0.0380644774324793  0.2670063952474641
  0.0227603064128111  0.7729615387278425  0.7807139797501524
  0.5219511608658300  0.0307350632166072  0.8680439804429199
  0.9857207919640966  0.4827726274169092  0.2502550389842991
  0.0089686607767509  0.2453747819666327  0.0100201700995485
  0.3655910902110585  0.7735381302831884  0.4930976297070693
  0.9918996272465537  0.5317486391924086  0.5095821571918395
  0.7878082884563873  0.2821638437952231  0.9856950566256664
  0.9933484721040235  0.2531282455022705  0.7467357012537553
  0.5307413608252792  0.4877416815020589  0.1391145432618095
  0.0179489602433760  0.5226177758701188  0.7533800308740545
  0.5204509044966580  0.9846881844324328  0.2637787638915183
  0.2499840753932072  0.2549074886988272  0.6190247993922841
  0.8011603799264285  0.7715854141155440  0.2247087107492252
  0.7701887493801349  0.5049188891771986  0.6274522155516526
  0.7539161277978140  0.7754028313105679  0.0086027468002163
  0.9948798203941768  0.5318348850186390  0.0171364514352453
  0.5008975210514633  0.2357068731442739  0.4944746899263050
  0.5085202618883587  0.7424951584115088  0.0084094504339871
  0.7685350156079171  0.9630797735187921  0.3855181162643586
  0.5166310774897893  0.9825354452373213  0.1224421875521701
  0.9950294926155405  0.7479208249428476  0.4796469105723474
  0.0325096021873615  0.5448614912005126  0.8804769691961617
  0.5046823295106893  0.9805073635468440  0.4995901783486189
  0.2457442512593458  0.2286034284784178  0.1259962068049242
  0.7819980007111251  0.7823760307764237  0.8681787307942068
  0.2761526323263901  0.7537281791043287  0.2547931700624763
  0.7748322602416950  0.2504389283903661  0.6459578187206813
  0.5080417862552209  0.7420780240615182  0.2363137657792461
  0.5458076168587299  0.2576527334089396  0.7620118918778079
  0.2679147550146981  0.2596189611077716  0.2527018206108350
  0.2794022014333957  0.7706080739398951  0.7529277987252297
  0.2788936264393362  0.4685699425632568  0.1254658584026749
  0.4863878672388401  0.0055795146935464  0.6206259824331616
  0.7779094300131034  0.4843341927032935  0.8733840852873365
  0.2470493256675595  0.0071306938849131  0.3849799747636348
  0.5201747130709685  0.4994560262768872  0.7515470631654401
  0.7068666699548531  0.7482486881603573  0.4787125179634999
  0.7450618771478386  0.5436996537941121  0.1168078333625720
  0.2377325829529079  0.7706012451270278  0.6276168114074178
  0.5104791267395766  0.4600489218313201  0.8732976781493931
  0.0242609832249896  0.9665087101345131  0.3827488959383927
  0.7261160183914537  0.7204364983486387  0.6037484542539490
  0.2680756625439150  0.7551949711145336  0.1345001434284673
  0.1670932259063219  0.0178715535491437  0.6266100053184011
  0.5092937171432618  0.5098096211486661  0.9981314405492641
  0.2728279710574910  0.9482331378021738  0.8686183151109111
  0.4883966765609518  0.4395701209335613  0.3742199240392491
  0.2686196635163725  0.9972890843930596  0.2550975858072167
  0.7788015911620475  0.4952723816230130  0.7537430507686335
  0.2262920238341610  0.0130898787423870  0.7446379167178427
  0.7372591960162367  0.5029964594594434  0.2417838990551396
  0.2628503183992595  0.9618711328793940  0.9981215624858047
  0.7411537938226829  0.4897202583005243  0.4907805961055585
  0.2546753369790509  0.0148615723353072  0.5071667300042100
  0.7614420117064035  0.5288251427762402  0.9971396336329786
  0.7332738529553418  0.0151674251411032  0.7507601296513322
  0.2424790257908584  0.5076846075228408  0.2560814125368657
  0.2832666228943065  0.5160262941734650  0.7501659948381203
  0.7805151866335188  0.0069318803739188  0.2602106010722365
  0.2593899340167716  0.5250770152744286  0.5089360835384366
  0.7570675392747394  0.0230008427450703  0.9882580885099154
  0.7586785563270798  0.9901701561652809  0.5096378502686471
  0.2556479978941251  0.4560052084501173  0.9983344014866229
  0.9989566109398063  0.2482089305362911  0.3759328398080405
  0.5089357235018341  0.7665184430410530  0.8746475734456317
  0.5250404126438892  0.2772193794473669  0.6351291377987573
  0.0100054538455854  0.7611812731005437  0.1270094984661252
  0.0123397517356950  0.2474605175671308  0.8738251652747706
  0.4950681576462215  0.7552553058961816  0.3669869297991406
  0.9997679468734351  0.7449096459126914  0.6316090043854897
  0.5034232040361503  0.2284041490368267  0.1207479977055205
  0.1624554575715224  0.3613946284333778  0.0576624170746061
  0.6285847716774555  0.8866018546019622  0.5551368007139232
  0.6564820718644668  0.1184224812837930  0.9383859576559145
  0.1637232648205815  0.6209707398345320  0.4491654516754580
  0.3623122463353375  0.3682598286746380  0.9452716390481243
  0.8691283709094620  0.8856022497393589  0.4635765470356512
  0.8709732156348423  0.1304101279356532  0.0351245831972075
  0.3682501694016254  0.6201386040767509  0.5518885567690827
  0.8696040336932045  0.1087610055676404  0.2028314584745496
  0.3803023297137282  0.6355576099129908  0.7004342388606188
  0.8886523344025615  0.9086584917675393  0.3123412755017786
  0.3671659423243083  0.4189303108180610  0.8122091771319218
  0.1463973403430892  0.6029441255507361  0.3138387713834199
  0.6458594057828749  0.1133650766161575  0.8093100094917581
  0.1561811918678838  0.3977372038089185  0.2032226730222054
  0.6447686767172791  0.9201236760926901  0.6917863143078149
  0.8784826381987019  0.6025296521353367  0.9415287547581697
  0.3561857832661011  0.1186671449530039  0.4537775003775958
  0.8370615963455564  0.3910588552587430  0.5465013165716702
  0.3512743683760786  0.8626213233042626  0.0588121388503314
  0.1494741887151970  0.1381751928942451  0.5500796347457703
  0.6445965365769435  0.6207732294865065  0.0513801114755988
  0.1454623704397255  0.8759644462409637  0.9463517787916644
  0.6306159484028897  0.3898015614808152  0.4380733768980690
  0.6454208347956690  0.4071411176993907  0.2992417723440067
  0.1506857850760527  0.8989236690039719  0.7948107070781500
  0.1230152427033600  0.1297183042079750  0.6974634519122758
  0.6357980673666213  0.6160888934648243  0.1892645654895409
  0.8893289207629025  0.4034423613203501  0.6969637222861470
  0.3701780066700457  0.8898188503994686  0.2054964013196041
  0.3751331975234224  0.0935653121917240  0.3091068484932485
  0.8833102232578069  0.5898408594274617  0.8089674781269719
  0.1648370609907257  0.0685357790947981  0.0527883223466748
  0.6509101036434034  0.5898371948482866  0.5498111046274989
  0.6642119027668412  0.4280985633869137  0.9438207421228598
  0.1631974773089173  0.9041346022459616  0.4644000724334536
  0.3586595059853812  0.0609465531761029  0.9422530040659515
  0.8364133232997883  0.6017451278667442  0.4439189927339118
  0.8635222691082873  0.4211275896499156  0.0570919032383081
  0.3576365286511112  0.9236026310718761  0.5595466812871550
  0.1879677884776392  0.1069608922314086  0.1936698764473098
  0.6709061771551537  0.6076666574757382  0.7060250907575373
  0.1557377509013355  0.9117869127279202  0.3071156579284512
  0.6671799181544757  0.4027989464609519  0.8064853124628724
  0.8512211399744765  0.6078021304935697  0.2883911948523367
  0.3258044399506898  0.1054494425280511  0.8028324535624263
  0.8317243004621986  0.4054268148022897  0.1860535012241121
  0.3171757800292996  0.9293186377181382  0.6854699019005919
  0.8615176032260694  0.9015468606862784  0.9510110213139499
  0.3472072764183496  0.3940848396290326  0.4630867769908654
  0.8550218109362882  0.0834309202691252  0.5616994772887494
  0.3653531707988452  0.5646271673180767  0.0507889008832380
  0.1428967315951551  0.4162853068110001  0.5556536583231034
  0.6541566969140985  0.9253208642718336  0.0507069086208904
  0.1469082529956707  0.5755579937105507  0.9569249589625425
  0.6615319914589637  0.0910341682986621  0.4539435407945671
  0.3554887923044411  0.4083415549054457  0.3054956504913900
  0.8509182399913340  0.9065824816275221  0.8015547670597667
  0.8430588890649835  0.1226460334970030  0.7032758014771290
  0.3369328766407085  0.5903569480542531  0.1945073789658105
  0.1898469012083668  0.4000530140678153  0.7006994724770461
  0.6785018816083510  0.9269010626152180  0.2078883272938486
  0.6706372092671640  0.0915200481134274  0.3140001260449408
  0.1702070642060616  0.6212133374120795  0.7989268580975033
  0.1279709667497967  0.2018738522062283  0.3515545210651694
  0.5869054848056512  0.6619994396540074  0.8342100150066334
  0.6087817108924769  0.3711944999989095  0.6803512242145596
  0.0969387010988575  0.8503773996827109  0.1742692414976471
  0.4367956583221796  0.2028308528849555  0.6822497488187743
  0.9378912425436657  0.6669230864713968  0.1725283647342593
  0.9248114021131023  0.3414452641908497  0.3287287512770005
  0.4221896762988068  0.8411816114604697  0.8219747616262669
  0.0696093813639055  0.1627113098518173  0.9284160737921044
  0.5483565078747444  0.6627603852823442  0.4249091829696274
  0.0697676650339332  0.8280390963358815  0.5786201035985229
  0.5652543950936373  0.3321299224724522  0.0737611787184399
  0.9173144164792267  0.6449662486752333  0.5886731799493886
  0.4315779036936629  0.1322676560725399  0.0738626064539659
  0.9147647577070568  0.3472109257602553  0.9141098735431324
  0.4279525934436949  0.8719435478264307  0.3997078556155624
  0.8985000640419851  0.7995030369278332  0.6786217647529097
  0.4224493627026021  0.3061469890844535  0.1719761673727199
  0.9408272738435512  0.1396713134937824  0.8309720857601143
  0.3953936508590313  0.6642690123480848  0.3303074802497905
  0.1068419864481566  0.3160137232109978  0.8332167825480113
  0.6060080971691697  0.8056102287692406  0.3232558079726260
  0.0925681159015562  0.6870748451349052  0.6867389541502423
  0.6139650176238381  0.1477793460151068  0.1526208233097000
  0.4341138363792517  0.3588258886235105  0.5973941150326547
  0.9254410223064402  0.8633116239968649  0.0899718547735193
  0.9226930208712970  0.1357631747402240  0.4126692963264776
  0.4261815029542043  0.6730569736059308  0.9245696364222433
  0.0475308644421228  0.3456337921548744  0.4310115024630380
  0.5925960396734927  0.8557665089996853  0.9220719887180592
  0.5943188370767518  0.1775025596260361  0.5871022892913741
  0.1053760521152282  0.6769704430236745  0.0810589429942465
 
 -0.57102186E-02  0.14445577E-02 -0.80877017E-04
  0.10653162E-02 -0.41389176E-02  0.26708888E-02
 -0.36026339E-02 -0.16806276E-02 -0.22919574E-02
 -0.44800469E-03  0.61579144E-03 -0.16427190E-02
 -0.71241932E-03  0.17279327E-02 -0.26236513E-02
  0.16229715E-02  0.61258837E-03  0.17522647E-02
 -0.69516295E-02 -0.84429358E-03  0.33753907E-02
  0.52561939E-02  0.10275330E-01  0.87221009E-03
  0.36969094E-02  0.58232788E-02 -0.71666321E-02
 -0.37295737E-03 -0.50293768E-02  0.67991280E-02
 -0.18360420E-02  0.29986065E-02  0.71875031E-02
  0.32423027E-02 -0.47878476E-02 -0.43914057E-02
 -0.24933285E-02  0.65099488E-02 -0.11421177E-01
  0.50666450E-02  0.26793099E-02 -0.14691079E-02
  0.14041259E-02  0.53839884E-02 -0.83014683E-03
  0.46222036E-03 -0.12826181E-01 -0.10097330E-01
  0.54882645E-03 -0.94468407E-02 -0.24193175E-02
  0.25874967E-02 -0.51267532E-02  0.70024277E-02
 -0.11145280E-03 -0.25816644E-02 -0.20603344E-02
  0.22268705E-02 -0.26630888E-03  0.34573441E-02
  0.49097630E-02  0.74932986E-02 -0.42249942E-02
 -0.10863132E-02  0.89852323E-03  0.20002761E-02
 -0.55523691E-02  0.54534258E-02  0.36076131E-03
 -0.25620959E-03  0.48662349E-02  0.35149612E-02
 -0.49592113E-02 -0.30900342E-02  0.73401022E-02
 -0.43182041E-02  0.10608943E-01  0.52356565E-02
  0.92949945E-02  0.26373422E-02  0.63511520E-03
 -0.28819810E-02  0.11852355E-01 -0.28598234E-02
 -0.38992599E-02  0.19536673E-02 -0.97651619E-04
 -0.94973431E-03 -0.37600864E-02  0.24233717E-02
  0.10876868E-02 -0.32898586E-02  0.10705861E-01
 -0.18918575E-02 -0.22750585E-02  0.25037138E-02
  0.10166887E-02  0.11527491E-02 -0.77203900E-02
  0.89640743E-03 -0.80323914E-02  0.16371851E-02
  0.33276564E-02  0.83828223E-02 -0.23760802E-02
 -0.24193760E-02 -0.30095708E-02 -0.13165176E-02
  0.43299486E-03 -0.61184394E-02  0.58580310E-02
  0.99488611E-02  0.26892718E-02 -0.28321407E-03
  0.10049218E-02 -0.10136208E-01  0.91343187E-02
  0.18801809E-02  0.23066930E-02  0.13343070E-02
  0.22725517E-02 -0.12942362E-02  0.79987970E-02
 -0.24983092E-03  0.24600293E-02  0.36497625E-04
  0.17906191E-02  0.28503005E-04  0.91436170E-02
 -0.42842266E-02 -0.72164929E-03  0.51489167E-03
 -0.39254077E-02  0.62869660E-02  0.40092949E-02
 -0.58720241E-02 -0.80821740E-02  0.37513112E-02
  0.36152415E-02 -0.24056887E-03  0.24661596E-02
  0.51113459E-02 -0.16298643E-02  0.11005304E-01
 -0.35097325E-03 -0.46896463E-02 -0.24071116E-02
 -0.24398065E-03 -0.30827437E-02 -0.82936428E-02
 -0.77676380E-03  0.89766161E-02  0.48717625E-02
  0.71098991E-03  0.74595964E-02 -0.24169796E-02
 -0.14302956E-02  0.51547562E-02 -0.35026220E-02
 -0.32817772E-02  0.80213747E-02  0.55152061E-02
 -0.85882828E-02 -0.56243817E-02  0.74470866E-02
  0.48958651E-03  0.78064913E-02  0.35265874E-03
 -0.34478130E-02  0.49616071E-02  0.89262564E-03
  0.60524048E-02  0.23855416E-02 -0.41597134E-03
 -0.52590039E-02 -0.63519163E-02  0.23533050E-02
 -0.44162869E-02 -0.71133956E-02  0.23856545E-03
 -0.10161374E-02 -0.62341520E-02 -0.32274501E-02
 -0.10401347E-02 -0.10394988E-01 -0.37518699E-02
  0.46835238E-02  0.43224413E-02  0.25007803E-02
  0.63101786E-03  0.37958056E-02 -0.20660368E-02
 -0.23554278E-02  0.14905409E-02 -0.31033278E-02
 -0.56294129E-02  0.20893852E-02  0.14567477E-02
 -0.20383380E-02 -0.56007347E-02 -0.37799083E-02
 -0.43569224E-02  0.33546646E-02  0.65476382E-02
 -0.19168595E-02  0.37128246E-02  0.17596219E-02
  0.16220826E-02 -0.21237818E-02 -0.74953945E-03
  0.28007806E-02  0.90757759E-05  0.36895715E-02
  0.26804081E-02  0.25781718E-02 -0.61657555E-02
  0.66092439E-03 -0.80664621E-02  0.18908927E-02
  0.13853650E-02  0.62569404E-02 -0.35258463E-02
 -0.22876134E-02  0.43511482E-02  0.33437848E-02
 -0.29850102E-02  0.52546865E-02 -0.64337148E-02
 -0.53404609E-02 -0.62054013E-02  0.11892439E-01
 -0.13269052E-02 -0.47300640E-02  0.13876553E-02
 -0.34374831E-02  0.13317539E-03 -0.21279129E-02
  0.43062023E-03 -0.94453105E-03  0.14619664E-02
 -0.17054079E-02 -0.28688165E-04  0.39516591E-02
 -0.74987169E-02 -0.53398331E-02 -0.29927825E-02
 -0.76973983E-02  0.51444363E-02  0.11816097E-02
 -0.10098210E-02 -0.24822105E-02 -0.60934335E-02
  0.31287532E-02  0.92290184E-03 -0.22777608E-02
  0.50074531E-02  0.32933929E-02  0.42701886E-02
  0.30980642E-02  0.21574976E-02  0.27596815E-04
 -0.39963236E-02  0.65531609E-02 -0.53295739E-02
 -0.93150295E-03  0.12868427E-02  0.29501756E-02
  0.14062552E-02  0.32774698E-03 -0.24467754E-02
 -0.20199801E-02  0.35152337E-02  0.16833582E-02
 -0.36761858E-04 -0.26544783E-02 -0.83025642E-04
 -0.23468722E-02  0.22585145E-02 -0.21140411E-02
  0.11221152E-02 -0.89280631E-03 -0.22616101E-02
  0.46459382E-02 -0.61154330E-03 -0.80919847E-03
  0.98135198E-03 -0.54905126E-03  0.66994326E-03
  0.37217219E-02  0.22814343E-02 -0.23951969E-02
  0.17481621E-02 -0.12927135E-02  0.46325351E-02
 -0.25843842E-02  0.20550397E-02  0.76193164E-03
  0.24999884E-02  0.15328171E-03 -0.19636627E-02
  0.77685834E-03  0.13297660E-02  0.80934882E-03
  0.45740753E-02 -0.44623697E-03 -0.14923204E-02
  0.77510852E-03  0.11196881E-02 -0.48688977E-03
  0.11844545E-02 -0.31727971E-02 -0.33825096E-02
  0.11203427E-02 -0.50981394E-02 -0.29187916E-02
 -0.40593516E-03 -0.21120783E-02 -0.56552432E-02
  0.17416980E-02 -0.23618715E-02  0.42332054E-02
 -0.13973612E-02 -0.14773326E-02 -0.57716916E-02
 -0.10544467E-02 -0.14419084E-02  0.47373883E-02
  0.24942645E-02 -0.41180635E-02  0.41824906E-02
  0.41521840E-02  0.69210667E-03  0.24170408E-02
  0.13243437E-02  0.12396387E-02  0.71320359E-02
  0.36848246E-02  0.13703765E-02 -0.40367156E-02
 -0.15655567E-02  0.12685117E-02 -0.27263940E-02
 -0.10521761E-02 -0.49805339E-03  0.38283543E-02
  0.15758223E-02 -0.25248941E-02  0.17804796E-02
 -0.24776464E-02  0.14781600E-02 -0.32395239E-02
 -0.31187358E-02 -0.10217186E-02 -0.94041380E-03
  0.15033680E-02 -0.51222245E-02 -0.10362368E-02
  0.23451498E-03 -0.26199369E-03  0.28970346E-02
 -0.73694042E-02  0.18751934E-02 -0.31364789E-02
  0.31252840E-03  0.72400198E-03 -0.79686351E-02
 -0.55141338E-02  0.42554845E-02 -0.30425183E-03
 -0.84609762E-03 -0.24315120E-02  0.39728082E-02
  0.98855511E-04  0.40930790E-02 -0.20268694E-02
 -0.26863898E-02 -0.91879456E-03 -0.40507135E-02
 -0.28863820E-02 -0.28282963E-02 -0.26053227E-02
  0.40874769E-02 -0.10222289E-02  0.62604027E-02
 -0.30221876E-03  0.18275241E-02 -0.35993010E-02
  0.98116564E-03  0.59095194E-03  0.24501896E-02
  0.29144928E-02 -0.23130505E-02  0.52953165E-02
 -0.27767869E-03 -0.13675378E-02 -0.70757151E-03
 -0.17337295E-02 -0.17287531E-02  0.30290876E-02
 -0.41421326E-02 -0.71940423E-02  0.27284277E-02
  0.21407242E-02 -0.56859007E-02  0.34755344E-02
  0.29283454E-02  0.24690161E-02 -0.95970838E-02
 -0.56005603E-03 -0.50612759E-02 -0.42085671E-02
 -0.53398003E-02 -0.15006381E-02 -0.20443869E-02
 -0.10521361E-01 -0.48746597E-02  0.21168501E-02
 -0.23381538E-02  0.21872615E-02  0.48760491E-02
 -0.70464971E-02 -0.25953477E-03  0.29507642E-02
  0.27848018E-02 -0.39407694E-02 -0.76299736E-03
 -0.26265248E-02  0.77510270E-02  0.18862956E-03
  0.53039422E-02  0.17255332E-02  0.55481735E-02
 -0.43377239E-02 -0.24567925E-02  0.50307385E-03
 -0.26355276E-03 -0.35945020E-03  0.37399570E-02
 -0.32659135E-02  0.61643887E-02 -0.70592626E-02
  0.20810188E-02 -0.21325837E-02 -0.27435760E-02
 -0.35491155E-03 -0.35109832E-02 -0.72987625E-03
  0.47720950E-02 -0.12659654E-02 -0.66064362E-02
  0.49376689E-03 -0.16013484E-02  0.28004741E-02
 -0.61510192E-02  0.19575771E-02 -0.49641134E-02
 -0.34752448E-02 -0.48593029E-02 -0.43196551E-02
 -0.31462782E-02  0.85671512E-03 -0.21494321E-02
 -0.34571751E-02 -0.20931737E-03  0.31222933E-02
  0.59127877E-02  0.35285261E-02  0.13007985E-02
  0.10305558E-02  0.47751476E-02  0.13779083E-02
  0.67726488E-02  0.31278378E-02 -0.17429505E-02
 -0.53872839E-02 -0.60862928E-02 -0.94643670E-03
 -0.96775472E-03  0.19433866E-02  0.83043404E-02
 -0.70350028E-02  0.73833177E-03 -0.88953031E-02
  0.21851309E-03 -0.44772079E-03  0.38993336E-02
  0.27750486E-02  0.62227493E-03 -0.39595098E-02
  0.55258215E-02 -0.18244447E-02  0.30833860E-02
 -0.58428632E-02 -0.39639642E-02 -0.43969832E-03
  0.32440541E-02 -0.33235716E-02  0.18857509E-02
  0.26244645E-02  0.25131331E-02 -0.96143263E-04
 -0.20727532E-02 -0.68840541E-02  0.24080364E-03
 -0.33149870E-02  0.17838226E-02 -0.45174317E-02
  0.20858911E-02 -0.47785994E-02 -0.38838581E-02
 -0.34032855E-03  0.18905197E-02 -0.17906439E-02
 -0.57106435E-02 -0.51830806E-02 -0.69411686E-03
  0.32774846E-02 -0.64174950E-03  0.44678308E-02
 -0.65272453E-04 -0.19795080E-02  0.28702489E-02
  0.43317966E-02  0.50229690E-02  0.17831228E-02
  0.22169001E-02  0.32404842E-02  0.42351223E-03
 -0.38734524E-02 -0.22611824E-02 -0.12424968E-02
  0.42721880E-02 -0.65526666E-03  0.70574704E-03
 -0.13796154E-02  0.39752777E-02 -0.39833685E-02
 -0.36927221E-02 -0.46690378E-02 -0.64315478E-02
  0.64203516E-02  0.35432842E-02  0.68563804E-02
 -0.93853902E-03 -0.28661884E-02  0.49592770E-02
 -0.61371436E-03 -0.19237986E-02  0.15951226E-02
 -0.24299949E-02  0.20094928E-02 -0.23985312E-03
 -0.35335958E-02 -0.33002433E-03 -0.14593771E-02
  0.55900832E-02 -0.45654667E-02  0.22028760E-02
 -0.17537094E-02  0.98777664E-02  0.17582428E-02
 -0.45460949E-02 -0.62441925E-03  0.15211893E-02
 -0.22866931E-02  0.58773572E-02 -0.14456078E-02
 -0.15914677E-02  0.43080245E-02 -0.38664550E-02
 -0.36895499E-02  0.69485898E-02 -0.12950590E-02
 -0.41173109E-02  0.53164396E-02 -0.13129150E-02
  0.10673880E-02 -0.53138697E-02 -0.22461253E-03
  0.30948063E-02  0.43010493E-02 -0.24828407E-02
  0.42006051E-02 -0.56653158E-02 -0.11682374E-02
 -0.35431370E-02  0.10642705E-01 -0.21886924E-02
 -0.94136808E-02 -0.66755727E-02  0.42063568E-02
  0.77837711E-02  0.58761503E-02 -0.18671592E-02
  0.31714807E-02 -0.27801482E-02 -0.40703896E-02
  0.19889217E-02 -0.24070364E-02  0.72992642E-03
  0.13826755E-03  0.24702728E-02  0.36835519E-03
  0.52567289E-03  0.57612605E-02 -0.36487198E-02
  0.53708752E-02 -0.53878925E-02  0.71665830E-02
  0.11142797E-02 -0.93140542E-02 -0.47894367E-02
 -0.27523465E-04 -0.33430690E-02 -0.33627169E-02
  0.62723268E-02 -0.29446702E-02  0.26580975E-03
 -0.60677582E-03 -0.36461271E-02 -0.46385731E-02
  0.30027076E-02  0.20559446E-02  0.71980439E-02
 
           1
   2.00000000000000     
  0.14685696E+01  0.39397735E-02  0.00000000E+00  0.00000000E+00
  0.39210668E-01  0.24257131E-01  0.13621455E+00
  0.52499747E+00  0.53309395E+00  0.62664442E+00
  0.52224888E+00  0.73140115E+00  0.74730448E+00
  0.71773556E+00  0.59756943E+00  0.36598226E+00
  0.36117994E-01  0.99541305E+00  0.86764496E+00
  0.98835516E+00  0.53538751E+00  0.37321064E+00
  0.16386683E-01  0.46241038E+00  0.13718956E+00
  0.26246841E+00  0.21722342E+00  0.74332186E-02
  0.80155116E+00  0.97770597E+00  0.63456641E+00
  0.89024658E-02  0.49831775E-02  0.30330976E-02
  0.75745083E+00  0.21649659E+00  0.38692218E+00
  0.27031027E+00  0.22991505E+00  0.88588491E+00
  0.78919877E+00  0.97741758E+00  0.11855611E+00
  0.25944172E+00  0.73527371E+00  0.39029139E+00
  0.96974019E+00  0.98465266E+00  0.72226359E+00
  0.19902719E+00  0.44551192E+00  0.37555485E+00
  0.58824431E-03  0.97838029E+00  0.51613607E+00
  0.29219229E+00  0.50488982E+00  0.63006452E+00
  0.29335371E+00  0.99938888E+00  0.12752615E+00
  0.27081812E+00  0.53253000E+00  0.87538630E+00
  0.51434259E+00  0.48637907E-01  0.37978368E+00
  0.20261206E+00  0.24213381E+00  0.45810100E+00
  0.79475479E+00  0.30977292E-01  0.87492753E+00
  0.33288047E-01  0.48775457E+00  0.62444517E+00
  0.27873377E+00  0.70527579E+00  0.53202448E-02
  0.28912748E+00  0.26427710E+00  0.75636442E+00
  0.76788090E+00  0.26904509E+00  0.10812556E+00
  0.83500193E+00  0.26820449E+00  0.24890545E+00
  0.49182917E+00  0.50794539E+00  0.49739604E+00
  0.53161502E+00  0.22866972E+00  0.99072462E+00
  0.96818157E+00  0.25298423E+00  0.51568486E+00
  0.48185556E+00  0.98950433E+00  0.74247523E+00
  0.40036929E-01  0.75552173E+00  0.26185357E+00
  0.77580289E+00  0.24214447E+00  0.82082090E+00
  0.40183570E-01  0.74870492E+00  0.99526101E+00
  0.71879298E+00  0.25349731E+00  0.51463709E+00
  0.50945860E+00  0.25403483E-02  0.38495577E-02
  0.54410231E+00  0.21948052E+00  0.25763168E+00
  0.77200218E+00  0.75364130E+00  0.75473920E+00
  0.50551690E+00  0.53944449E+00  0.26436170E+00
  0.16157374E-01  0.37872473E-01  0.26759972E+00
  0.22723243E-01  0.77332649E+00  0.78071669E+00
  0.52221681E+00  0.30739292E-01  0.86872222E+00
  0.98508521E+00  0.48266557E+00  0.25029323E+00
  0.83863136E-02  0.24630747E+00  0.10317566E-01
  0.36471996E+00  0.77233911E+00  0.49337589E+00
  0.99243596E+00  0.53171295E+00  0.50976509E+00
  0.78856657E+00  0.28192205E+00  0.98651139E+00
  0.99329640E+00  0.25243252E+00  0.74655715E+00
  0.53070517E+00  0.48728435E+00  0.13849935E+00
  0.17833725E-01  0.52394949E+00  0.75374140E+00
  0.52055638E+00  0.98579484E+00  0.26359948E+00
  0.24977189E+00  0.25567221E+00  0.61876499E+00
  0.80067352E+00  0.77277541E+00  0.22511781E+00
  0.76891465E+00  0.50408449E+00  0.62800462E+00
  0.75398876E+00  0.77656095E+00  0.86289058E-02
  0.99436833E+00  0.53257096E+00  0.17202663E-01
  0.50179542E+00  0.23606078E+00  0.49444383E+00
  0.50774007E+00  0.74155283E+00  0.85840107E-02
  0.76787984E+00  0.96202448E+00  0.38553581E+00
  0.51648033E+00  0.98161059E+00  0.12220279E+00
  0.99487519E+00  0.74637869E+00  0.47936861E+00
  0.33204418E-01  0.54550274E+00  0.88066247E+00
  0.50477594E+00  0.98107048E+00  0.49943693E+00
  0.24539482E+00  0.22882456E+00  0.12576601E+00
  0.78116286E+00  0.78268600E+00  0.86828679E+00
  0.27585024E+00  0.75289729E+00  0.25451279E+00
  0.77418590E+00  0.25093660E+00  0.64644350E+00
  0.50775741E+00  0.74262883E+00  0.23644429E+00
  0.54604826E+00  0.25733766E+00  0.76195629E+00
  0.26833026E+00  0.25962031E+00  0.25297550E+00
  0.27979985E+00  0.77099055E+00  0.75247044E+00
  0.27899168E+00  0.46737326E+00  0.12560612E+00
  0.48659339E+00  0.65077523E-02  0.62036445E+00
  0.77757006E+00  0.48497970E+00  0.87363212E+00
  0.24660649E+00  0.79102439E-02  0.38450274E+00
  0.51938244E+00  0.49853543E+00  0.75242920E+00
  0.70666982E+00  0.74754697E+00  0.47881545E+00
  0.74455192E+00  0.54371941E+00  0.11664999E+00
  0.23779647E+00  0.77046112E+00  0.62772526E+00
  0.51022612E+00  0.46004467E+00  0.87359080E+00
  0.23148524E-01  0.96571653E+00  0.38252690E+00
  0.72497408E+00  0.72119969E+00  0.60383610E+00
  0.26792585E+00  0.75482673E+00  0.13404815E+00
  0.16755739E+00  0.18008469E-01  0.62644105E+00
  0.51003659E+00  0.51029821E+00  0.99844819E+00
  0.27328758E+00  0.94855321E+00  0.86862036E+00
  0.48780381E+00  0.44054230E+00  0.37382459E+00
  0.26848147E+00  0.99747999E+00  0.25531642E+00
  0.77901021E+00  0.49532100E+00  0.75356156E+00
  0.22599235E+00  0.13611375E-01  0.74476278E+00
  0.73725374E+00  0.50260266E+00  0.24177774E+00
  0.26250215E+00  0.96220619E+00  0.99796475E+00
  0.74132026E+00  0.48958781E+00  0.49061284E+00
  0.25536458E+00  0.14770848E-01  0.50710671E+00
  0.76158760E+00  0.52874369E+00  0.99718933E+00
  0.73382598E+00  0.15505883E-01  0.75058246E+00
  0.24273837E+00  0.50749283E+00  0.25642504E+00
  0.28288322E+00  0.51633117E+00  0.75022251E+00
  0.78088607E+00  0.69546202E-02  0.26006494E+00
  0.25950518E+00  0.52527429E+00  0.50899612E+00
  0.75774612E+00  0.22934642E-01  0.98814739E+00
  0.75879355E+00  0.99033627E+00  0.50960173E+00
  0.25582372E+00  0.45553451E+00  0.99808350E+00
  0.99912282E+00  0.24745260E+00  0.37571633E+00
  0.50887550E+00  0.76620511E+00  0.87422809E+00
  0.52529880E+00  0.27686899E+00  0.63544314E+00
  0.97981507E-02  0.76096211E+00  0.12658137E+00
  0.12183321E-01  0.24724661E+00  0.87417657E+00
  0.49543819E+00  0.75464438E+00  0.36729717E+00
  0.38393701E-03  0.74501232E+00  0.63178829E+00
  0.50361967E+00  0.22858805E+00  0.12127703E+00
  0.16300211E+00  0.36159793E+00  0.57362987E-01
  0.62835252E+00  0.88679004E+00  0.55493457E+00
  0.65632598E+00  0.11834859E+00  0.93866993E+00
  0.16395704E+00  0.62059616E+00  0.44929752E+00
  0.36194468E+00  0.36847912E+00  0.94503134E+00
  0.86866570E+00  0.88545067E+00  0.46350679E+00
  0.87119625E+00  0.12965023E+00  0.35047719E-01
  0.36828496E+00  0.62009974E+00  0.55210345E+00
  0.86851076E+00  0.10903920E+00  0.20259881E+00
  0.38034869E+00  0.63566502E+00  0.69984315E+00
  0.88783429E+00  0.90928981E+00  0.31231871E+00
  0.36704042E+00  0.41856959E+00  0.81250387E+00
  0.14641201E+00  0.60355135E+00  0.31368843E+00
  0.64546087E+00  0.11322877E+00  0.80900954E+00
  0.15575299E+00  0.39731762E+00  0.20302942E+00
  0.64537507E+00  0.91997203E+00  0.69225069E+00
  0.87843780E+00  0.60280077E+00  0.94126177E+00
  0.35633134E+00  0.11875481E+00  0.45395925E+00
  0.83749397E+00  0.39071571E+00  0.54689411E+00
  0.35123317E+00  0.86241844E+00  0.58759654E-01
  0.14921698E+00  0.13791873E+00  0.55030432E+00
  0.64398204E+00  0.61970597E+00  0.51582497E-01
  0.14577995E+00  0.87512092E+00  0.94660958E+00
  0.63105038E+00  0.39016785E+00  0.43736150E+00