Na88 Sn16 P8 Se96                       
   1.00000000000000     
    14.0793397336999995    0.0000000000000000    0.0000000000000000
     0.0000000000000000   14.0793397336999995    0.0000000000000000
     0.0000000000000000    0.0000000000000000   28.1586794673000007
   Na   Sn   P    Se
    88    16     8    96
Direct
  0.9975646119982783  0.0007205203589874  0.9821556569193826
  0.4938248324604308  0.4807825302553159  0.7481665902700093
  0.5467104478462974  0.6227820527076549  0.9798047499038509
  0.0123386178925036  0.9953877119991729  0.2405041040102529
  0.5056921239117715  0.9809835823942600  0.6450600112791836
  0.0031120885644197  0.5041907634426859  0.4665152064263637
  0.9911447396135773  0.4763059923619383  0.1484026821014251
  0.2908898474465946  0.2067713941701901  0.9933206658223713
  0.7249590969196401  0.4771325621357714  0.6297798081559000
  0.7716200721150811  0.2543914799289814  0.0076516521576360
  0.5111120104913743  0.7515519133868446  0.2474475566629794
  0.2722343711294758  0.4699422585701580  0.8656280256017294
  0.7698915583573135  0.2337893187675703  0.1360960580199886
  0.2338179602895074  0.7538305809497668  0.6437944764947107
  0.2388647664894127  0.9959731861283706  0.8687385157804758
  0.4775191247538229  0.5043523540787964  0.3734743038661389
  0.9780772756965536  0.9857454058213543  0.7571102085830799
  0.9870461762867463  0.4832172675398451  0.6118219594370398
  0.2754347959497208  0.9818064291584536  0.1088343373800919
  0.0017423370711240  0.4877795705064073  0.8781152742135632
  0.7967255088872576  0.0292879432599502  0.3712230153061492
  0.4237121974530878  0.9713800357610411  0.3714121779628322
  0.7630015024587503  0.6495310267030006  0.8832609799231523
  0.7508161198318835  0.2446840449183177  0.7525465219227873
  0.2497543823202938  0.2229420387850034  0.1116633486626962
  0.2368645678041822  0.2629180602466869  0.4876949616250523
  0.7432899415240102  0.7884849182456128  0.1186376735951400
  0.7400317540826388  0.2443472288704105  0.3581559157366198
  0.4871880111028530  0.5101164235267013  0.4839060360236389
  0.5138721682073945  0.9581851611258586  0.0059423166156023
  0.9925689690990689  0.0468980326638400  0.4887281240942500
  0.3940924520627125  0.7019219463699545  0.7572567811184766
  0.1962870074971829  0.5169607445544074  0.3657262034299564
  0.4803187316986662  0.2162795427598369  0.7495667009488146
  0.7511091890811500  0.9877703621677700  0.8806983413688563
  0.4905867318257028  0.2867075184078148  0.4886868668630440
  0.5093110568428820  0.5099953903473907  0.1072608390471049
  0.4724295119944533  0.2986785259698587  0.2616019783924907
  0.9999051284508517  0.7238028344642061  0.7557767359719653
  0.2822226610984366  0.7670712880691478  0.2455846306132448
  0.7857813424861256  0.7528675071772688  0.2390914818153547
  0.4868285888204085  0.9626921671996818  0.7671649244726385
  0.7459878995975927  0.7417407820587151  0.7724381360086831
  0.0142923397055980  0.5000320534094053  0.2742322017850455
  0.0198678493076727  0.2401203523220131  0.0007297761236883
  0.7522230223837530  0.7460961878014928  0.5159650918044155
  0.2319047805318602  0.7733996292231141  0.5017464442184730
  0.6343578788132240  0.3465730085432516  0.2063754818244668
  0.0000850803514227  0.9390644826150336  0.8825284107987297
  0.4885580171591125  0.5358477987739482  0.2555754239425672
  0.9890082873179887  0.4888173899148904  0.7411294892096025
  0.5459531917959733  0.0320582856493438  0.2487494658167526
  0.2774845145675675  0.2771549810908003  0.3766523869432944
  0.7418535842979914  0.7492655127721950  0.0008148087194541
  0.7324839677326995  0.2402618542964332  0.4834257269507610
  0.2845659524455668  0.7028116773369355  0.1083435733207537
  0.0095136174250991  0.5130737061382109  0.0097853042170722
  0.4895737729312065  0.5123659658266051  0.6287368402436098
  0.5194514329767288  0.2707295721187697  0.0017709092022415
  0.9808279254559670  0.2712661321121004  0.4995190842971297
  0.5324149066723399  0.9801609130584696  0.1167543506025525
  0.9825141794372931  0.7616999243684016  0.5017187145794476
  0.0186620159269408  0.7766589467604177  0.9941635854851893
  0.4825045983815903  0.7507052334654604  0.5125109253449099
  0.2411802670591955  0.2788197229748137  0.2588672553614881
  0.7450152924625054  0.7875080859435404  0.6304939061255119
  0.1032551713897330  0.0085674358747640  0.3675122040092978
  0.9794293548613422  0.2122249420640135  0.7611826242443770
  0.0045547772039349  0.7654599727574231  0.2485550717915977
  0.2055006952554906  0.2537105755852647  0.6349942916874385
  0.8685027810831507  0.2474615937566312  0.2480548312253422
  0.2954699868025064  0.6860253167121486  0.9890284869065700
  0.2660744025771870  0.4620790551827142  0.1268107050077788
  0.9723219156679206  0.0208438458769485  0.6149564897539647
  0.7049337188112013  0.2344502379629391  0.8728999198109363
  0.2324945443448772  0.7638013792682672  0.3726752849420695
  0.2156547754432364  0.7440545955188411  0.8517108350455108
  0.7811821044839661  0.8018459208723092  0.3741407016020390
  0.0276890125781752  0.0156434686091489  0.1098872666495436
  0.2273409829853218  0.4793580250880418  0.6106877073792026
  0.4840336919468018  0.4536692390146248  0.8753080474734363
  0.4847858165324150  0.0210379726791892  0.5012085258647110
  0.7416827181846655  0.2156921562913305  0.6247678818984299
  0.2251356125855905  0.2159328184049408  0.8162092381908979
  0.2181699361943961  0.0034980489348562  0.6273362942826797
  0.7628819333947588  0.5117104125815153  0.1238225752765558
  0.5149539828823475  0.9725018974495337  0.8804984687041025
  0.8004807003001229  0.5088474221619157  0.3804153952542764
  0.3014721971927318  0.0275426983994586  0.2584107778388491
  0.7278355236923154  0.4922725780813387  0.7628195485021578
  0.2407127488723879  0.0148016764161522  0.7498402910454497
  0.7527112883039208  0.5211506900649239  0.2519768315145115
  0.2841726023125333  0.9583986540757026  0.9881486623911714
  0.7246511289267553  0.4968502716344886  0.5021154608770915
  0.2286194899672852  0.0240577915729532  0.5043407029695329
  0.7720437501397924  0.5202337406812630  0.0021483015233927
  0.7311587440852744  0.0131024095050287  0.7497139612894437
  0.2348299442001301  0.5485479216693926  0.2354622769664874
  0.2370301052065694  0.4755177025258503  0.7361864390883184
  0.7773253461904384  0.9918504217925685  0.2380556566118867
  0.2530034475117168  0.5338782328375903  0.4885314444416839
  0.7699491903522291  0.0133964760399203  0.0038223527357783
  0.7384026505180212  0.9865188103724311  0.5022383774906528
  0.2560338096051794  0.4485810597720278  0.9979346362894140
  0.0091754540805013  0.2533323214470106  0.3554980162020105
  0.4816212180906917  0.7200178851834390  0.8725089405209190
  0.4689484611403031  0.2452579973667385  0.6176244423479949
  0.0213818388628792  0.7694528315389171  0.1294823009117051
  0.9988172241840745  0.2312388450962846  0.8838781149426939
  0.5020601602137894  0.7536881801561034  0.3799002256925928
  0.9717522197653751  0.7378941098974579  0.6348169655958591
  0.5159247292933412  0.2630587590808540  0.1183980496970516
  0.1681530673665999  0.3573256146609244  0.0564167330094187
  0.6378811119579151  0.8778529039994777  0.5594248407291922
  0.6653541859191183  0.1224736026407739  0.9553635198356899
  0.1454832189795458  0.6432710506297561  0.4377642505415829
  0.3732891727250469  0.3544420846086065  0.9477402136852600
  0.8479736082609299  0.8978974731388468  0.4521428079490862
  0.8977639554513501  0.1090903124492431  0.0503226598052216
  0.3475636297367755  0.6093333167105444  0.5489083704682770
  0.8734966945374647  0.0940547518869247  0.1853821816090324
  0.3192484127456084  0.5787053025688397  0.6827743218905218
  0.8924292004309328  0.9064797745058453  0.2933250743095500
  0.3516052687540570  0.3642346712427708  0.7847839352105332
  0.1455432389037394  0.6394154182781785  0.2945088848627975
  0.6187412244741315  0.0787850838431081  0.8140577276132624
  0.1279719944931023  0.4285505628529628  0.1979768704873081
  0.6307574535283866  0.8845334467151490  0.7151405483306846
  0.8876864585362261  0.6116467727675604  0.9491485961131149
  0.3260349251931947  0.1057359403668087  0.4378713050210519
  0.8239084253834581  0.3798687294775768  0.5568656489086550
  0.3886415729769961  0.8540736609608556  0.0462500893558562
  0.1158744860243450  0.1234995646866079  0.5593975656396417
  0.6888504867459445  0.6251364730013350  0.0633530538443265
  0.1752063640060762  0.8506091273153044  0.9462726806540978
  0.6364600966762829  0.3791540306209726  0.4400184940236900
  0.6281537656219541  0.4231065491063057  0.3003362006956616
  0.1322616135226594  0.8912540621243439  0.8010525686924531
  0.1086947906118444  0.1058425675988053  0.7039767538649943
  0.6376436734732772  0.6260539884565782  0.1925158588751206
  0.8303589683815535  0.3853087860217900  0.7055156968309062
  0.3815521870977458  0.9040344036794058  0.2044332605970333
  0.4058571096025723  0.1321428855669120  0.3162263020856212
  0.8704957463614893  0.5973472164570115  0.8083282687105116
  0.1899092194534384  0.0789523847960678  0.0424166106365461
  0.6141875605166452  0.5915707482227215  0.5647566980972444
  0.6422186753815335  0.4341484849721225  0.9594502218073382
  0.1338860158361865  0.9151083481515927  0.4440501037320585
  0.3866375803510188  0.0846743303568688  0.9413048584240001
  0.8460929080559910  0.6076057661666532  0.4609203162348470
  0.8833967723638121  0.4050751284006433  0.0517368051633501
  0.3288364104223043  0.9259526947711523  0.5585325866798068
  0.1848418108672394  0.1118900574970776  0.2027217239969485
  0.6517398428336258  0.6109528130698306  0.7067513695064692
  0.2271756989254221  0.9091383901549531  0.3147413496497117
  0.6262315870681164  0.3810576763389224  0.8070662738651538
  0.8622078140802001  0.6223781422038970  0.3013647597487763
  0.3637637508695916  0.0920458789884387  0.8061715274264373
  0.8377821663512313  0.4103948068506552  0.1978660236836770
  0.3255836005880854  0.8967057782103364  0.7016843016862260
  0.8547369347267090  0.8791882735704170  0.9448859551667266
  0.3446286167124497  0.4271995111020747  0.4335308805958549
  0.8515843419119941  0.1012985320368079  0.5477143180234885
  0.3643750652707485  0.5447708821868641  0.0481413853583253
  0.1146133638135042  0.4317891621216262  0.5316743657509151
  0.6717175519492068  0.9203541129665205  0.0655343027245727
  0.1551948780214331  0.5578776390895506  0.9517252844922967
  0.6281001153313457  0.0771279359367542  0.4468118062844031
  0.3210154582838652  0.4447843370860484  0.2957636522724807
  0.8413233275863622  0.8959129913262354  0.8015768099762965
  0.8386447908990560  0.1116133742320979  0.6949078110237706
  0.3653505557241614  0.6037494340254537  0.1819188779358688
  0.1166366412925508  0.3916064802678240  0.6829230689916646
  0.6650244395688685  0.8822601739837079  0.1975688569473256
  0.6939989566228344  0.1318146831059790  0.2786192371818396
  0.1501132511489177  0.5893376372302371  0.7967635616494355
  0.0772425111667766  0.1747403591327643  0.2958688031359148
  0.5627787736164191  0.6328410727253539  0.8163629675725024
  0.5670272375260457  0.3350899776346712  0.6616156415893860
  0.1100927122843755  0.8678063936896493  0.1742059114219450
  0.3776069361063364  0.1461339375020076  0.6626910078051047
  0.9293953941474304  0.6608645034697515  0.1694013224738994
  0.9162848068418774  0.3646505071089415  0.3241380230098579
  0.3919172514449932  0.8210702306202838  0.8357707537017581
  0.0991881873777365  0.1378102651504030  0.9217592782069622
  0.6146131438340071  0.6725322361953149  0.4153757974080393
  0.0669021053278316  0.8314425519338031  0.5911484993275301
  0.6260586090839656  0.3504353419781968  0.0866806385730494
  0.8583490817314693  0.6514506385191084  0.6027682978582559
  0.4301842973501199  0.1685388520361842  0.0721623910379683
  0.9021137058814961  0.3165399506550056  0.9283107230616467
  0.4035167860642803  0.8262530888748698  0.4328860224265450
  0.9092816500651623  0.8512572484333836  0.6806629910196015
  0.4194761158356096  0.3545706420194214  0.1630500912036210
  0.9037403788838229  0.1207913399115820  0.8439794668718966
  0.4095902303620280  0.6726340552869627  0.3298582934786556
  0.0782818680752817  0.3285632909452361  0.8364256603209415
  0.5693093920192566  0.8637093094703536  0.3282053924368982
  0.0553082084354401  0.6317453450642406  0.6677314112618943
  0.5810768845251726  0.1714832069683168  0.1720310232098611
  0.3809043936284411  0.3385021586895295  0.5678576566466054
  0.9354104144694212  0.8540425516344078  0.0758752388373848
  0.9204774932446312  0.1577864022553911  0.4059499007100127
  0.3745969060227852  0.6183729229775992  0.9048123639147367
  0.1031669231586737  0.3342265263705475  0.4039850833904408
  0.5797825470999038  0.7881522548423755  0.9247277299224260
  0.5526800990074654  0.1468157095176915  0.5670247737506375
  0.1140142769762248  0.6758331320311587  0.0827952755665244
 
 -0.53457193E-02  0.20751822E-02 -0.10312905E-02
  0.25663013E-02 -0.61975007E-02 -0.37375019E-02
 -0.38209587E-02 -0.48947708E-03 -0.50083788E-03
  0.43714756E-02 -0.45940167E-03 -0.46253564E-03
 -0.46989001E-02 -0.60974996E-02 -0.92897335E-02
 -0.55778322E-02  0.11121344E-02 -0.25139523E-04
 -0.11645032E-03 -0.50203651E-02  0.51460055E-02
 -0.65820695E-02 -0.48393849E-02  0.31146817E-02
  0.19279432E-02  0.47248265E-02  0.25028123E-02
 -0.38639811E-02  0.10710382E-01 -0.19302561E-02
 -0.93689633E-03 -0.13116033E-02  0.12844700E-02
 -0.12278827E-02  0.53271214E-02  0.63860203E-02
  0.81732971E-02  0.60845850E-02  0.33349129E-02
 -0.16930291E-02 -0.13059312E-02  0.12071027E-02
 -0.10452033E-02  0.11145075E-01 -0.20870907E-02
 -0.10774112E-02 -0.10712132E-02  0.57165451E-02
  0.27737729E-02 -0.58596589E-02 -0.15325742E-01
 -0.86386334E-02  0.26374466E-02  0.61835928E-02
  0.63996519E-02 -0.60222564E-02 -0.21919168E-02
  0.50379595E-02  0.45670043E-02  0.95085617E-02
  0.72842546E-03 -0.65427982E-03  0.58101112E-02
  0.94603854E-02  0.15691411E-02 -0.19534754E-02
 -0.16904916E-02 -0.71657460E-02 -0.13552495E-01
 -0.50826946E-02 -0.64242623E-03 -0.25745230E-03
 -0.30198376E-03 -0.36250120E-02  0.89469634E-02
 -0.10668608E-02 -0.81007123E-02  0.83951386E-02
  0.53565757E-02  0.70843879E-02 -0.29567458E-02
 -0.38671780E-02 -0.75174816E-02 -0.19876090E-02
  0.32556691E-02  0.75458725E-02  0.58449918E-03
  0.26261651E-02 -0.17368580E-01 -0.42786330E-02
  0.36940533E-02  0.80081241E-02 -0.66773019E-02
 -0.54671284E-03  0.22119525E-02  0.47923754E-02
  0.25161258E-02 -0.80846329E-03  0.86541988E-03
 -0.41398044E-02  0.14476202E-02 -0.19490222E-02
  0.35711029E-02 -0.74126203E-02 -0.49032365E-02
 -0.72213394E-02 -0.45960206E-03  0.52502701E-02
  0.35363146E-02  0.38416264E-02  0.63064790E-02
 -0.52996216E-02  0.19840168E-03 -0.11587771E-02
 -0.15340016E-02 -0.32762043E-02  0.27413218E-02
 -0.21145609E-04 -0.73706814E-02  0.13853056E-02
  0.36976008E-02 -0.78585720E-03 -0.54593710E-02
  0.16486334E-02 -0.45431645E-02 -0.79836149E-03
 -0.64912064E-02  0.34786628E-03 -0.44010956E-03
  0.32135758E-02  0.92438614E-02 -0.37540973E-02
  0.83053633E-03 -0.11462193E-02 -0.26194229E-02
 -0.52149219E-02 -0.66937730E-02 -0.82624840E-02
 -0.23522450E-02  0.92835636E-02 -0.15549609E-02
  0.25079890E-02  0.79640156E-02  0.20583532E-02
  0.42905547E-03  0.62296900E-02  0.69922924E-03
  0.36186584E-02  0.49536876E-02  0.28468520E-03
  0.49756728E-03  0.13639529E-03  0.65154266E-03
  0.28547453E-02 -0.65546611E-02 -0.90914289E-03
  0.27480124E-02  0.10754275E-02 -0.30306631E-02
  0.28227267E-03  0.27742419E-02  0.45282424E-02
  0.15365374E-02 -0.41308437E-02 -0.42704283E-02
 -0.33605443E-02  0.51586964E-02 -0.66812482E-02
  0.11056140E-02 -0.33912122E-02  0.10947785E-02
  0.45591031E-02  0.24288915E-02 -0.77667351E-03
 -0.69739568E-02  0.98293259E-02  0.23906329E-02
  0.96796907E-03  0.42761215E-02 -0.44719294E-02
 -0.28976083E-02  0.13574676E-02  0.40012074E-02
 -0.58268952E-02 -0.21213954E-02 -0.12187404E-02
 -0.13265133E-02  0.10307368E-01  0.17158027E-02
 -0.23789336E-02 -0.31381286E-02 -0.89534455E-03
 -0.74197586E-02  0.66596535E-02 -0.86801281E-03
  0.93199255E-02 -0.81645936E-02  0.42002960E-02
  0.10073267E-02 -0.62564216E-02  0.42955851E-03
 -0.10717411E-02 -0.30076312E-02 -0.79870987E-02
 -0.13083765E-02 -0.53178658E-02  0.20571358E-02
 -0.29072962E-02 -0.68285086E-02  0.29507206E-02
  0.79257795E-02 -0.97188417E-02  0.12733157E-02
 -0.51673443E-02  0.85622003E-03 -0.10364415E-02
 -0.24926025E-03 -0.19638511E-02 -0.45609455E-02
 -0.23305271E-02  0.14882488E-01  0.83417474E-02
  0.34418772E-03  0.63798134E-02  0.43467359E-02
 -0.16599719E-03  0.70497432E-03 -0.33913508E-02
 -0.35534202E-02  0.61282070E-02 -0.55567973E-02
 -0.26541331E-02  0.18179876E-02  0.76819672E-02
  0.16490308E-02  0.23833014E-02 -0.40778780E-03
 -0.33188020E-02  0.57361469E-02  0.31547314E-02
  0.67531904E-02 -0.78886234E-02  0.44204812E-02
  0.33169637E-02  0.14442118E-02  0.33582651E-02
 -0.31524175E-02  0.17929724E-01  0.83802959E-02
 -0.65329157E-02  0.29107864E-02 -0.57966278E-02
 -0.14560711E-02  0.43448528E-02  0.38278123E-02
  0.26262792E-02 -0.51573805E-02  0.71015712E-02
 -0.21456461E-02  0.16079898E-02  0.10610485E-02
 -0.55504316E-02  0.12280213E-02 -0.11705345E-02
  0.23772204E-03  0.24555752E-02 -0.35073891E-03
  0.18605371E-02 -0.10197936E-02 -0.21804026E-02
  0.14079779E-02 -0.11561773E-02  0.91933541E-03
 -0.46383112E-02 -0.58332223E-02 -0.42902847E-03
 -0.18673432E-02 -0.12005777E-02  0.61437239E-03
  0.12112079E-02 -0.28068700E-02 -0.26762616E-02
 -0.22133393E-02  0.16788744E-02 -0.28600193E-02
  0.17987700E-02  0.26515008E-02  0.16191080E-02
  0.66102039E-03  0.23525126E-02 -0.41621549E-02
 -0.13477741E-02  0.46457727E-04  0.11534613E-02
  0.85108192E-03 -0.26044196E-02 -0.41783842E-03
  0.13556356E-02 -0.12089816E-02 -0.14641913E-02
 -0.12024511E-02  0.89340017E-03  0.99824036E-03
 -0.24749789E-03  0.56049695E-03  0.16555081E-02
 -0.33679988E-03  0.25684644E-02  0.32815646E-02
  0.67941740E-03 -0.19589422E-02 -0.13498835E-02
 -0.21974950E-02  0.63750140E-03  0.10700827E-02
 -0.56242043E-02  0.14596617E-02  0.92963003E-04
 -0.26876555E-02 -0.16803927E-02 -0.16126460E-02
  0.47739383E-03 -0.16059373E-02 -0.33784898E-02
 -0.51064848E-02  0.12673163E-02  0.53325745E-02
  0.62972357E-04 -0.36329195E-02  0.27110526E-02
 -0.23864784E-02  0.13819252E-02 -0.25290643E-02
 -0.10988492E-02  0.20940271E-02  0.47172758E-02
 -0.37885279E-02 -0.26523639E-03  0.53854179E-02
  0.26852886E-02 -0.52639756E-02  0.46681009E-02
 -0.62069723E-02  0.99577871E-03  0.78602681E-03
  0.11325079E-02  0.61900849E-04  0.41422855E-02
 -0.30953865E-02 -0.40176918E-02  0.35272056E-02
 -0.32116332E-02  0.42835381E-02 -0.34131557E-02
  0.44400151E-02 -0.14573440E-02 -0.34467254E-02
 -0.58850526E-03 -0.19425179E-02 -0.24884996E-02
  0.52129494E-03 -0.34993479E-02  0.28336035E-02
  0.21950550E-02  0.97333626E-05 -0.29673084E-02
  0.12750505E-02 -0.13966529E-02  0.12860793E-02
  0.20543662E-02  0.41880352E-02  0.31035962E-02
  0.19605818E-02 -0.25013549E-02  0.12546468E-02
  0.70395402E-02  0.19453712E-02  0.17858378E-02
  0.24839316E-02 -0.78976801E-03 -0.13817412E-02
  0.27385036E-03  0.23804303E-02 -0.59594759E-03
 -0.91108671E-03  0.81305559E-02 -0.49238937E-02
 -0.42560696E-03  0.12656105E-02  0.47679030E-02
  0.16921707E-02 -0.24799646E-02 -0.18514506E-02
  0.20967427E-02 -0.12796951E-02  0.52211283E-02
  0.44122286E-02 -0.87916425E-04  0.84218045E-03
 -0.22302983E-02 -0.54224686E-02  0.28782718E-02
  0.24283496E-03  0.25648374E-02 -0.39902548E-03
 -0.35590353E-02 -0.23794686E-04  0.25642113E-03
 -0.10770555E-02  0.32169086E-02  0.92101117E-03
  0.20345697E-02 -0.33382060E-02  0.25043684E-02
 -0.26115045E-02 -0.18939119E-02  0.46232853E-02
  0.72658593E-04  0.71738444E-03 -0.40220865E-02
  0.44294299E-03  0.56849945E-02  0.64127796E-03
  0.57212055E-03 -0.61233012E-02  0.62610312E-03
  0.14283685E-04  0.12012857E-02 -0.18575514E-02
 -0.41616268E-02  0.31044327E-02 -0.23242445E-02
  0.28926800E-04  0.74523113E-02  0.30648320E-03
 -0.13397269E-03 -0.10273998E-02  0.19707004E-02
  0.46640233E-02 -0.90679184E-03  0.41763032E-02
 -0.17713572E-02  0.13183313E-02 -0.55085869E-02
 -0.65015963E-02  0.95993861E-03  0.13113491E-03
  0.57205208E-03  0.26094007E-02 -0.11796889E-02
  0.37327787E-02 -0.13084063E-02 -0.20018097E-02
 -0.62551021E-03 -0.50277985E-02  0.34940074E-02
  0.11313136E-02 -0.21970232E-02 -0.44361964E-02
 -0.10330245E-02  0.49214275E-03  0.40734676E-03
  0.12255697E-02  0.13470860E-02 -0.18296357E-02
  0.67446476E-02  0.53469683E-02 -0.23543086E-02
  0.16382395E-02  0.10587046E-02 -0.19536931E-02
 -0.32997663E-02 -0.30441843E-02 -0.15274097E-02
  0.26656132E-02  0.30396313E-03 -0.39978309E-02
  0.20598965E-02 -0.16560570E-02 -0.66422864E-03
  0.35783037E-03  0.15782475E-02  0.23634100E-03
  0.41503234E-02  0.83482788E-03 -0.99836721E-03
 -0.22105243E-02  0.18412570E-02  0.18802433E-02
  0.79066147E-03  0.39535930E-02  0.55157119E-03
 -0.27740990E-03  0.49685628E-03  0.41727405E-02
  0.33644851E-02  0.16354954E-02  0.35971471E-02
  0.14512601E-02  0.24352198E-02 -0.43651902E-02
  0.24910394E-02  0.39141166E-04 -0.10990850E-02
 -0.43612589E-02  0.23019481E-02 -0.11569767E-02
  0.18498028E-02  0.62525379E-02  0.21805969E-02
 -0.12808785E-02  0.21447464E-02  0.22398311E-02
  0.10316160E-02  0.26726105E-02  0.77840857E-05
 -0.12797615E-03  0.13556235E-02 -0.32088572E-03
 -0.37435737E-03  0.91078963E-03 -0.13942177E-02
 -0.34099546E-02 -0.39193436E-02 -0.60140503E-02
  0.49303616E-04  0.20459568E-02  0.57454367E-02
 -0.15808091E-02 -0.21766523E-02 -0.39804666E-02
 -0.49187675E-02 -0.13768218E-02  0.32030391E-02
  0.61916192E-03 -0.32696643E-02 -0.31007793E-02
  0.17796618E-02 -0.20770265E-02 -0.16801612E-02
  0.27321264E-02  0.13478575E-02  0.35133715E-02
 -0.60819924E-03 -0.30334375E-03  0.56782293E-03
  0.14600120E-02 -0.28392281E-03  0.29273904E-02
 -0.22547098E-02  0.40068108E-02 -0.28320534E-03
  0.84385553E-03  0.57679696E-03  0.78221067E-03
  0.94304848E-03 -0.25599950E-02  0.18853611E-02
 -0.31184515E-03 -0.46783948E-02 -0.30942744E-02
 -0.52804106E-03 -0.93412727E-03  0.37572426E-02
  0.39327818E-02  0.34932434E-02  0.19444765E-02
  0.54114359E-04 -0.43520981E-02 -0.75829230E-03
 -0.54188506E-02 -0.27228395E-02 -0.75721755E-03
  0.63959680E-03 -0.99675035E-03 -0.96308834E-03
 -0.32831156E-02  0.11774235E-02 -0.97073386E-03
 -0.18688657E-02 -0.27133524E-02  0.12855577E-02
  0.15972962E-02  0.37122477E-02 -0.12420304E-02
 -0.49891330E-04 -0.20797437E-02 -0.34832164E-02
 -0.13859853E-02 -0.51199515E-02 -0.27862540E-02
 -0.33369851E-02 -0.20619276E-02 -0.28302798E-02
 -0.41660553E-03 -0.14250100E-03 -0.87266896E-03
  0.21717309E-02  0.11516731E-02  0.26066373E-02
  0.10958632E-02 -0.52653539E-02  0.11848915E-02
  0.25178931E-02 -0.18519054E-02  0.16232233E-03
  0.63210494E-03 -0.46067925E-03  0.27458764E-02
 -0.41046566E-02 -0.48054017E-02 -0.10564092E-02
  0.15131959E-02 -0.15560218E-02 -0.40061496E-02
  0.12435081E-02 -0.36047665E-03  0.11458130E-02
  0.19559910E-02 -0.11072455E-02 -0.41931771E-02
  0.31906361E-02  0.25654495E-02 -0.33878606E-02
 
           1
   2.00000000000000     
  0.56476475E+00  0.94290412E-03  0.00000000E+00  0.00000000E+00
  0.99680524E+00  0.10153044E-02  0.98208241E+00
  0.49418938E+00  0.47990216E+00  0.74790113E+00
  0.54616767E+00  0.62271252E+00  0.97976918E+00
  0.12959595E-01  0.99532245E+00  0.24047125E+00
  0.50502464E+00  0.98011742E+00  0.64440020E+00
  0.23197457E-02  0.50434874E+00  0.46651342E+00
  0.99112820E+00  0.47559284E+00  0.14876818E+00
  0.28995485E+00  0.20608395E+00  0.99354189E+00
  0.72523297E+00  0.47780373E+00  0.62995757E+00
  0.77107119E+00  0.25591291E+00  0.75145537E-02
  0.51097892E+00  0.75136560E+00  0.24753879E+00
  0.27205995E+00  0.47069899E+00  0.86608160E+00
  0.77105259E+00  0.23465365E+00  0.13633292E+00
  0.23357746E+00  0.75364507E+00  0.64388021E+00
  0.23871629E+00  0.99755637E+00  0.86859028E+00
  0.47736608E+00  0.50420019E+00  0.37388033E+00
  0.97847130E+00  0.98491303E+00  0.75602168E+00
  0.98581904E+00  0.48359192E+00  0.61226116E+00
  0.27634388E+00  0.98095095E+00  0.10867865E+00
  0.24579899E-02  0.48842832E+00  0.87879063E+00
  0.79682898E+00  0.29195001E-01  0.37163568E+00
  0.42505607E+00  0.97160294E+00  0.37127343E+00
  0.76276136E+00  0.64851312E+00  0.88229840E+00
  0.75009411E+00  0.24459279E+00  0.75252824E+00
  0.24971148E+00  0.22242710E+00  0.11229882E+00
  0.23671302E+00  0.26176734E+00  0.48829124E+00
  0.74405085E+00  0.78949127E+00  0.11842767E+00
  0.73948241E+00  0.24327935E+00  0.35801474E+00
  0.48765049E+00  0.51118833E+00  0.48394755E+00
  0.51424522E+00  0.95571792E+00  0.56384222E-02
  0.99309372E+00  0.48035604E-01  0.48825386E+00
  0.39401479E+00  0.70223616E+00  0.75759716E+00
  0.19664443E+00  0.51684590E+00  0.36578767E+00
  0.47973066E+00  0.21648518E+00  0.74942827E+00
  0.75161647E+00  0.98671738E+00  0.88035008E+00
  0.48956093E+00  0.28664223E+00  0.48905977E+00
  0.50981340E+00  0.51054110E+00  0.10770876E+00
  0.47167669E+00  0.29870671E+00  0.26151968E+00
  0.99968722E+00  0.72333744E+00  0.75597144E+00
  0.28221966E+00  0.76602427E+00  0.24568302E+00
  0.78630659E+00  0.75275587E+00  0.23870372E+00
  0.48706278E+00  0.96204680E+00  0.76710822E+00
  0.74506581E+00  0.74179020E+00  0.77240688E+00
  0.14748835E-01  0.50134516E+00  0.27396556E+00
  0.19985829E-01  0.23995753E+00  0.54372884E-03
  0.75148223E+00  0.74514532E+00  0.51537824E+00
  0.23157064E+00  0.77471838E+00  0.50163600E+00
  0.63471414E+00  0.34770431E+00  0.20652168E+00
  0.14602859E-03  0.93994942E+00  0.88257807E+00
  0.48907206E+00  0.53655148E+00  0.25559564E+00
  0.98907897E+00  0.48883677E+00  0.74117577E+00
  0.54635871E+00  0.31127182E-01  0.24868489E+00
  0.27787488E+00  0.27730775E+00  0.37643713E+00
  0.74189368E+00  0.74965960E+00  0.11364319E-02
  0.73270224E+00  0.23967506E+00  0.48312242E+00
  0.28408858E+00  0.70354448E+00  0.10786903E+00
  0.96706722E-02  0.51259198E+00  0.98630620E-02
  0.49022140E+00  0.51271100E+00  0.62868168E+00
  0.51846077E+00  0.27212585E+00  0.19407064E-02
  0.98096543E+00  0.27187356E+00  0.49920146E+00
  0.53200330E+00  0.98035374E+00  0.11703854E+00
  0.98168646E+00  0.76139858E+00  0.50163215E+00
  0.18473582E-01  0.77812313E+00  0.99428545E+00
  0.48216667E+00  0.75025946E+00  0.51244733E+00
  0.24012627E+00  0.27976574E+00  0.25880560E+00
  0.74633921E+00  0.78634829E+00  0.63079224E+00
  0.10339826E+00  0.76786980E-02  0.36754271E+00
  0.97927711E+00  0.21179770E+00  0.76061533E+00
  0.43689195E-02  0.76470456E+00  0.24870118E+00
  0.20508771E+00  0.25274057E+00  0.63520387E+00
  0.86962865E+00  0.24608101E+00  0.24814527E+00
  0.29473595E+00  0.68614694E+00  0.98895487E+00
  0.26603899E+00  0.46180009E+00  0.12648676E+00
  0.97199086E+00  0.22957935E-01  0.61554897E+00
  0.70498261E+00  0.23535650E+00  0.87320865E+00
  0.23247096E+00  0.76390152E+00  0.37243441E+00
  0.21515000E+00  0.74492512E+00  0.85131616E+00
  0.78080508E+00  0.80210417E+00  0.37468632E+00
  0.27923261E-01  0.15982022E-01  0.10985830E+00
  0.22686954E+00  0.48017286E+00  0.61091178E+00
  0.48499300E+00  0.45254864E+00  0.87562202E+00
  0.48525700E+00  0.21243126E-01  0.50144705E+00
  0.74123491E+00  0.21823911E+00  0.62536310E+00
  0.22420760E+00  0.21634630E+00  0.81579753E+00
  0.21796310E+00  0.41152445E-02  0.62760817E+00
  0.76325500E+00  0.51097780E+00  0.12432697E+00
  0.51464919E+00  0.97273032E+00  0.88057383E+00
  0.79969225E+00  0.50902187E+00  0.38033226E+00
  0.30150597E+00  0.27891518E-01  0.25838587E+00
  0.72809982E+00  0.49212771E+00  0.76266468E+00
  0.24091276E+00  0.14637439E-01  0.74990559E+00
  0.75205241E+00  0.52032207E+00  0.25194636E+00
  0.28390734E+00  0.95822811E+00  0.98819230E+00
  0.72482318E+00  0.49645155E+00  0.50192538E+00
  0.22830508E+00  0.24296279E-01  0.50413757E+00
  0.77229927E+00  0.52061039E+00  0.22633004E-02
  0.73125264E+00  0.13436589E-01  0.74941834E+00
  0.23463849E+00  0.54855452E+00  0.23554420E+00
  0.23715100E+00  0.47514774E+00  0.73615676E+00
  0.77751792E+00  0.99167868E+00  0.23795166E+00
  0.25283264E+00  0.53400514E+00  0.48860235E+00
  0.76991403E+00  0.13476096E-01  0.39399369E-02
  0.73835481E+00  0.98688367E+00  0.50247145E+00
  0.25613032E+00  0.44830279E+00  0.99783876E+00
  0.88632953E-02  0.25342288E+00  0.35557402E+00
  0.48082229E+00  0.72022523E+00  0.87251554E+00
  0.46856667E+00  0.24501929E+00  0.61750990E+00
  0.21449654E-01  0.76922470E+00  0.12924234E+00
  0.99809184E+00  0.23141887E+00  0.88425687E+00
  0.50206911E+00  0.75317212E+00  0.38009278E+00
  0.97141322E+00  0.73809042E+00  0.63463734E+00
  0.51576864E+00  0.26335622E+00  0.11873310E+00
  0.16761490E+00  0.35728794E+00  0.56799238E-01
  0.63826256E+00  0.87710515E+00  0.55975640E+00
  0.66447247E+00  0.12261506E+00  0.95541935E+00
  0.14564409E+00  0.64327984E+00  0.43805846E+00
  0.37284947E+00  0.35387136E+00  0.94799074E+00
  0.84751739E+00  0.89850596E+00  0.45190038E+00
  0.89839467E+00  0.10888329E+00  0.50077852E-01
  0.34748003E+00  0.60905738E+00  0.54873162E+00
  0.87357075E+00  0.93557662E-01  0.18558344E+00
  0.31956022E+00  0.57870669E+00  0.68256357E+00
  0.89261032E+00  0.90628138E+00  0.29341642E+00
  0.35189710E+00  0.36482959E+00  0.78500437E+00
  0.14582174E+00  0.63906010E+00  0.29459800E+00
  0.61974121E+00  0.79061428E-01  0.81418457E+00
  0.12832484E+00  0.42843837E+00  0.19787873E+00
  0.63079635E+00  0.88487159E+00  0.71509822E+00
  0.88755704E+00  0.61280174E+00  0.94879887E+00
  0.32597447E+00  0.10591572E+00  0.43820995E+00
  0.82414880E+00  0.37951645E+00  0.55673415E+00
  0.38893942E+00  0.85389188E+00  0.46620926E-01
  0.11650125E+00  0.12348708E+00  0.55945738E+00
  0.68853367E+00  0.62436620E+00  0.63557486E-01
  0.17524086E+00  0.85097347E+00  0.94624434E+00
  0.63595453E+00  0.37915065E+00  0.44003671E+00