Na88 Ge16 P8 S96                        
   1.00000000000000     
    13.3422163233000006    0.0000000000000000    0.0000000000000000
     0.0000000000000000   13.3422163233000006    0.0000000000000000
     0.0000000000000000    0.0000000000000000   26.6844326466999995
   Na   Ge   P    S 
    88    16     8    96
Direct
  0.9178713191860014  0.9561143519113535  0.1290529051662924
  0.5491664551979837  0.9785043789799128  0.7509402547514922
  0.4639581628704677  0.6369470198509658  0.9855420582460745
  0.0130734223244232  0.0199767758395106  0.4644766951434657
  0.4720969915837889  0.9875936058718006  0.1401904253528970
  0.0086981289371138  0.4299942057440456  0.2682534578480617
  0.2791109220920471  0.7382219763643436  0.7583648085287712
  0.2095610679561398  0.1852709034174346  0.2609577296101111
  0.7693957914268971  0.9756441469283234  0.6105894478359158
  0.5013763551939977  0.9545338289226081  0.3679154715062732
  0.7480033196378851  0.7378870876916145  0.5064419214026623
  0.2493066781058483  0.1759945097167675  0.8739374939179936
  0.7064777068374996  0.2124968318138732  0.1948618415712822
  0.2096967845521736  0.5185888816797254  0.6158342708129435
  0.9768951484479893  0.9725509705635454  0.8881521699899185
  0.7367222964021874  0.4819389229684219  0.3692068071712604
  0.2556490687802023  0.1882641315804676  0.5074107076692816
  0.9788584932587671  0.7674951880015521  0.7441928346280862
  0.4877251165133513  0.2077379295840311  0.2797279539236074
  0.1951647841969640  0.2336783961278655  0.7740885268085992
  0.1611323222327108  0.0070372857941557  0.3679390720481112
  0.7168471021905312  0.2357380495033130  0.5365150642164842
  0.7390306274250682  0.7336634845417153  0.8583527638218910
  0.9735552110922180  0.3913394650124714  0.6295365608606590
  0.4972904619757468  0.9317105068257767  0.9961389268887234
  0.2329503867401746  0.2631434396836183  0.6573190026314627
  0.1951304648875742  0.9530705253407783  0.1261111807600689
  0.5046113437252809  0.0061782683642760  0.5013875353651008
  0.2622452309395795  0.7226785016369708  0.4944860893932903
  0.7139785699134433  0.7282749661485735  0.1413735450178157
  0.9992077956837693  0.4807929304351335  0.3856838166332204
  0.7320743243995645  0.2387812762583608  0.8453610851501346
  0.0188290970867046  0.6607253510368071  0.2577324482704631
  0.8602230436804179  0.2089617662944057  0.7492219510477495
  0.9768317303411875  0.1812275867739192  0.9965905230369416
  0.2844013461689963  0.9963020691681881  0.6275030979080641
  0.6968419724963578  0.9916945913383532  0.1190456197436585
  0.6996875950739336  0.2268758642513327  0.3886597653014682
  0.9685757357779367  0.4738928468210879  0.7671823823160421
  0.7820389763326684  0.7079183045334655  0.2463465095051085
  0.9987920536492718  0.9366020728716067  0.2428982621510052
  0.7066909304658513  0.6932266645879476  0.0108482894584221
  0.7187399660437843  0.9638222338292225  0.8815760932416707
  0.2380706360269707  0.7249949825986963  0.1131686478945087
  0.2016921676033145  0.4766022533376363  0.8721418400683035
  0.7406256276690808  0.7628066938121842  0.6293577207149319
  0.5185128769353530  0.4401583519813895  0.2582724546956698
  0.9445502669793934  0.6533419793986790  0.9902303418371998
  0.9807203828880968  0.2532333478187521  0.5018289450268967
  0.7091664230501231  0.3818550909272076  0.1040223060405853
  0.9818452593252071  0.4469456973959877  0.9876023311574792
  0.4813428904778023  0.9812583332743675  0.2507752708605694
  0.4621678636276007  0.3944453984172557  0.5257691287556810
  0.2717786981964391  0.7660805069010423  0.0084799586908648
  0.6454626060598248  0.2845680709641144  0.7099216830823657
  0.2602458253059883  0.7271437384038687  0.8853288384325403
  0.5247913387842313  0.4660812468529285  0.8988018285891186
  0.4836958943443923  0.4489830513785369  0.3717947316599442
  0.2496502362836489  0.4576765023325868  0.1320303163883333
  0.9751809879332094  0.7763300564948876  0.4926196686695025
  0.3429120902769912  0.9634094901270078  0.8782799604277324
  0.0076891008698949  0.5032628013735715  0.5176606199872448
  0.0158315830313945  0.9192872824756575  0.0111091160181055
  0.5168129969443280  0.6315374451895052  0.4947265106641883
  0.4939342387161023  0.7131600548420226  0.2382236020471281
  0.5827150174620811  0.7233879350995563  0.7432937302432693
  0.7178414128539389  0.7434147765680851  0.3851628178045414
  0.5139800108012913  0.2331905972686072  0.7910543717873002
  0.2630202878888676  0.6842917069767908  0.2549965725001815
  0.4799215058280146  0.5080425344726890  0.7650274275841223
  0.2352112652420346  0.2265513151830734  0.1291097071832260
  0.0002677746700845  0.0006655775450179  0.7558652475824269
  0.8936895213060960  0.1898377605723379  0.2584093823162944
  0.0287620994127675  0.9589946192900087  0.6237011001250380
  0.7416181415599700  0.4658043185559054  0.8641996426177053
  0.2889802138972247  0.2088638130896048  0.3727991774252769
  0.3181983566181871  0.7354360399582468  0.6268970974102994
  0.8107164164668912  0.0017711201792762  0.3688537517387687
  0.7529636009898864  0.2049659441594796  0.9926929941860088
  0.4610077262103250  0.4477378166111311  0.6476849976636491
  0.5259033907304066  0.2278840068852470  0.0030899024626027
  0.2002327365553056  0.7224041544153333  0.3768457742761853
  0.7586826733086891  0.4806631772082873  0.6296006678597996
  0.4915697724382347  0.4947393931276476  0.1044855687619094
  0.5213328432624940  0.9481584308605568  0.6263974150232308
  0.9574517790202347  0.4573887864970428  0.1267660340983508
  0.2351189791951987  0.2663028150485650  0.0071294784948486
  0.2580553872712775  0.4545150599989035  0.3662656365535759
  0.2209738502678755  0.9326101532411527  0.2437323664191924
  0.7358962953853021  0.4905563088100586  0.7427843285132998
  0.2920314590192739  0.0066937360681032  0.7473087146641099
  0.7618175457945795  0.4504725745385381  0.2430990531633991
  0.2458576401708336  0.0147722630931393  0.0058069170055805
  0.7552634191386284  0.4748944285534478  0.5001231451252882
  0.2608422816353433  0.9526520300533324  0.4935910784421281
  0.7357755697130364  0.4594909595298616  0.9859503623113952
  0.7753963570771120  0.9691523980757196  0.7301557934195944
  0.2457135738994993  0.4484124306357139  0.2422257513995265
  0.2164884050564810  0.4956795934418238  0.7474959806793036
  0.7288850347634963  0.9584748370236775  0.2466611557362379
  0.2337593913149026  0.4522812514194007  0.5013506024930627
  0.7354171319197071  0.9425637631410797  0.0044647156309596
  0.7379896017409774  0.9625880247901371  0.4858693955975679
  0.2184241628290086  0.5121833858214214  0.0045962686105698
  0.0284978601213832  0.2216254243867577  0.3699562955265462
  0.4952909451874477  0.7335672873943347  0.8739309904463547
  0.5073608702357699  0.2106248700062789  0.6288578412940570
  0.9924298073082094  0.6992106001123912  0.1217111161056631
  0.9842763535367711  0.2276085372209563  0.8806785109658254
  0.4746278304732947  0.7065947476233388  0.3732239701580957
  0.0101448890582113  0.7297964038522541  0.6191655876940286
  0.4751226245158425  0.2413574828001105  0.1274655294564008
  0.1216299773331327  0.4228398304727538  0.0551234080309361
  0.6464004704375580  0.8796031623743835  0.5462989438174342
  0.6354870384839370  0.0627238887343761  0.9579056470226962
  0.1484874687397057  0.5415018246475217  0.4345255362006317
  0.3182769569530320  0.4433389976606714  0.9499041761719148
  0.8445621611384559  0.8719238430677569  0.4408379538256031
  0.8481302040702590  0.0174078293779210  0.0462207348939839
  0.3489676016416043  0.5491556362001281  0.5401668030831233
  0.8291939599609448  0.0570432784787809  0.1994347046647110
  0.3334641952354921  0.5856800260989240  0.6960603272838174
  0.8186611169981622  0.8658441752373682  0.3022428159023843
  0.3167198208202714  0.3964263318707064  0.7937532413977589
  0.1735735726992942  0.5500836597205144  0.2982071489822349
  0.6774232629488020  0.1015625480297252  0.7759156663246365
  0.1560566614722936  0.3486766350798556  0.1934224505713346
  0.6594814062720633  0.8758996252439821  0.6919849663857107
  0.8468425472754596  0.5520274398322114  0.9401729342594922
  0.3513791349963670  0.0500775307302635  0.4391763065949488
  0.8442192616890432  0.3704474179513169  0.5520708086956804
  0.3494771350865403  0.9414650268905220  0.0607015959967350
  0.1550929115277476  0.0085578969820376  0.5474284736158136
  0.6408445381558155  0.5276508387707819  0.0431838809460652
  0.1779857783325148  0.9050986169418836  0.9572036490398217
  0.6344936777069444  0.3954717082847112  0.4555290421328871
  0.6763134748399438  0.3612074893197294  0.2923586411861467
  0.1860883091063788  0.9052551994274077  0.7904519725293173
  0.1654438458778570  0.0973541436470240  0.7010940419910279
  0.6873637365968513  0.5581229439475986  0.1888805618159744
  0.8364004532833051  0.3820530503530482  0.7031281751694264
  0.3290123412677912  0.8442101430966849  0.1893121081111757
  0.3000434883623707  0.0201098225255116  0.3007579823642123
  0.8205352923495774  0.5826283880400049  0.7933263659715120
  0.1495770930402341  0.0968613278793313  0.0570257513761661
  0.6661299629586851  0.5696815572005627  0.5563430969311685
  0.6461076797805473  0.3338758420114838  0.9414946809151454
  0.1372655986971889  0.8505522916319908  0.4441980436830868
  0.3417268238867925  0.1177480695310215  0.9651191842403615
  0.8434431871454112  0.5732855420243914  0.4440518589572966
  0.8468563776666317  0.3622330882248580  0.0310925319065127
  0.3769307066793565  0.8677825378345012  0.5445205557537105
  0.1334322451497430  0.0443925785850539  0.2011031310031020
  0.6153802424833965  0.5788021375429462  0.6922921079354787
  0.1283836329564609  0.8370036861798886  0.2916925333703448
  0.6479897404457696  0.3769792864615269  0.7918246104875329
  0.8649483977142254  0.5413939637901171  0.2949534704558308
  0.3658360407283538  0.1002750847723170  0.7993083127845713
  0.8613901702480045  0.3472461494297240  0.2013649649417846
  0.3963437034953721  0.9126328406989782  0.6961918757336024
  0.8184016645691186  0.8367338032190593  0.9482523957126470
  0.3259707536861816  0.3497977339466936  0.4525031764319781
  0.8444341914829969  0.0878781749315068  0.5132315963662599
  0.3371136834886622  0.5990745307558266  0.0627898303117342
  0.1539970105224852  0.3707782277046667  0.5642997822552548
  0.6378519980629125  0.8393200242540044  0.0588728593352931
  0.1372098965735901  0.6265118793612690  0.9594754001158897
  0.6300940276492910  0.0346681558886901  0.4317784722507586
  0.3558031789366259  0.3532750312193044  0.2969650379284268
  0.8478867791232768  0.8968738097855110  0.7952782736007400
  0.8783549188620829  0.0633147344933607  0.6818139086116596
  0.3611955254138534  0.5312071619504282  0.2074858292691147
  0.1103954866454593  0.4258859773244821  0.7042226501186377
  0.6203751173590206  0.8623463374265330  0.2050434042510377
  0.6373629310599194  0.0566111414953516  0.2932863746038737
  0.1453446848301827  0.6119507040876137  0.7961952855056172
  0.1231161987645876  0.1520338302939793  0.4205964518364637
  0.4080452030451385  0.7936616146139599  0.9358731757559648
  0.4308868152391391  0.2740344114382196  0.6948940159974357
  0.8873214772205218  0.6204780949841187  0.0850603919091475
  0.5786254158770082  0.3360631545086729  0.5900627396233113
  0.0859804729598652  0.6169743566154577  0.1631740790386510
  0.1152846842674250  0.3176838203470869  0.3320080629387659
  0.4435964636908882  0.6512991051226374  0.8148761737813014
  0.9001041472884365  0.3231964905327938  0.8310124977823787
  0.5524127878814484  0.7900824957794688  0.4264204654484350
  0.9151782962677347  0.8277691088293851  0.5810219753613375
  0.5530206929609591  0.3583151582696682  0.1599963229134484
  0.9039408006083566  0.6698730812664766  0.6743273717049987
  0.3889750259454735  0.3173419061322696  0.0752804654479965
  0.8810125651218181  0.1370783630888643  0.9137406821209809
  0.3883334559702851  0.7960458814954735  0.3242946116043154
  0.1140814881442986  0.7948512346720469  0.6704256362518034
  0.4190406488889446  0.1435696450600901  0.1779515593008778
  0.0811767155404029  0.3009411119401210  0.9221614247699998
  0.3931410213650243  0.5982310467509184  0.4104195696995812
  0.0419802798865333  0.1273164449525742  0.8315722894621723
  0.5890607926955325  0.6201831770094666  0.3251013763514373
  0.0773186551110929  0.6460167766928102  0.5684940585801701
  0.5880578861199343  0.1554402809899003  0.0899442716075339
  0.6117837161047152  0.1183402637337326  0.6528054702775209
  0.0756351323859238  0.8149248304973579  0.0773302327168895
  0.9951325666840196  0.0973720891807386  0.3268655048343764
  0.5594016300470880  0.8541539632092582  0.8376085912742648
  0.9209020247505699  0.2929813570221522  0.4071050314744041
  0.5896132113374118  0.6423643184376764  0.9142934114396151
  0.4124317952308126  0.1474044678071239  0.5852347128320562
  0.9160570019148966  0.7846665130986178  0.1775836534813926
 
 -0.91283954E-02  0.14066548E-03  0.22225364E-02
  0.88241056E-03 -0.24811217E-02 -0.78531769E-02
  0.43616690E-02  0.21593416E-02 -0.83957851E-03
 -0.10099583E-01 -0.19406078E-02  0.66337230E-02
 -0.83298879E-02  0.10116867E-02  0.58521560E-02
 -0.66634337E-02  0.44676584E-02  0.15098059E-02
  0.65060385E-02 -0.73247736E-02  0.40415449E-02
  0.34127222E-02  0.55939242E-02  0.88141902E-03
 -0.23693144E-03  0.61734980E-02  0.25428337E-02
 -0.41501739E-02  0.29006777E-02  0.48324416E-02
  0.83715624E-02 -0.49185456E-02 -0.12473937E-01
  0.15785303E-02 -0.27832054E-02 -0.58244704E-03
 -0.20280551E-02  0.37109445E-02  0.28166002E-02
 -0.34429385E-02  0.53895297E-02  0.51199728E-02
 -0.93202682E-02 -0.27283452E-03  0.19189668E-02
 -0.28225951E-02 -0.47412202E-02  0.25396876E-02
  0.94339032E-02  0.30811414E-02  0.26395942E-02
  0.11039054E-01  0.10107018E-02  0.31887322E-02
 -0.40507099E-02 -0.43990316E-02 -0.86934166E-02
 -0.10348366E-01 -0.41960115E-02  0.26120931E-02
 -0.31917729E-03 -0.19999936E-02  0.16753154E-02
 -0.80217094E-02 -0.61753727E-02 -0.67309836E-02
 -0.27780564E-02 -0.51614050E-02 -0.14034463E-02
  0.65486370E-02  0.77600603E-02 -0.21629334E-02
 -0.28239021E-02  0.72817053E-02  0.93862448E-02
 -0.33144109E-02 -0.74555819E-02 -0.41650976E-02
  0.64766057E-03  0.57529072E-02  0.19761684E-02
  0.48059702E-02  0.19787148E-02 -0.51142727E-02
 -0.33822564E-02 -0.42950420E-02 -0.48629024E-02
 -0.30460828E-02 -0.97657916E-03 -0.17338782E-03
 -0.20814764E-02  0.93835313E-02 -0.10705246E-03
 -0.84067808E-02 -0.23639541E-02  0.11106259E-01
 -0.25895528E-02 -0.15881705E-02 -0.46274478E-02
  0.73461322E-02 -0.28637612E-02  0.59474139E-02
  0.44064749E-02  0.69845105E-02 -0.51353743E-02
 -0.63431706E-02  0.10826459E-01 -0.18200779E-02
 -0.82754130E-02 -0.27505003E-03 -0.35994189E-04
  0.30951591E-03  0.59408140E-02  0.31521823E-02
  0.64287286E-02 -0.22912063E-02 -0.53924802E-02
 -0.28305994E-02  0.50240438E-02  0.90006017E-03
  0.56905867E-02 -0.48580922E-02 -0.27211865E-02
  0.10936520E-02  0.53958667E-03 -0.35707418E-02
  0.40469229E-02 -0.64202834E-02 -0.43526172E-02
 -0.83187684E-03 -0.25209528E-02 -0.59753696E-03
 -0.10735101E-01 -0.82393313E-02 -0.72362486E-02
 -0.85956083E-02  0.17216300E-01 -0.44703760E-02
  0.71937031E-03  0.47518050E-02  0.22746965E-02
 -0.42040817E-02 -0.15275339E-03 -0.41449991E-02
  0.56495415E-02  0.34642296E-02  0.76296987E-02
  0.10334206E-01 -0.13145510E-01 -0.39242743E-02
  0.54769432E-02  0.53457836E-02 -0.23116532E-02
 -0.73766835E-02 -0.76319314E-02 -0.31746441E-02
  0.27701599E-02 -0.25841719E-02 -0.25617518E-02
  0.10286661E-01  0.11366347E-02  0.11684608E-01
 -0.33646956E-02 -0.75545256E-02  0.25698255E-03
  0.91828288E-02  0.23863522E-02  0.14319645E-02
  0.76064393E-02  0.48035259E-02 -0.58263585E-02
  0.35638674E-02  0.51313663E-02 -0.25798461E-02
  0.35823345E-02 -0.64183729E-02 -0.49927121E-02
 -0.32566044E-02 -0.19766995E-02  0.84310569E-02
 -0.34896627E-04  0.21008604E-02 -0.37246183E-02
 -0.10225306E-02  0.42875401E-02 -0.39962660E-02
  0.46926700E-02 -0.79507530E-02 -0.15621925E-01
 -0.29670638E-02  0.39969917E-02  0.12770451E-03
  0.33882250E-03 -0.73025486E-02 -0.15947434E-03
  0.64924382E-03 -0.99932654E-04  0.29164612E-02
 -0.51705365E-02 -0.15331472E-02  0.61859428E-02
 -0.92043069E-02 -0.16089699E-02  0.63934798E-03
 -0.86557166E-02 -0.31127237E-03  0.75437151E-02
 -0.48588363E-02 -0.19297510E-02  0.44639409E-03
 -0.29571153E-02 -0.45364334E-02 -0.10372152E-02
 -0.19862655E-02  0.30672301E-02  0.28292456E-03
 -0.53849845E-02  0.40887328E-03 -0.52416309E-02
  0.12283862E-01  0.16680139E-02 -0.64485591E-02
 -0.51951450E-02  0.31648931E-02 -0.28037586E-02
 -0.76210995E-02 -0.12225529E-01 -0.61155830E-02
 -0.35835863E-02  0.76233564E-02 -0.69217462E-03
 -0.25040460E-02 -0.95709787E-02 -0.94331430E-03
  0.52219970E-02 -0.51203243E-02 -0.16702757E-02
 -0.45578029E-02 -0.56344013E-02  0.23530406E-02
 -0.31334420E-02 -0.39098925E-02  0.42272133E-02
 -0.89178420E-02 -0.93349995E-02  0.89359580E-02
  0.15330381E-02 -0.10435479E-02 -0.39955522E-02
  0.88424817E-03  0.16602763E-01  0.74894356E-02
  0.45905591E-02 -0.16895229E-02  0.58618997E-02
  0.35774657E-02  0.70028882E-02  0.19731712E-02
  0.20549786E-02  0.60394466E-02  0.45352406E-04
  0.24740420E-02  0.88588767E-04  0.35319470E-02
  0.19778425E-02  0.20104335E-02 -0.13156010E-02
  0.23890702E-03 -0.36644373E-02  0.17424707E-02
 -0.26652437E-02  0.90970898E-03 -0.72278114E-03
 -0.33249915E-02 -0.16917837E-02  0.25622355E-03
 -0.42667331E-02 -0.87066939E-02 -0.13200151E-02
  0.56086069E-02 -0.28378535E-02 -0.28728033E-03
 -0.39608234E-02 -0.46349902E-02 -0.24019594E-02
  0.20876035E-02 -0.11704118E-02  0.53020273E-02
 -0.25584871E-02  0.52372184E-03  0.20214369E-02
 -0.66042768E-03 -0.59657753E-03 -0.50240580E-02
  0.25397940E-02 -0.11457410E-03  0.61656875E-03
 -0.23829176E-03  0.10691139E-02 -0.17184714E-02
 -0.55571852E-03 -0.55940935E-03 -0.34299934E-02
 -0.12875552E-02  0.89466712E-03  0.38610880E-02
 -0.74104282E-02  0.30346306E-02  0.98550665E-04
 -0.30914810E-02  0.59776724E-02  0.10307181E-02
 -0.34358735E-02 -0.44132252E-02  0.29875341E-02
 -0.93603778E-03 -0.40423490E-02 -0.64556296E-02
 -0.28806666E-02  0.17966526E-02  0.34056455E-03
  0.34729356E-02 -0.71572123E-02 -0.38345633E-02
 -0.27210319E-02  0.78013333E-04  0.72273102E-02
  0.33466847E-02  0.39458263E-02 -0.66630256E-03
 -0.48419047E-02  0.46891695E-02 -0.37764282E-02
  0.71772012E-02 -0.81153360E-03  0.43162582E-02
  0.49437341E-02  0.66471465E-02  0.21544735E-02
 -0.45629376E-02 -0.89653660E-03  0.26077362E-02
 -0.14356612E-02 -0.68301545E-02  0.27072090E-02
  0.32508093E-02 -0.84353466E-02  0.50887639E-02
 -0.11387774E-02  0.97562989E-02 -0.20612155E-02
  0.34467279E-02  0.24542791E-02  0.58085874E-02
 -0.22427715E-02 -0.19125216E-02  0.36527781E-02
  0.13100946E-02  0.53054715E-02 -0.23937645E-02
  0.23227627E-02  0.48583276E-02  0.75505393E-03
  0.47346465E-03  0.42996075E-02  0.42675286E-02
  0.41569873E-02 -0.75957095E-02  0.42889323E-04
 -0.69314329E-03  0.15711717E-02  0.37901956E-02
 -0.35474400E-02  0.18444213E-02 -0.52017981E-02
  0.13640036E-01 -0.15367364E-02 -0.13187520E-02
  0.83147664E-03 -0.50211262E-02  0.44395315E-02
 -0.93691336E-02 -0.88911575E-02  0.33902987E-02
 -0.28231822E-02  0.21332980E-04  0.20059370E-02
  0.10765617E-01  0.28572527E-03 -0.40796867E-03
  0.37564941E-02  0.65870723E-02 -0.33809933E-02
  0.14665827E-02  0.38294153E-02  0.96765195E-05
 -0.15305424E-02 -0.28637719E-02 -0.30357027E-03
  0.17125892E-02  0.44339619E-02 -0.95731880E-02
  0.30506691E-02 -0.13899090E-02  0.67203462E-02
  0.73475401E-02 -0.42579499E-05  0.64466293E-02
  0.58780465E-02  0.10764569E-02  0.13050539E-02
  0.70802397E-02 -0.40145419E-02 -0.23679003E-02
 -0.62867037E-02  0.10597068E-02  0.31876593E-02
  0.12955392E-02 -0.52997512E-02  0.41712272E-03
 -0.28333415E-02  0.71100758E-03  0.48363118E-03
 -0.71702890E-02  0.20412181E-02 -0.64819540E-02
  0.33360040E-02  0.31118064E-02 -0.47612721E-02
  0.50107397E-02  0.87677143E-03 -0.64602463E-02
  0.10045282E-02  0.12654596E-02  0.26785978E-02
 -0.10316003E-03 -0.18590706E-02 -0.20631404E-02
  0.44687813E-05  0.52208216E-03 -0.16383486E-02
  0.83622871E-03  0.71002436E-02  0.50443946E-02
  0.60369322E-02 -0.60878139E-02 -0.64706591E-02
 -0.11448925E-03 -0.20840704E-02  0.14519998E-02
  0.30970792E-02  0.26808738E-02 -0.58334290E-02
  0.89573541E-03 -0.67541131E-02  0.36445019E-02
  0.27202459E-02 -0.29660690E-02  0.18403217E-02
  0.17010621E-02 -0.26920738E-02 -0.38463545E-02
 -0.61118255E-02  0.19418383E-02 -0.40152070E-02
  0.92107464E-02  0.11719527E-02  0.54875295E-02
 -0.27277812E-02  0.34127033E-02  0.71446983E-02
  0.10619602E-01 -0.13073686E-02  0.20646732E-02
  0.13913865E-01 -0.49962385E-02 -0.73439845E-02
  0.56794567E-03 -0.12453554E-02  0.43101368E-03
 -0.97399204E-02  0.11075957E-01  0.70294363E-02
 -0.86773045E-03  0.26352704E-02  0.18768414E-02
  0.78232264E-03 -0.19462750E-03 -0.16182432E-02
 -0.27697284E-02 -0.11842277E-02 -0.92377112E-02
  0.49474429E-03  0.96139535E-02  0.66919038E-02
  0.18928649E-02 -0.24062387E-02 -0.46822518E-02
  0.89048911E-03 -0.87797085E-02 -0.20520544E-02
 -0.21633344E-02  0.58087811E-02  0.23615902E-02
  0.39266301E-02 -0.10114396E-01 -0.43357043E-03
  0.26661505E-02 -0.51142833E-02  0.11990149E-02
 -0.56992675E-02  0.37449883E-02 -0.59190261E-02
  0.70086046E-04  0.65373615E-02  0.50522208E-02
  0.81212415E-03 -0.59043301E-03  0.64269897E-02
 -0.38439014E-02  0.27155673E-02 -0.82783158E-02
  0.73655480E-02 -0.58766452E-03  0.51367400E-02
  0.14839358E-03  0.44035801E-02  0.32846938E-02
  0.76630628E-02  0.67688539E-02 -0.64545539E-02
  0.11098597E-02  0.75692803E-02 -0.39399114E-02
 -0.16729531E-02  0.26953988E-02  0.74765186E-02
  0.23887773E-02 -0.20682786E-02  0.60079571E-02
  0.37575016E-02 -0.29593938E-02  0.27365798E-02
 -0.50623197E-02  0.32735884E-02 -0.58296545E-02
  0.11567622E-02  0.53849514E-02  0.31607338E-02
 -0.73801544E-03 -0.11299837E-02  0.33961021E-02
 -0.43569953E-02  0.12436620E-02  0.41620027E-03
  0.49875443E-02 -0.27280319E-02 -0.82469491E-02
 -0.31562689E-02 -0.15138425E-02 -0.77785912E-02
 -0.52010140E-02 -0.61460993E-02 -0.70134719E-03
 -0.36357216E-03  0.43346057E-02  0.27577364E-02
 -0.11248298E-02 -0.81026417E-02 -0.39009933E-02
  0.44306497E-03  0.79408330E-02  0.17662299E-02
 -0.91772976E-03  0.26223970E-02 -0.53852094E-03
  0.94270085E-03 -0.43992119E-02  0.86096285E-02
  0.10288225E-02  0.50038056E-02 -0.17422102E-04
 -0.21682993E-02  0.21284331E-02  0.38804765E-02
  0.79451918E-02  0.36082051E-02 -0.39170351E-03
  0.96356951E-03 -0.38580801E-02  0.90873501E-03
  0.19379555E-02  0.20505605E-02 -0.23503743E-02
 -0.42467262E-02 -0.87526028E-04  0.38957079E-02
 -0.28413849E-02 -0.93891470E-02 -0.80653407E-02
 -0.12326018E-02  0.40079237E-02 -0.16870083E-02
 -0.44113298E-02 -0.28593779E-02  0.41233523E-02
  0.51922701E-02  0.71943767E-03 -0.11659735E-02
  0.78206824E-02  0.92716952E-03  0.74995662E-03
  0.51949745E-02 -0.46409464E-02 -0.10025773E-01
  0.56007096E-04 -0.54582716E-03 -0.67862573E-03
 -0.78996676E-02  0.67770366E-02  0.32850267E-02
 -0.30249644E-02  0.35739158E-02 -0.19071138E-02
 
           1
   2.00000000000000     
  0.99129050E+00  0.16255494E-02  0.00000000E+00  0.00000000E+00
  0.91650297E+00  0.95613544E+00  0.12921948E+00
  0.54929873E+00  0.97813246E+00  0.75035166E+00
  0.46461198E+00  0.63727071E+00  0.98547913E+00
  0.11559493E-01  0.19685878E-01  0.46497389E+00
  0.47084834E+00  0.98774526E+00  0.14062904E+00
  0.76992793E-02  0.43066391E+00  0.26836662E+00
  0.28008618E+00  0.73712399E+00  0.75866772E+00
  0.21007264E+00  0.18610943E+00  0.26102379E+00
  0.76936028E+00  0.97656956E+00  0.61078003E+00
  0.50075424E+00  0.95496864E+00  0.36827766E+00
  0.74925822E+00  0.73714980E+00  0.50550700E+00
  0.24954330E+00  0.17557731E+00  0.87389384E+00
  0.70617370E+00  0.21305310E+00  0.19507295E+00
  0.20918069E+00  0.51939677E+00  0.61621801E+00
  0.97549804E+00  0.97251007E+00  0.88829600E+00
  0.73629919E+00  0.48122821E+00  0.36939716E+00
  0.25706321E+00  0.18872600E+00  0.50760855E+00
  0.98051325E+00  0.76764669E+00  0.74443183E+00
  0.48711791E+00  0.20707851E+00  0.27907638E+00
  0.19361356E+00  0.23304941E+00  0.77428430E+00
  0.16108448E+00  0.67374865E-02  0.36806464E+00
  0.71564465E+00  0.23481236E+00  0.53601058E+00
  0.73861420E+00  0.73288979E+00  0.85824758E+00
  0.97453685E+00  0.39250270E+00  0.62937445E+00
  0.49686716E+00  0.93280204E+00  0.99684243E+00
  0.23245356E+00  0.26202585E+00  0.65700683E+00
  0.19522755E+00  0.95393289E+00  0.12625929E+00
  0.50533176E+00  0.64748780E-02  0.50100422E+00
  0.26173823E+00  0.72203467E+00  0.49412161E+00
  0.71352196E+00  0.72812858E+00  0.14136055E+00
  0.99889578E+00  0.48219952E+00  0.38567579E+00
  0.73081415E+00  0.23842692E+00  0.84619350E+00
  0.18440923E-01  0.66048728E+00  0.25738562E+00
  0.86132423E+00  0.20853249E+00  0.74966771E+00
  0.97749226E+00  0.18227457E+00  0.99620563E+00
  0.28345050E+00  0.99792496E+00  0.62736668E+00
  0.69560149E+00  0.99165336E+00  0.11904292E+00
  0.69973399E+00  0.22776639E+00  0.38889602E+00
  0.96953940E+00  0.47354939E+00  0.76677822E+00
  0.78161467E+00  0.70867141E+00  0.24641397E+00
  0.99964507E+00  0.93587384E+00  0.24269431E+00
  0.70685487E+00  0.69330755E+00  0.10580662E-01
  0.71934660E+00  0.96285983E+00  0.88124986E+00
  0.23794594E+00  0.72461709E+00  0.11312386E+00
  0.20008297E+00  0.47536718E+00  0.87159948E+00
  0.73933714E+00  0.76538742E+00  0.62902267E+00
  0.51862071E+00  0.44087065E+00  0.25844294E+00
  0.94392007E+00  0.65331908E+00  0.98991967E+00
  0.98156725E+00  0.25375264E+00  0.50240079E+00
  0.71071552E+00  0.37988458E+00  0.10372818E+00
  0.98266625E+00  0.44774703E+00  0.98742907E+00
  0.48023712E+00  0.98011431E+00  0.25053733E+00
  0.46258311E+00  0.39405803E+00  0.52557713E+00
  0.27332067E+00  0.76625089E+00  0.93557208E-02
  0.64495824E+00  0.28343565E+00  0.70994094E+00
  0.26162233E+00  0.72750145E+00  0.88543616E+00
  0.52593155E+00  0.46680130E+00  0.89836514E+00
  0.48423012E+00  0.44975224E+00  0.37160137E+00
  0.25018723E+00  0.45671439E+00  0.13165611E+00
  0.97469282E+00  0.77603375E+00  0.49325158E+00
  0.34290686E+00  0.96372441E+00  0.87800080E+00
  0.75358234E-02  0.50390550E+00  0.51736110E+00
  0.16535015E-01  0.91809546E+00  0.99382517E-02
  0.51636823E+00  0.63213659E+00  0.49473608E+00
  0.49398503E+00  0.71206540E+00  0.23821165E+00
  0.58281234E+00  0.72337296E+00  0.74351232E+00
  0.71706635E+00  0.74318496E+00  0.38562645E+00
  0.51260028E+00  0.23294941E+00  0.79110229E+00
  0.26172279E+00  0.68424505E+00  0.25556197E+00
  0.47919317E+00  0.50775326E+00  0.76506088E+00
  0.23476799E+00  0.22587130E+00  0.12903197E+00
  0.99997003E+00  0.11253557E-02  0.75588645E+00
  0.89288231E+00  0.18989905E+00  0.25801652E+00
  0.30603452E-01  0.95924465E+00  0.62321778E+00
  0.74083939E+00  0.46627874E+00  0.86398950E+00
  0.28783781E+00  0.20703120E+00  0.37234081E+00
  0.31766118E+00  0.73657878E+00  0.62684522E+00
  0.81034106E+00  0.33642920E-03  0.36878305E+00
  0.75374638E+00  0.20419841E+00  0.99256781E+00
  0.46032451E+00  0.44689322E+00  0.64786136E+00
  0.52543369E+00  0.22729791E+00  0.34067324E-02
  0.19889595E+00  0.72100484E+00  0.37751552E+00
  0.75891248E+00  0.48050675E+00  0.62930120E+00
  0.49170232E+00  0.49722815E+00  0.10504690E+00
  0.52202097E+00  0.94790517E+00  0.62683676E+00
  0.95798804E+00  0.45843852E+00  0.12691392E+00
  0.23542702E+00  0.26720813E+00  0.71328777E-02
  0.25842625E+00  0.45452834E+00  0.36653036E+00
  0.22127033E+00  0.93291152E+00  0.24363376E+00
  0.73593211E+00  0.49000701E+00  0.74291493E+00
  0.29163194E+00  0.68301016E-02  0.74725454E+00
  0.76131913E+00  0.45021898E+00  0.24311826E+00
  0.24521806E+00  0.13467129E-01  0.57079818E-02
  0.75610415E+00  0.47446903E+00  0.50010161E+00
  0.26024855E+00  0.95195724E+00  0.49341105E+00
  0.73608850E+00  0.45931551E+00  0.98634775E+00
  0.77501284E+00  0.96923090E+00  0.73030730E+00
  0.24561458E+00  0.44832300E+00  0.24184920E+00
  0.21686912E+00  0.49566242E+00  0.74754219E+00
  0.72884931E+00  0.95863510E+00  0.24653236E+00
  0.23367609E+00  0.45219740E+00  0.50109352E+00
  0.73522413E+00  0.94269787E+00  0.47541044E-02
  0.73687878E+00  0.96304292E+00  0.48587678E+00
  0.21796075E+00  0.51307944E+00  0.46735210E-02
  0.27982822E-01  0.22096388E+00  0.37018021E+00
  0.49515063E+00  0.73296134E+00  0.87344714E+00
  0.50692906E+00  0.21089419E+00  0.62888337E+00
  0.99295040E+00  0.69813773E+00  0.12142372E+00
  0.98386847E+00  0.22762023E+00  0.88122020E+00
  0.47512950E+00  0.70718623E+00  0.37317403E+00
  0.94190869E-02  0.73049931E+00  0.61888254E+00
  0.47619849E+00  0.24123583E+00  0.12778903E+00
  0.12237104E+00  0.42383624E+00  0.55284886E-01
  0.64571649E+00  0.87946877E+00  0.54649439E+00
  0.63527183E+00  0.61700048E-01  0.95810855E+00
  0.14897477E+00  0.54023737E+00  0.43490694E+00
  0.31810625E+00  0.44480147E+00  0.94974969E+00
  0.84507883E+00  0.87229174E+00  0.44127331E+00
  0.84779401E+00  0.17121142E-01  0.46494511E-01
  0.34916398E+00  0.54995093E+00  0.53998739E+00
  0.82954214E+00  0.57771542E-01  0.19949130E+00
  0.33353517E+00  0.58632454E+00  0.69638018E+00
  0.81928425E+00  0.86470558E+00  0.30224603E+00
  0.31661592E+00  0.39666185E+00  0.79403732E+00
  0.17304181E+00  0.55036014E+00  0.29781727E+00
  0.67946791E+00  0.10133219E+00  0.77581683E+00
  0.15618130E+00  0.34792397E+00  0.19375519E+00
  0.65807697E+00  0.87456684E+00  0.69223907E+00
  0.84641935E+00  0.55203064E+00  0.94032328E+00
  0.35299290E+00  0.50120361E-01  0.43914573E+00
  0.84478236E+00  0.37143482E+00  0.55181740E+00
  0.34969698E+00  0.94203906E+00  0.60702321E-01
  0.15486348E+00  0.81286172E-02  0.54740572E+00
  0.64110126E+00  0.52831549E+00  0.42466370E-01
  0.17844307E+00  0.90489027E+00  0.95770734E+00
  0.63559507E+00  0.39547107E+00  0.45601222E+00