Na88 Sn16 P8 Se96                       
   1.00000000000000     
    14.0793397336999995    0.0000000000000000    0.0000000000000000
     0.0000000000000000   14.0793397336999995    0.0000000000000000
     0.0000000000000000    0.0000000000000000   28.1586794673000007
   Na   Sn   P    Se
    88    16     8    96
Direct
  0.9793281677421130  0.0073959108883648  0.1075728597223105
  0.4865373585155858  0.4986016980029154  0.6254140694634527
  0.4845384406891823  0.4790720272976150  0.8825580727844350
  0.0224784370705001  0.9670401198668844  0.3665262996932220
  0.4607631604574942  0.0085907669965030  0.8624354345270393
  0.0064904294454801  0.5521800654669569  0.3874214076977150
  0.9427283894317805  0.5374419418027501  0.1085894778585346
  0.2384073023919787  0.2747843245200007  0.1332502287052370
  0.7307600058528516  0.7312124596548104  0.6304402869766439
  0.7426774585359077  0.2795821281331299  0.8826948086575818
  0.7919299605545593  0.7330454405748116  0.3786312869136296
  0.2775821792936289  0.2678297034548905  0.8558660599315956
  0.7506298934376683  0.2823024933506312  0.1292789553377802
  0.2546339922538804  0.7474379199737026  0.6265246785889561
  0.9755808578004962  0.0132917868502347  0.8849956509595455
  0.4923694005787027  0.4710034380967048  0.3588218075504063
  0.9536155837813942  0.0185523733986909  0.6221344912761099
  0.0221185901843970  0.4588401539295586  0.6297569827768799
  0.5135519959932657  0.9873246746961032  0.1210590229444537
  0.0003368762833835  0.5204062430056829  0.8773972997424957
  0.5158260157852682  0.0141822051653878  0.3712328949084338
  0.2623288895354756  0.2678866429719747  0.3616269232282485
  0.8165882958570045  0.7481276647751873  0.8721387338487896
  0.7646928478575078  0.2093704013448146  0.6240094332959552
  0.2628173902005991  0.7574477879301249  0.1266724492501272
  0.2265922851748784  0.2354747099336501  0.6087195958830740
  0.7527236574533801  0.7712902629354103  0.1245976109509542
  0.7362822580476642  0.2261230103341327  0.3791146331405715
  0.5147320097209069  0.7468883894405450  0.5120320328354682
  0.4982239292799390  0.2597170223412777  0.9940494146585601
  0.0089879017258548  0.7334967568338115  0.4896054001442501
  0.4556612135973809  0.7671876195708008  0.7405838983689957
  0.1090638460234776  0.7563777748506518  0.2382410698643134
  0.7466874347910410  0.2701662598694903  0.7533120368351240
  0.0130400525811010  0.7768598260516558  0.9862593622762037
  0.4752327078804638  0.2492999765674711  0.4998206510567766
  0.4813380130531417  0.7203859156419019  0.0108747449013683
  0.4609809076304692  0.2470470161398017  0.2449293577914621
  0.0799887457427298  0.7667709072308779  0.7489256461035710
  0.4701527750126844  0.7591208586528865  0.2615816761420406
  0.0588402149334159  0.0213494003115167  0.2414767532173761
  0.5148390781032188  0.4774768150014614  0.7401032953451143
  0.4707784025273049  0.0238906330069978  0.7294616842667823
  0.9810722794983231  0.4731956601005480  0.2680370234895536
  0.2448903728492537  0.2203107940517310  0.9941909768100670
  0.7637246349763890  0.6945443746279623  0.5168617502124651
  0.2120394972052840  0.7321973750664781  0.5047647980667710
  0.7713531941188578  0.2886131312221425  0.9931823943424657
  0.9542507272076862  0.0193543587803251  0.7525641778609257
  0.4504310486251233  0.5027627871985242  0.2210344855734291
  0.0290952492156789  0.4964495659830978  0.7482371644991631
  0.5467746591347369  0.9840576462528093  0.2582159735353289
  0.2271730277586106  0.2495906529292016  0.4836058192477620
  0.7449509953984987  0.7706868739561431  0.9893121649509043
  0.7192309775220134  0.2096072883139252  0.4944206354372834
  0.2672468586080128  0.7442520686559977  0.9986561912113852
  0.0095066371391601  0.1845675865067370  0.9938179236216395
  0.5190277487838787  0.5126001457256224  0.4815101983542754
  0.4820497521208614  0.4886441151121305  0.0185351212186167
  0.0216647342546051  0.0191213863015445  0.4829611094680745
  0.5126935792224436  0.0017246259250450  0.9948739835856565
  0.9720388432569946  0.3738114750209492  0.4789072002447948
  0.0219586552966147  0.4659720545397564  0.9904587908729855
  0.5126452170803292  0.9998190659256915  0.5184155820222680
  0.1157472197854352  0.2757430760128689  0.2650282676574791
  0.7556837747821269  0.7630744060305718  0.7543026299436444
  0.2367706910456613  0.7643600057024749  0.3662056769593028
  0.0239715132741473  0.2418219854605629  0.7499204019166372
  0.7598735683816099  0.7250153065009696  0.2353356638420067
  0.3506956488390437  0.2683944551064955  0.7449461560300752
  0.7989642221359685  0.2515025984877302  0.2550474551847122
  0.2144868118215179  0.7367366188171749  0.8747211073442673
  0.2054146350950048  0.5401594466808723  0.1208260277087957
  0.6709828881691878  0.9924096970271002  0.6249559725806134
  0.6849172762187127  0.0252583976316870  0.8780403270303618
  0.2457350975402126  0.5113327453704843  0.3672149737789934
  0.2568073766859481  0.5124505622962185  0.8750638229780370
  0.7613227321589326  0.9499735693964126  0.3618500386661181
  0.7514070424213671  0.0373609558461926  0.1251323594068660
  0.2514468529642591  0.4826732635412777  0.6173994383955853
  0.7637765193778636  0.5121831142918589  0.8763421679055219
  0.2660235491347599  0.0296050741153615  0.3725974383971083
  0.7492057052172144  0.4681957539407581  0.6226109388257359
  0.2750083703793065  0.0149657577175721  0.1242393276152176
  0.2563919306316731  0.9947318456356742  0.6148812583188987
  0.6719735901088961  0.5143056205976844  0.1290337479666443
  0.2394114472249557  0.9840621063725068  0.8747808007870297
  0.6939800444842419  0.4961314491905454  0.3882296020772399
  0.3014499466295910  0.0075200717947141  0.2580287033205761
  0.7719299443872136  0.5036602424748825  0.7568293951499485
  0.2093400478227868  0.9986548502540586  0.7439349350704255
  0.7013080306723199  0.4946948373584272  0.2592730994504227
  0.2441937383474641  0.9805290695700219  0.9955014775040033
  0.7358426480083031  0.4531932973887124  0.5099362494042430
  0.2547717177389958  0.0030576664219276  0.4974976863778603
  0.7500029172767892  0.5533879045333466  0.0015908160510586
  0.7109926608672293  0.0090756566557911  0.7578960182581922
  0.2018786515192918  0.5007556383829225  0.2439011907540322
  0.2669654864163607  0.5248664836627471  0.7428322144068739
  0.7907219280771252  0.9817399720160587  0.2470712902389731
  0.2683207695318613  0.4985868630794193  0.4989929173988268
  0.7571315851212842  0.0455981802371085  0.0028746789751975
  0.7571913511164732  0.9640997321425298  0.4929218901655318
  0.2463753642079264  0.4823657293253861  0.0020171243504886
  0.9952639503128182  0.2423272224019809  0.3785964341825785
  0.4779135924369731  0.7535242471864080  0.8770571911592377
  0.4916419645709029  0.2340032232113007  0.6213732206973918
  0.0043185666516291  0.7659939239297039  0.1196718355742820
  0.0056425949714671  0.2710125299461423  0.8649195400109595
  0.5183226202159887  0.7457092313952771  0.3848893136054133
  0.0052001967157914  0.7344501057034116  0.6253027022918517
  0.4940347559777950  0.2618917345345709  0.1212412191645776
  0.1387402882065096  0.3726830184086347  0.0533264641863552
  0.6481448034932754  0.8644656869238927  0.5409945442759581
  0.6437938583194812  0.1444918318640597  0.9490138526163301
  0.1524537292932992  0.5947542377921134  0.4494089776983112
  0.3483666705480057  0.3797562566318781  0.9496799304963565
  0.8846898720697020  0.8817511099804941  0.4432224607926016
  0.8633124378679038  0.1375614719804779  0.0536208569223630
  0.3635540141665023  0.5992485093665786  0.5523616257477635
  0.8843448568374774  0.0931688199174267  0.1910739480770045
  0.3825238309706860  0.6074190879091425  0.6968438954286953
  0.9057348870470058  0.8553735105861923  0.2895964627022157
  0.3805996819154501  0.4192259276242053  0.8030379930792910
  0.1221550777998316  0.6140611068904251  0.3109909391389745
  0.5940538990181992  0.1164510068501072  0.8001283054022313
  0.0836887785186322  0.4179496686455418  0.1936515205768253
  0.6154302713533163  0.8918332841580285  0.7009937221764613
  0.8756731972750177  0.6257030057742037  0.9453882731942131
  0.3590647979180317  0.1137696433572914  0.4518121341760201
  0.8488425280723852  0.3401503058568934  0.5488913947230346
  0.3523379662222578  0.8817450348287240  0.0589926071393089
  0.1436991650901792  0.0987636314065187  0.5456151684705829
  0.6400472799009658  0.6457472782102340  0.0531902877322868
  0.1480298051658000  0.8695493878695060  0.9391058852419105
  0.6326607560605174  0.3626066179725572  0.4525914214856138
  0.6085384327933493  0.3610256557896310  0.3000883891611884
  0.1057724627996588  0.9078999894753149  0.8134767082667964
  0.1000082170154186  0.0913863637490680  0.6738370841648000
  0.6082588992624969  0.6283593504100684  0.2159582223372094
  0.8847509632048558  0.3900870613468695  0.6988446659007412
  0.3913888459763119  0.9052943627056689  0.2020991291157845
  0.3967687774515726  0.1191488114080974  0.3153955142432790
  0.9035655087514005  0.6016430272091952  0.7917199714312509
  0.1358492817915535  0.0848302248684387  0.0487637177572526
  0.6298543008323669  0.5748562070697428  0.5528922266256340
  0.6517811304414920  0.4339910034479394  0.9512721488491885
  0.1573099514753931  0.8880673445140714  0.4434850933858486
  0.3614963742253537  0.0738708871629789  0.9478018677627016
  0.8574660994461083  0.5663865137702225  0.4620237325868469
  0.8713995482092164  0.4278096004662282  0.0397159643851778
  0.3355498757969285  0.8860970856751758  0.5490434795004333
  0.2231305082601588  0.1291176079823989  0.2034771594267155
  0.6551317706681281  0.5933063640228515  0.7000939051933871
  0.1827417567530098  0.9187483899992200  0.3063421016925137
  0.6621433550911087  0.4051316404533964  0.8102023933934219
  0.8083872540633850  0.5662106311874889  0.3223978024055826
  0.3066684580074916  0.1094390461477661  0.7924099342086481
  0.8161653157948318  0.4240465494914101  0.1960667139731823
  0.3237761671286510  0.8971579024353694  0.6983233771859042
  0.8461657680522110  0.9336334561839869  0.9504298469134079
  0.3552193824497188  0.3934575495455151  0.4359449087027640
  0.8363129904293458  0.0862931001338777  0.5500406091774032
  0.3407641061491521  0.5890010005324191  0.0566883283228712
  0.1543101384563013  0.3913828201247735  0.5488026746276492
  0.6436600322728225  0.9377884843920448  0.0528145069210840
  0.1406776401764408  0.5923435412051611  0.9502145965993930
  0.6488016055975580  0.0676741432346629  0.4443411595376741
  0.3128645415541803  0.3813199908079094  0.2840658025016943
  0.8141148521871253  0.9344814373893431  0.8187042273967148
  0.8077988939795273  0.0982664354560445  0.7005952292279970
  0.3017191272551298  0.6394288935639530  0.2074882016131197
  0.1748406640158041  0.3829764572404383  0.6977072111944707
  0.6692963892978959  0.8903893726011224  0.1984131146936858
  0.7061430456899400  0.0972950846039509  0.3004146221096473
  0.1498885026906732  0.5979234267654715  0.8068519622780641
  0.0666495740886123  0.1372316299918198  0.3311868865226977
  0.5759183195635363  0.6542031868276504  0.8401195399705842
  0.5695399291763187  0.3129536652474788  0.6754327275918420
  0.0983395534838547  0.8794154956764491  0.1538149703661929
  0.3866725551251360  0.1554090083674768  0.6596024877921863
  0.9292849643873949  0.6862030032254995  0.1776098288888752
  0.9055563647663981  0.3431139126800382  0.3428062762058062
  0.3818031217031211  0.8238056989481465  0.8262023299502309
  0.0994270852527762  0.1773788147782453  0.9077616093311859
  0.6089584336069995  0.6648064320994304  0.4349233732670890
  0.0920210781456282  0.8214128284403471  0.5808773089881264
  0.5828138091917667  0.3421971028764992  0.0703834066295216
  0.9056984983998450  0.6473495946532347  0.5830987166161536
  0.4117554710976297  0.1709217906330158  0.0772304741305066
  0.9284821892292957  0.3423277991915282  0.9195289372179495
  0.4382659162866399  0.8566481761859337  0.4181066771461235
  0.9205246418254595  0.8132119710829691  0.6781596703991674
  0.3945254707043799  0.3641425115582335  0.1546877755045116
  0.9131473308671443  0.1711352921964795  0.8302869350816557
  0.4274065736944661  0.6492531297488966  0.3426094824248331
  0.0847381000361328  0.3619911011856757  0.8164060653171419
  0.6066132607166578  0.8221983808500423  0.3327973388461944
  0.1021286075739691  0.6314899868065617  0.6594958465003115
  0.5894888596334373  0.1906845668340436  0.1711355588559015
  0.4065984752273356  0.3356127139205019  0.5825319214136582
  0.9033141066213930  0.8331124941925259  0.0700083426959118
  0.9006322931081233  0.1535796363030103  0.4212810685826935
  0.3898719338128899  0.6554888291752263  0.9189097782414518
  0.1100569111334388  0.3399886865049572  0.4038348707498593
  0.5746956812930255  0.8390514302519926  0.9202648967426937
  0.5999143836988892  0.1631481314459843  0.5774009527852915
  0.1002924710659890  0.6801633062783765  0.0773765501844493
 
  0.84766467E-03  0.97179361E-03  0.21488095E-02
 -0.96896433E-03 -0.74848789E-02  0.43440304E-02
 -0.59872088E-02  0.38319229E-02  0.11879998E-02
 -0.72227162E-02 -0.32992053E-02 -0.25062933E-02
  0.26198306E-03  0.55331594E-02  0.20928430E-02
 -0.71450730E-03 -0.11425370E-02 -0.60733901E-02
 -0.15226283E-01  0.15142123E-02 -0.61200035E-02
  0.29084076E-02 -0.70427567E-02 -0.77601288E-03
 -0.33449587E-02 -0.11472128E-02 -0.60434185E-02
 -0.23922926E-02 -0.20978097E-02  0.33659905E-02
  0.16913434E-02  0.90978121E-02  0.61322299E-02
  0.86907829E-02  0.96099243E-03 -0.15054538E-02
 -0.13974098E-02  0.20394475E-02 -0.64761760E-02
 -0.95735430E-02 -0.53234345E-02 -0.63944503E-03
 -0.66075272E-03 -0.16376443E-02  0.47656817E-03
 -0.93126254E-02 -0.89362658E-03 -0.38088061E-02
 -0.95736552E-03  0.29445338E-02  0.44029879E-02
 -0.10066493E-02  0.67459262E-03 -0.28816416E-02
  0.77086948E-02  0.11922659E-02 -0.10234922E-03
  0.51298424E-02 -0.26915727E-02  0.69720638E-02
  0.35969062E-02  0.70847260E-02  0.52632550E-02
 -0.90077452E-02  0.65270963E-02 -0.47121240E-02
  0.11591490E-02 -0.49579744E-02  0.44458393E-02
 -0.11009112E-02  0.63572849E-02  0.28237962E-02
  0.36331632E-02 -0.79432852E-03  0.14548456E-02
  0.33175215E-02  0.32013855E-02 -0.28509038E-02
 -0.41266912E-02  0.81761479E-03  0.17475727E-01
 -0.22998532E-02 -0.44582993E-03  0.73818951E-02
  0.77906383E-02  0.49641628E-02 -0.83548429E-02
 -0.54305592E-02 -0.90828660E-02 -0.98769816E-02
 -0.31232648E-02  0.91171603E-04 -0.68389907E-02
 -0.24397368E-02 -0.54488295E-02 -0.25226255E-02
  0.14962883E-02 -0.11723047E-04 -0.67406381E-02
 -0.65615669E-02  0.14402751E-02 -0.23134826E-02
 -0.57686124E-02 -0.10117929E-01  0.35706721E-02
  0.12280871E-02  0.16115789E-02 -0.11438312E-02
  0.31908782E-02  0.87314833E-02 -0.61781210E-02
  0.12078464E-02  0.40194476E-02 -0.14958453E-02
 -0.16198500E-02 -0.16997972E-02 -0.44251565E-02
 -0.40257165E-02 -0.10646546E-01 -0.32786304E-02
  0.50175438E-02 -0.13080926E-02  0.37835961E-02
  0.20331689E-02  0.46166672E-02 -0.49986951E-02
 -0.37141091E-02  0.25789530E-03 -0.10150288E-01
 -0.38657644E-02 -0.22649166E-02 -0.82389718E-02
 -0.15057553E-02  0.86468045E-02 -0.40274929E-02
  0.15559201E-02 -0.48339567E-02 -0.37523510E-02
 -0.32576612E-02  0.11842875E-01  0.57042745E-02
 -0.60934214E-02 -0.38233252E-02 -0.55964058E-02
 -0.33393163E-02  0.84546015E-02 -0.92476681E-02
  0.27658920E-02 -0.10086214E-02 -0.19949870E-02
 -0.14438293E-02  0.57314986E-02 -0.18254729E-02
 -0.86051718E-03  0.94217375E-02 -0.12934745E-02
  0.11317634E-02 -0.11549561E-02 -0.67213506E-03
  0.21772669E-02  0.53412678E-02  0.99704244E-03
  0.14063578E-02  0.33148462E-03  0.38301336E-02
 -0.21461926E-03 -0.48571418E-02 -0.15551387E-02
 -0.42688904E-02  0.23776499E-02 -0.71447738E-02
  0.58391860E-02 -0.23324186E-02 -0.58121683E-02
 -0.31751809E-02 -0.71507532E-02 -0.19272432E-02
 -0.15037281E-02 -0.37603254E-02  0.33229424E-02
  0.13243871E-02  0.18293136E-02 -0.14582754E-01
 -0.11880408E-01  0.37564636E-02  0.13666866E-02
  0.30429138E-02  0.80378872E-03  0.37178397E-03
  0.41258879E-02 -0.17023934E-02  0.70675591E-02
 -0.12407684E-02 -0.10886263E-01 -0.35947170E-02
  0.57480455E-02  0.45584372E-02  0.10511950E-02
 -0.58208091E-03  0.57382198E-02  0.77346676E-03
  0.21567809E-02 -0.81941985E-02 -0.14236139E-03
 -0.25088169E-02  0.52160951E-02  0.34057735E-02
  0.83591037E-02 -0.23432502E-02  0.44969695E-02
 -0.56453789E-04  0.24957792E-03  0.42090725E-02
  0.18733574E-03  0.12021148E-02  0.26603961E-02
 -0.10337177E-02 -0.56193071E-02  0.43152797E-03
 -0.70214287E-02  0.29949194E-02 -0.41362229E-02
  0.25436798E-02 -0.58664801E-02  0.60305527E-02
 -0.11208934E-02 -0.19138024E-02 -0.58337041E-03
  0.67187783E-02  0.95014781E-03  0.14922254E-02
 -0.40289329E-02 -0.23034851E-02 -0.42931265E-02
 -0.54081367E-02 -0.62123895E-02 -0.18811579E-02
  0.63875098E-02 -0.55117168E-02  0.62584954E-02
 -0.43112334E-02 -0.12575311E-01  0.37598749E-02
  0.10622598E-02 -0.27319846E-02  0.32831560E-02
  0.51629291E-02  0.15916639E-02  0.45077893E-02
  0.72569902E-02  0.16389974E-02  0.94421821E-03
  0.19731016E-03  0.40891995E-02 -0.14244735E-02
 -0.11349442E-02 -0.34327907E-02 -0.17653461E-02
 -0.96681778E-02  0.18418161E-02 -0.69266204E-02
 -0.30095810E-02 -0.24098608E-02  0.38455895E-02
 -0.12777364E-02  0.40221331E-03 -0.39239711E-02
 -0.62220017E-03  0.59932929E-03  0.18772531E-02
  0.66705041E-03  0.15160127E-02 -0.31061019E-03
 -0.78205248E-03 -0.26681965E-03 -0.41848389E-03
  0.18198159E-02  0.20245500E-02  0.21334280E-02
  0.13218481E-02  0.79308967E-03  0.18439066E-02
 -0.26254283E-02 -0.16492993E-02 -0.28200870E-02
  0.61277320E-03 -0.33127696E-02  0.17070768E-02
  0.25389286E-02 -0.57264173E-03  0.75897185E-03
 -0.16299417E-02  0.27631078E-02 -0.14708274E-02
 -0.51824186E-03  0.35591947E-02  0.44485944E-03
 -0.34774067E-02  0.72743063E-03 -0.18662424E-02
 -0.11197154E-02 -0.32286459E-02 -0.88432897E-03
 -0.13560177E-03 -0.21545814E-02 -0.14699722E-02
  0.26017022E-02 -0.12385813E-02  0.13991517E-03
 -0.18539857E-02 -0.57869202E-03 -0.17807448E-02
  0.14382012E-03  0.26358744E-02 -0.54031450E-02
 -0.56414185E-02  0.32799697E-02  0.70014213E-03
 -0.43698524E-02  0.14099929E-02 -0.53209385E-03
  0.93672947E-03 -0.58881259E-03  0.23442148E-02
  0.53879691E-02  0.13994146E-02  0.49280199E-02
 -0.79314152E-03 -0.21685001E-03 -0.14821175E-03
 -0.30077034E-02  0.54978867E-02  0.15052817E-02
  0.22477529E-04  0.45427304E-03  0.79877938E-04
  0.14244735E-02  0.10252240E-02  0.15787899E-04
 -0.36254823E-02 -0.82686152E-04  0.10191714E-03
  0.16764339E-02 -0.68095833E-02  0.34748191E-02
 -0.17298419E-02 -0.44811021E-02 -0.10751462E-02
 -0.11054117E-02 -0.42243098E-02 -0.36537341E-02
 -0.67181169E-03  0.14498059E-02 -0.60613273E-03
 -0.31013246E-02  0.15868137E-02  0.30021872E-02
  0.20154061E-02 -0.65113229E-03  0.23474249E-02
  0.95002404E-03 -0.35025427E-02  0.12240161E-02
  0.13379704E-02  0.24948375E-02  0.94970958E-03
  0.14124870E-02  0.21401840E-02 -0.10730890E-02
  0.14336076E-02  0.28323370E-02  0.45028250E-02
  0.30146875E-02  0.30739753E-02 -0.39629444E-02
 -0.15905806E-02 -0.20710332E-02  0.19911121E-02
  0.42814015E-02 -0.20231570E-02 -0.12732667E-02
  0.22071542E-03 -0.11851297E-02  0.13819265E-02
 -0.35209132E-02  0.56294970E-03  0.26418563E-02
  0.92589444E-03 -0.27818440E-02  0.21951758E-02
  0.20891914E-02  0.18227159E-02 -0.13291723E-02
  0.24676723E-02 -0.20128003E-02  0.34349510E-02
  0.75315639E-03  0.14839797E-02  0.62522875E-02
  0.23242225E-02 -0.38124451E-02  0.23588276E-03
 -0.34675896E-02  0.37416604E-02 -0.74982842E-03
  0.22467832E-03 -0.39559178E-03  0.23761047E-02
 -0.22529278E-02 -0.78212670E-03 -0.29578425E-02
  0.54999612E-02 -0.27754675E-04 -0.18700721E-02
 -0.68491610E-02 -0.35171651E-02  0.15458128E-02
  0.14694344E-02  0.37551585E-03 -0.20090210E-02
 -0.13551754E-02 -0.14288805E-02 -0.19728418E-02
  0.38874685E-02  0.49728187E-02  0.17563553E-03
 -0.32066475E-03  0.18677844E-02 -0.43172441E-02
  0.57167542E-02 -0.14586318E-02 -0.89401254E-03
 -0.37840435E-02 -0.36871097E-02  0.20420928E-03
  0.42918213E-02 -0.38366315E-02  0.62811644E-03
 -0.25249017E-02 -0.37710496E-02  0.16942840E-02
  0.35970107E-02 -0.51281862E-02  0.11141604E-02
  0.15990058E-02  0.10412634E-02  0.10069587E-03
 -0.48959958E-03  0.31600619E-02 -0.15450151E-03
 -0.15503069E-02 -0.34279378E-02 -0.12422293E-02
  0.33279099E-03  0.51989567E-02 -0.20459652E-03
  0.33520432E-02 -0.20568855E-02 -0.59720193E-03
 -0.11865639E-02 -0.18434212E-03 -0.17329631E-02
  0.96938082E-03 -0.11942496E-02  0.26135415E-02
  0.79073914E-03  0.50094586E-02 -0.64584997E-03
 -0.15218244E-03  0.11121125E-02 -0.18904255E-02
  0.40631016E-02  0.44245140E-02 -0.19322071E-02
 -0.13744667E-02  0.34086254E-02 -0.51342110E-02
 -0.18045759E-02  0.35293603E-02  0.17534971E-02
 -0.18537572E-02 -0.54965456E-02 -0.10387675E-02
  0.10670678E-02 -0.33599721E-02  0.14737741E-02
  0.18646047E-02  0.24508415E-02 -0.47491911E-02
  0.13742061E-02 -0.91651205E-03 -0.57468813E-03
 -0.48478917E-02 -0.41580459E-02  0.49202234E-02
  0.11486033E-02 -0.74115296E-03 -0.42132755E-03
  0.19848768E-02  0.27973440E-02  0.54086493E-03
 -0.45907639E-03 -0.88022669E-03  0.12323424E-03
 -0.16673698E-02 -0.33329035E-02 -0.75684241E-03
  0.95548229E-03  0.37922837E-02  0.18231941E-03
 -0.12904217E-02  0.19868060E-02 -0.30935137E-03
  0.42636484E-03  0.89108964E-03 -0.50783515E-03
 -0.28165427E-02  0.70033504E-03  0.25158695E-02
 -0.44425244E-02  0.15717749E-02 -0.39027145E-02
 -0.14526383E-02 -0.32271091E-02 -0.21026930E-02
  0.37770989E-02  0.18932926E-02 -0.69118722E-04
  0.20539669E-02  0.42170180E-03 -0.29226193E-04
 -0.13742407E-03  0.28345139E-02  0.64321518E-02
 -0.50040495E-03 -0.27523091E-02  0.87110623E-02
  0.47985388E-02  0.10362036E-02  0.33987733E-02
 -0.14484542E-02 -0.73935175E-03 -0.54061737E-02
  0.47064103E-02 -0.27855867E-02 -0.27639345E-02
 -0.36457362E-03  0.27621844E-02 -0.14067526E-02
 -0.18313021E-02  0.36805087E-02 -0.15008424E-02
  0.14682704E-02 -0.73090839E-03 -0.14904553E-02
 -0.27766125E-02  0.17061807E-02  0.87502889E-03
 -0.67728678E-03  0.13536233E-02  0.17402798E-02
 -0.12223800E-02 -0.23623021E-02 -0.71414230E-03
  0.35746235E-02  0.45235454E-03  0.14106470E-02
 -0.15223510E-02 -0.26592118E-02  0.29111423E-02
  0.49430270E-03 -0.95496043E-03 -0.90748206E-04
 -0.10526953E-02 -0.85199440E-03  0.61639899E-02
 -0.73105855E-04 -0.41419141E-02  0.78488677E-03
 -0.62898214E-03 -0.45267872E-03  0.15406673E-03
  0.14312988E-02  0.13772023E-03 -0.28553367E-02
  0.29539027E-02 -0.20257647E-02  0.12046483E-02
 -0.11783496E-02  0.30487599E-02 -0.18376014E-02
  0.21754546E-04  0.28169907E-02 -0.10713783E-02
  0.13855443E-02  0.10068177E-02  0.16664597E-02
  0.62372830E-02 -0.35003810E-02  0.19570395E-02
  0.11123348E-02  0.24759752E-02  0.92891418E-03
  0.95155666E-03  0.67756190E-03  0.35594652E-02
  0.90801400E-03  0.42177423E-02 -0.33875864E-03
  0.11738075E-02 -0.11457638E-02  0.15742285E-02
 -0.19451920E-02  0.29185569E-02 -0.41283076E-02
 -0.22002199E-02  0.12829017E-02  0.30157971E-02
 -0.17071610E-03  0.18227004E-02  0.28209412E-03
 -0.17632141E-02  0.39910539E-02  0.14934906E-02
 
           1
   2.00000000000000     
  0.85716575E+00 -0.59326595E-03  0.00000000E+00  0.00000000E+00
  0.97944858E+00  0.75339562E-02  0.10772548E+00
  0.48639972E+00  0.49753846E+00  0.62572261E+00
  0.48368795E+00  0.47961636E+00  0.88264245E+00
  0.21452435E-01  0.96657146E+00  0.36634829E+00
  0.46080038E+00  0.93767640E-02  0.86258408E+00
  0.63889322E-02  0.55201777E+00  0.38699004E+00
  0.94056546E+00  0.53765704E+00  0.10815480E+00
  0.23882045E+00  0.27378389E+00  0.13319511E+00
  0.73028485E+00  0.73104950E+00  0.63001105E+00
  0.74233763E+00  0.27928413E+00  0.88293388E+00
  0.79217022E+00  0.73433780E+00  0.37906684E+00
  0.27881672E+00  0.26796621E+00  0.85575913E+00
  0.75043139E+00  0.28259220E+00  0.12881898E+00
  0.25327405E+00  0.74668171E+00  0.62647926E+00
  0.97548700E+00  0.13059156E-01  0.88502950E+00
  0.49104652E+00  0.47087650E+00  0.35855128E+00
  0.95347959E+00  0.18970651E-01  0.62244722E+00
  0.21975594E-01  0.45893598E+00  0.62955231E+00
  0.51464703E+00  0.98749404E+00  0.12105175E+00
  0.10655813E-02  0.52002390E+00  0.87789250E+00
  0.51633696E+00  0.15188605E-01  0.37160672E+00
  0.26104932E+00  0.26881383E+00  0.36129224E+00
  0.81675296E+00  0.74742337E+00  0.87245450E+00
  0.76453646E+00  0.21027347E+00  0.62421000E+00
  0.26333349E+00  0.75733495E+00  0.12677578E+00
  0.22706355E+00  0.23592947E+00  0.60851711E+00
  0.75213745E+00  0.77140641E+00  0.12583884E+00
  0.73595556E+00  0.22605968E+00  0.37963894E+00
  0.51583869E+00  0.74759356E+00  0.51143862E+00
  0.49745251E+00  0.25842678E+00  0.99334789E+00
  0.85442354E-02  0.73350971E+00  0.48911965E+00
  0.45531464E+00  0.76641360E+00  0.74040473E+00
  0.10927640E+00  0.75637611E+00  0.23776231E+00
  0.74575535E+00  0.27037085E+00  0.75314772E+00
  0.12220609E-01  0.77542255E+00  0.98651297E+00
  0.47540716E+00  0.24952890E+00  0.49973941E+00
  0.48179128E+00  0.72162624E+00  0.10435937E-01
  0.46115248E+00  0.24761799E+00  0.24482311E+00
  0.79758643E-01  0.76652945E+00  0.74861134E+00
  0.46958091E+00  0.75760849E+00  0.26134881E+00
  0.59552968E-01  0.21163583E-01  0.24174549E+00
  0.51512789E+00  0.47813262E+00  0.73974826E+00
  0.47025081E+00  0.23927268E-01  0.72874075E+00
  0.98052314E+00  0.47287392E+00  0.26745184E+00
  0.24467648E+00  0.22153909E+00  0.99390492E+00
  0.76394566E+00  0.69385770E+00  0.51659524E+00
  0.21157674E+00  0.73387968E+00  0.50516995E+00
  0.77048761E+00  0.28807002E+00  0.99278490E+00
  0.95377637E+00  0.20555353E-01  0.75190735E+00
  0.45082395E+00  0.50261951E+00  0.22089279E+00
  0.28890150E-01  0.49726374E+00  0.74810751E+00
  0.54665242E+00  0.98539602E+00  0.25812410E+00
  0.22733380E+00  0.24942659E+00  0.48355808E+00
  0.74526028E+00  0.77144561E+00  0.98938298E+00
  0.71943075E+00  0.20965438E+00  0.49469267E+00
  0.26721637E+00  0.74356210E+00  0.99854574E+00
  0.89002322E-02  0.18490534E+00  0.99331046E+00
  0.51985722E+00  0.51226882E+00  0.48109738E+00
  0.48159871E+00  0.48762834E+00  0.18398237E-01
  0.21451127E-01  0.18587224E-01  0.48319712E+00
  0.51288171E+00  0.19844838E-02  0.99383823E+00
  0.97035121E+00  0.37434509E+00  0.47900427E+00
  0.22390908E-01  0.46608623E+00  0.99048520E+00
  0.51323131E+00  0.99957724E+00  0.51891756E+00
  0.11557097E+00  0.27419666E+00  0.26477295E+00
  0.75650030E+00  0.76372194E+00  0.75437729E+00
  0.23668801E+00  0.76517513E+00  0.36626061E+00
  0.24277889E-01  0.24065798E+00  0.74991029E+00
  0.75951719E+00  0.72575626E+00  0.23557756E+00
  0.35188308E+00  0.26806159E+00  0.74526556E+00
  0.79895620E+00  0.25153805E+00  0.25534641E+00
  0.21451342E+00  0.73690738E+00  0.87491006E+00
  0.20526779E+00  0.53936121E+00  0.12085668E+00
  0.66998548E+00  0.99283513E+00  0.62466219E+00
  0.68527861E+00  0.24425052E-01  0.87846865E+00
  0.24557587E+00  0.51106089E+00  0.36717354E+00
  0.25776179E+00  0.51258553E+00  0.87516981E+00
  0.76075041E+00  0.94964635E+00  0.36154511E+00
  0.75063881E+00  0.36478473E-01  0.12499875E+00
  0.25235421E+00  0.48189031E+00  0.61784395E+00
  0.76316410E+00  0.51039676E+00  0.87660922E+00
  0.26617445E+00  0.29216990E-01  0.37283063E+00
  0.74993911E+00  0.46842185E+00  0.62293111E+00
  0.27603924E+00  0.15198581E-01  0.12430639E+00
  0.25641996E+00  0.99531273E+00  0.61478008E+00
  0.67181237E+00  0.51381799E+00  0.12890836E+00
  0.23803806E+00  0.98432374E+00  0.87428883E+00
  0.69355253E+00  0.49578912E+00  0.38850274E+00
  0.30126844E+00  0.75772070E-02  0.25775000E+00
  0.77184156E+00  0.50374538E+00  0.75696273E+00
  0.20943480E+00  0.99887020E+00  0.74391287E+00
  0.70119694E+00  0.49465694E+00  0.25924338E+00
  0.24445225E+00  0.98081666E+00  0.99565301E+00
  0.73603042E+00  0.45330596E+00  0.51006721E+00
  0.25439877E+00  0.28233800E-02  0.49729739E+00
  0.75008996E+00  0.55291732E+00  0.17120630E-02
  0.71135332E+00  0.89943117E-02  0.75794993E+00
  0.20164711E+00  0.50114814E+00  0.24379672E+00
  0.26689187E+00  0.52537207E+00  0.74286381E+00
  0.79022796E+00  0.98184331E+00  0.24693874E+00
  0.26816171E+00  0.49812823E+00  0.49893011E+00
  0.75711232E+00  0.45292117E-01  0.27702726E-02
  0.75756093E+00  0.96392379E+00  0.49293183E+00
  0.24611200E+00  0.48228352E+00  0.18906451E-02
  0.99528438E+00  0.24270165E+00  0.37821267E+00
  0.47711222E+00  0.75399017E+00  0.87710692E+00
  0.49102122E+00  0.23420352E+00  0.62133543E+00
  0.44516311E-02  0.76591028E+00  0.11983834E+00
  0.64079674E-02  0.27121132E+00  0.86526956E+00
  0.51820995E+00  0.74567843E+00  0.38487879E+00
  0.47729461E-02  0.73523109E+00  0.62540962E+00
  0.49403795E+00  0.26195626E+00  0.12124689E+00
  0.13894264E+00  0.37282865E+00  0.53327586E-01
  0.64762980E+00  0.86445394E+00  0.54100178E+00
  0.64403200E+00  0.14352452E+00  0.94926066E+00
  0.15220800E+00  0.59411769E+00  0.44933261E+00
  0.34820964E+00  0.37915618E+00  0.94942042E+00
  0.88459444E+00  0.88195706E+00  0.44317941E+00
  0.86287189E+00  0.13778688E+00  0.53834090E-01
  0.36384031E+00  0.59915601E+00  0.55252835E+00
  0.88447981E+00  0.92671276E-01  0.19116089E+00
  0.38271389E+00  0.60777348E+00  0.69691135E+00
  0.90593553E+00  0.85567753E+00  0.28952025E+00
  0.38080333E+00  0.41962827E+00  0.80335781E+00
  0.12258332E+00  0.61449777E+00  0.31070947E+00
  0.59382795E+00  0.11615681E+00  0.80026973E+00
  0.84296961E-01  0.41766227E+00  0.19356109E+00
  0.61546162E+00  0.89166493E+00  0.70109187E+00
  0.87517304E+00  0.62578297E+00  0.94557591E+00
  0.35919632E+00  0.11337448E+00  0.45196805E+00
  0.84913930E+00  0.34040923E+00  0.54879699E+00
  0.35268850E+00  0.88145911E+00  0.59236578E-01
  0.14380615E+00  0.98974434E-01  0.54605924E+00
  0.64037744E+00  0.64520571E+00  0.53207042E-01
  0.14753723E+00  0.87008090E+00  0.93905263E+00
  0.63269267E+00  0.36255042E+00  0.45276019E+00