Na88 Sn16 P8 S96                        
   1.00000000000000     
    13.4813327813000008    0.0000000000000000    0.0000000000000000
     0.0000000000000000   13.4813327813000008    0.0000000000000000
     0.0000000000000000    0.0000000000000000   26.9626655626000016
   Na   Sn   P    S 
    88    16     8    96
Direct
  0.0461453219759971  0.0035853508672772  0.1113411196329220
  0.4895831032701590  0.5354089479187374  0.6107481957596598
  0.5458074259592052  0.4753266911495074  0.8633368801571732
  0.9718616157311013  0.0001672973501653  0.3861824819791554
  0.0025198996450783  0.9795171530724176  0.8983989978815803
  0.7357012171936989  0.4961441865408723  0.3788823654253198
  0.0274748931385178  0.4621881055007374  0.1154225663166017
  0.2858427564167895  0.9992155627303200  0.1232311403030958
  0.7633175232902584  0.9582544299480343  0.6217334212141085
  0.7387811542955686  0.2509131117756303  0.8938009340322560
  0.7865417023531409  0.7270856622347941  0.3726627839525614
  0.2391419667520639  0.2697008057902364  0.7850324442602507
  0.7675675063445782  0.2519407800368572  0.1268965179973346
  0.2486836653935307  0.7897685290935638  0.4963531556224819
  0.9858525979099452  0.0039423782502641  0.7548377103646655
  0.2276491427337193  0.4936941718877129  0.3728186412556735
  0.0212848107912684  0.9983927399215931  0.6174999225062727
  0.0292583457675884  0.4916407252522436  0.6425937413096821
  0.5341731362066402  0.9917281600713328  0.2500638044062608
  0.2271318579005650  0.4084531894876059  0.8805539661124007
  0.5003829802671659  0.0320004988749643  0.3679701710421450
  0.2566378511032822  0.2530865221192810  0.3755456611738086
  0.7299056366037553  0.7659154185688976  0.9903702139455577
  0.7475385355257416  0.4713563755134192  0.6330764686297088
  0.2390312820026917  0.7123056489157186  0.0065577903890974
  0.2878596526869077  0.3486804158180007  0.6363659361384190
  0.7564469525292459  0.4839386907201000  0.1241885622531076
  0.7338001302094570  0.2568229254518713  0.3745601096924172
  0.5225038046608940  0.7350953827194647  0.5115714957184057
  0.5099792224379954  0.2166335944398856  0.9934516372079519
  0.0031832564639969  0.5123073735606959  0.3887086002073354
  0.4963181595647952  0.9794824076665311  0.7532591503998266
  0.9998034296967986  0.5186510153594459  0.2617503213741099
  0.5327965774612933  0.4903807469614291  0.7418807528609276
  0.0347794446746128  0.2025636495168164  0.0098399741301559
  0.5417273773627087  0.2191058968513188  0.4820969787385534
  0.5133772054519206  0.7490622435313625  0.0009755571716269
  0.2244627759202160  0.2130440181267220  0.1155304253989921
  0.0097906810246751  0.7508532403161320  0.7810891016783377
  0.7745405306378850  0.7350325277353825  0.2486474452109346
  0.0120664659546211  0.9956857755097323  0.2547194084142631
  0.4752261078971116  0.7434920119881412  0.7357171100262223
  0.4794176245278596  0.9917879590225440  0.8707603856330094
  0.2490962221893388  0.2392379754561093  0.2358051148233169
  0.2717300501488161  0.2116515559111718  0.9877827675601220
  0.8129184061108542  0.7341623548844375  0.5166263441065395
  0.9996833482329355  0.5458794382486530  0.5079357293787629
  0.7426044655117212  0.2607761155548874  0.0198725544812858
  0.0008782254099197  0.2355776505480101  0.7452940477915000
  0.4747358752705065  0.4946147286333775  0.2412230517245302
  0.0344104162148701  0.4956642977373312  0.7727335401566066
  0.5125151278127360  0.7441434156071669  0.2377148185245155
  0.2784959795269574  0.2909891875285005  0.5136754205319418
  0.7772623966074587  0.7451534448349570  0.1228879974704517
  0.7708282836586028  0.2155469594358430  0.5954218131688024
  0.9885403086655578  0.7325926607563966  0.9967973641714112
  0.0260329285629613  0.4546696718883210  0.9804635608631186
  0.5026485561279311  0.4984643216710921  0.4973321599256883
  0.5051352938658161  0.4841014639307720  0.9836173765017607
  0.0133325836597994  0.9544401592224081  0.5131782260836810
  0.5416617239691792  0.9807361766769811  0.1070636861423421
  0.0057029215962173  0.2640956616096395  0.5244369521688018
  0.8642433131512101  0.4573890943715589  0.8852570000905369
  0.5042418556397074  0.9880182112173452  0.4890104752414966
  0.9999500295685116  0.2610114853135668  0.2568842050403862
  0.7548017464684365  0.7416217417748905  0.7585062589977030
  0.2369157268011616  0.7540349533318995  0.2556908386268497
  0.7309831861646887  0.2381070255739030  0.7460781156892407
  0.0012981103094860  0.7349603064847470  0.2660812047366598
  0.4903274858647244  0.2315344708413982  0.7486519412435596
  0.5443058530285981  0.2449770550251460  0.2602498812515660
  0.2508622145259544  0.7585170289014869  0.7672534791528171
  0.2369050681644156  0.4768445277705505  0.1293666601216154
  0.5245139325344311  0.9929654462350778  0.6330079117247750
  0.7409546415895045  0.9819125568485930  0.8848234901278520
  0.2355933771931641  0.7668838015730211  0.3814742702897775
  0.2693941081071661  0.7394350102382893  0.8938838581605333
  0.6930685225152186  0.9394485491571549  0.3841732334985907
  0.8143009495893586  0.9733576159100940  0.1221701282778950
  0.2550029708720566  0.7522769892866121  0.6437706207203362
  0.7496621824474029  0.7065118119458001  0.8720190740632839
  0.2419007751385438  0.0356608478590672  0.3684320685974325
  0.7483994935639485  0.7368331014389942  0.6302933550783885
  0.2689888973768286  0.7471489473994356  0.1274431407972450
  0.2713422959859281  0.0256098219334077  0.6186133510369954
  0.4978100469400489  0.5350810539993932  0.1132604321075190
  0.2139003774614442  0.0123612492108866  0.8774766603385452
  0.4795214843581160  0.4894392222043052  0.3689808316921132
  0.2739503469993044  0.9968485335958445  0.2432891828972108
  0.7814684709143835  0.4918596612302225  0.7518750660503964
  0.2274905380910383  0.9943805634415132  0.7491878483518349
  0.7198974764415408  0.4825800440150093  0.2460116918913322
  0.2710708403343623  0.9491075693195312  0.9997063934593396
  0.7446985145222518  0.4680664172636019  0.4981977133058694
  0.2589194168573420  0.0422972811050048  0.4908809998111076
  0.7643339361854053  0.5143323633157925  0.9990773620053850
  0.7445542302385437  0.9940722059438934  0.7494045263663736
  0.2265358010354862  0.4938578177799898  0.2483186268296388
  0.2823749550330933  0.5044025185627449  0.7447044022994603
  0.7672230009243407  0.0109871379351571  0.2552950506847614
  0.2561170994708617  0.5308617685900432  0.5027876350664107
  0.7783092559150981  0.0124659862055073  0.0041090848045889
  0.7582388827913314  0.9926465608067847  0.4933807443530537
  0.2645732463751590  0.4689071337681792  0.9984650191355111
  0.9925031005601833  0.2626121600350169  0.3858057551665046
  0.5057764458585168  0.7393114605380612  0.8728523224139795
  0.5124791539167423  0.2582771638820280  0.6187046840214399
  0.0164199275490570  0.7289282764950943  0.1248460959158797
  0.9949556670685383  0.2251012914331210  0.8830628102269623
  0.4878861017040116  0.7643450079849448  0.3680050055042060
  0.0043585501700033  0.7298582233375482  0.6388310129502417
  0.5038549693875455  0.2479712656990494  0.1217956058915701
  0.1610531454821858  0.3609002591482773  0.0514891756735123
  0.6526677358490741  0.8785257409675853  0.5443811414516146
  0.6653410126435406  0.1154911999757262  0.9552828080659314
  0.1461920819362509  0.6283672871272858  0.4467186103455992
  0.3778083511758804  0.3627212596739127  0.9440183734280954
  0.8589968326681564  0.8820893065468525  0.4496153797604299
  0.8719083596837177  0.1175259016599738  0.0554852450661551
  0.3530559381019700  0.6489554639657467  0.5482507489595264
  0.8706114552754369  0.1272777955364540  0.1991548845757959
  0.3776927793115248  0.5964239660115166  0.6882665914013524
  0.8632718202728400  0.8919368814120083  0.3032832551922783
  0.3826563894374856  0.3867771844745307  0.7981839258670815
  0.1377977035142518  0.6014567354544137  0.3072097856374821
  0.6437565348375330  0.0967823367246042  0.7989908541185463
  0.1169115239521610  0.3872722756699617  0.2036953545461250
  0.6414231369813327  0.8894157727346929  0.6984494801943849
  0.8657617367112398  0.6228749127864333  0.9473720665023277
  0.3571448503695712  0.1451291148799729  0.4427222834683940
  0.8550095735321259  0.3808933511762180  0.5534490803936543
  0.3676432925655119  0.8581139459523764  0.0625342601545311
  0.1517706077961002  0.1303598534539401  0.5478675234310731
  0.6723565620926554  0.6224404188159305  0.0535932901832855
  0.1496001498307293  0.8622801398521308  0.9517504531789671
  0.6348572566743081  0.3814128387763983  0.4478464282532524
  0.6112548499784648  0.4069081212001917  0.2996958063658799
  0.1293505590585565  0.8969777750098649  0.8021252941930134
  0.1256576328931917  0.0973763635668514  0.6995141600791708
  0.6135529148290183  0.5892657268497848  0.1934676001377234
  0.8714080893171996  0.3821097675273866  0.6972327059894057
  0.3837890479507758  0.9089087098992277  0.1958390971885814
  0.3531146464850501  0.1091438188981256  0.2971854155504297
  0.8801325904132060  0.6003754236093284  0.8056511577795206
  0.1804459941622034  0.0626366863141766  0.0497364773348502
  0.6518929280236458  0.5724666650015952  0.5530167998167189
  0.6611337878545864  0.4097801249603601  0.9525277347027609
  0.1389498463024863  0.9413060896499686  0.4426574255062438
  0.3525839340812586  0.0539709920970646  0.9414440346971695
  0.8448770643755584  0.5846037829540359  0.4462051748387307
  0.8668904586600762  0.3994486411665175  0.0492373410801040
  0.3528066474622178  0.9418163521896873  0.5430942295229461
  0.1589875017181934  0.1001190608531117  0.1956991018513710
  0.6615539303234990  0.5906264359349260  0.7065257402716578
  0.1635259203831738  0.8920553639022917  0.3037054016962114
  0.6830055657868106  0.3936418905333325  0.8114635193478327
  0.8347804637875721  0.5850860519066896  0.2964080144677591
  0.3442561374669950  0.0937089139961854  0.7960671045855001
  0.8449509029153993  0.3829441434389524  0.2059153111214606
  0.3285135827975101  0.8982482025777262  0.6915661991694404
  0.8563676084013686  0.8768619585875995  0.9446855639027695
  0.3498612711001243  0.4228548842624871  0.4490435323178908
  0.8684079330046575  0.0741571225932316  0.5464532222830211
  0.3605944130448576  0.5807082840160431  0.0513217932769095
  0.1576490388592630  0.4369478033716612  0.5597091894577345
  0.6832904238681550  0.9052303670685471  0.0543526579678833
  0.1703480552588398  0.5675209857347008  0.9391673338928408
  0.6560984893610908  0.0811471094798586  0.4383803443529451
  0.3285261475426791  0.4022372947801254  0.3040567761909925
  0.8355542311114567  0.8917457724040081  0.8103412717774917
  0.8290475599135396  0.1033443545071155  0.6943770084385690
  0.3241670682476202  0.5960172996218152  0.1985599941992593
  0.1652895721087917  0.3811241513591886  0.7105011938190947
  0.6786988292013608  0.8900929304909262  0.1925257874460592
  0.6527994592314985  0.0920972991100373  0.3075431317714311
  0.2030354703143866  0.5967270948844047  0.8111869166552107
  0.0836312936406109  0.1624154662987472  0.3397621533671015
  0.5832192987086522  0.6626003945490825  0.8176603683608583
  0.5865090041711458  0.3473570068488722  0.6680276237494782
  0.0982696783719054  0.7946302635116765  0.1781529804222786
  0.4156395796317066  0.1752182207422351  0.6564202587696132
  0.9193381423999547  0.6169993551135062  0.1657635568789112
  0.9194329625170181  0.3597208647837677  0.3369654762060522
  0.4030338550452873  0.8316006750447149  0.8375391163662637
  0.1015455370984930  0.1467717648231490  0.9231754907751906
  0.5753786197157427  0.6704083434557769  0.4104377361215079
  0.0950372043627110  0.8051703620860853  0.5883258753841880
  0.5966156625237583  0.3514180016078297  0.0849815855448667
  0.9183245259237630  0.6353584476912780  0.5983069273102533
  0.4108212734142447  0.1798963704032889  0.0742801628240314
  0.9204947538387045  0.3058427318104084  0.9349265517070718
  0.4192196206730746  0.8562518493715922  0.4184699415467349
  0.9082273518261815  0.8344282956509015  0.6710281833826477
  0.4117374129758766  0.3357025901782171  0.1643122135708387
  0.9051364482315343  0.1375796513596888  0.8401108938824542
  0.3914039282154477  0.6772961161292409  0.3281907066015385
  0.0705294691785775  0.3301088013257929  0.8442116419644698
  0.5854155012864047  0.8323035292055840  0.3182304232947502
  0.0862422632775536  0.6702618421900444  0.6967757504357924
  0.5872863272792250  0.1513541528051338  0.1657337080344428
  0.4350226971298970  0.3468674911377989  0.5718407007383394
  0.9316006833950666  0.8230704790717394  0.0814736420473173
  0.9061492157309374  0.1808360917759580  0.4290946214995225
  0.4429465092834184  0.6409369948630230  0.9212673459297134
  0.1025850674710275  0.3435116372284761  0.4211826540978105
  0.5987009024875614  0.8312469301371641  0.9093832554193735
  0.5935918104584788  0.1633827566674138  0.5737254010029964
  0.0978184408174427  0.6446280504389815  0.0766239556843357
 
 -0.30470158E-03  0.13724499E-02 -0.28460666E-02
  0.24122226E-02 -0.48104331E-02 -0.11795799E-02
  0.52023737E-02  0.24694338E-03 -0.10443798E-03
 -0.24909860E-02 -0.58136520E-03  0.15188386E-02
 -0.26003168E-02  0.19990737E-02  0.53866445E-02
 -0.12908016E-02 -0.93406225E-02  0.15548288E-02
 -0.35882719E-02 -0.29333842E-02 -0.31502489E-02
  0.19273593E-02  0.81501407E-02 -0.45957850E-03
  0.20699677E-02  0.15136252E-02 -0.41057381E-02
 -0.36143474E-02  0.55292641E-02  0.13263684E-02
 -0.24121981E-03 -0.22197146E-03  0.41312169E-02
  0.50182124E-02  0.89802349E-02  0.25132280E-02
 -0.26758238E-02  0.29186559E-03  0.82745753E-02
 -0.52524815E-02 -0.57927530E-04  0.12640302E-01
 -0.33882092E-03 -0.60564205E-02 -0.69481587E-02
  0.17016456E-02 -0.29969057E-02  0.50381988E-03
 -0.66769510E-02  0.44137610E-02  0.93780017E-02
  0.78235411E-02 -0.22193844E-02  0.20698567E-02
 -0.17715340E-02 -0.15900123E-02  0.58447392E-02
  0.62017695E-02  0.47767589E-02 -0.16359276E-02
 -0.57795056E-02 -0.26201923E-02 -0.61958368E-02
 -0.14975057E-02 -0.60209515E-02  0.46120823E-02
 -0.64720165E-02  0.66253483E-02  0.39396048E-02
 -0.17341746E-02  0.47091480E-02 -0.15307094E-02
  0.14095790E-02 -0.18404658E-02  0.31189543E-02
  0.33830729E-04 -0.42758485E-02  0.24737275E-02
 -0.31743481E-02 -0.59096718E-02 -0.75027459E-02
  0.85918259E-03 -0.54155726E-02  0.11878588E-02
  0.22984129E-03 -0.31301881E-02 -0.99911574E-02
  0.12656525E-03 -0.99674843E-03  0.15148105E-02
  0.47142793E-02 -0.51997977E-02 -0.79851939E-02
  0.45856008E-02 -0.80313541E-02 -0.16430587E-02
  0.63994362E-03 -0.29299651E-02 -0.71376395E-02
  0.29015149E-02  0.25979411E-02 -0.42257683E-02
 -0.49605197E-02  0.96624287E-03  0.63583730E-02
 -0.44648684E-02  0.20081159E-02  0.49105608E-02
 -0.11781240E-01  0.29297539E-02 -0.98211921E-04
 -0.16354246E-02  0.22333340E-02  0.36057924E-03
  0.28581103E-03 -0.43047959E-02 -0.55690935E-02
  0.30643037E-02 -0.42397461E-02 -0.49784232E-02
  0.13689903E-02 -0.32350013E-02 -0.41142728E-02
 -0.78545950E-02 -0.18066007E-02 -0.51178586E-02
 -0.34533223E-02  0.10712442E-01  0.43842142E-03
  0.48695561E-02 -0.17842380E-02  0.35725219E-02
 -0.61057994E-02  0.27977002E-02  0.45758940E-02
 -0.34971594E-02  0.20544232E-02  0.47293983E-02
 -0.12665159E-02 -0.53602465E-03 -0.12961452E-02
 -0.26084444E-02 -0.26690163E-02 -0.11483512E-02
  0.46355846E-02 -0.59186708E-03  0.17655186E-02
 -0.36041207E-02  0.63744351E-03  0.42520221E-02
  0.52730900E-02  0.32149678E-02  0.19278076E-02
  0.39891134E-02  0.41340526E-04  0.13182858E-02
  0.30819302E-02 -0.52918888E-02 -0.24722366E-02
 -0.35627383E-02  0.37199027E-02 -0.40634359E-02
  0.55960017E-02  0.37618554E-02  0.12955291E-02
  0.21915363E-02  0.14915456E-02  0.23473244E-03
 -0.94735334E-03  0.70071306E-02  0.14829875E-02
  0.30055770E-02 -0.12466198E-03 -0.58641049E-02
  0.38753013E-02  0.36161678E-02  0.16316234E-02
  0.85419476E-02  0.18232715E-03 -0.67027016E-02
  0.38573919E-02 -0.81955697E-02  0.54322536E-02
 -0.21115003E-02  0.33520785E-02  0.10002090E-03
 -0.11024487E-02  0.22715251E-04 -0.73329240E-02
 -0.49893940E-02 -0.10573541E-02  0.91560170E-03
  0.20283481E-02  0.38548695E-02 -0.22802764E-02
  0.60956568E-03  0.18191450E-03  0.52100732E-02
  0.85823594E-02  0.18572296E-03  0.57434598E-02
  0.48582551E-02 -0.32153520E-02 -0.23173064E-02
 -0.21066343E-02 -0.32614161E-02  0.27299460E-03
  0.12993199E-02  0.31861710E-02 -0.38129263E-02
 -0.37443881E-05  0.45529840E-02  0.50569298E-03
  0.11326883E-02  0.89380098E-02 -0.30951108E-02
 -0.59671888E-03 -0.50072903E-02 -0.28670241E-02
  0.47502820E-02 -0.15438368E-02 -0.42551571E-03
  0.43495705E-02  0.44504008E-02 -0.66562685E-04
  0.94187765E-03  0.26052436E-02  0.26124310E-02
 -0.17852900E-02 -0.70571243E-03  0.43172515E-03
 -0.49271034E-02  0.16735193E-02  0.94831666E-02
  0.21518841E-02 -0.31734858E-02 -0.26079813E-02
 -0.12412960E-02 -0.12386297E-02  0.57774418E-02
 -0.46518491E-02 -0.11061524E-02  0.99550328E-03
  0.56714888E-02 -0.89373910E-03 -0.52366972E-02
  0.15046986E-02  0.94231884E-02  0.31857269E-02
 -0.25075538E-02  0.83607907E-02 -0.34938857E-03
  0.23264895E-02 -0.48602689E-02 -0.25855944E-03
 -0.12929174E-02 -0.79561895E-03  0.23836260E-02
  0.32724787E-02 -0.64240397E-02 -0.99118355E-02
  0.14267305E-02 -0.17232110E-02  0.36730233E-02
 -0.16706557E-02 -0.91791380E-03 -0.49524675E-03
 -0.12926020E-02 -0.32361627E-02  0.24388435E-02
 -0.14178289E-05 -0.17757629E-02  0.21278862E-02
 -0.18465031E-02 -0.16543899E-02 -0.41006775E-03
  0.17786569E-03  0.14222743E-02 -0.29184486E-02
 -0.14282407E-02 -0.12992509E-02 -0.12903295E-02
  0.10928844E-02 -0.26197060E-02 -0.35274458E-02
 -0.13051284E-02  0.14126400E-02  0.56336471E-03
 -0.18228392E-02  0.11398154E-02  0.46182091E-03
 -0.27917103E-02  0.35594609E-02 -0.56532852E-03
 -0.32879731E-03 -0.34841720E-03 -0.10777382E-02
  0.14912606E-02 -0.85074194E-03  0.59779712E-03
 -0.15512200E-02  0.10069193E-02 -0.55465792E-04
 -0.22038472E-03  0.41281269E-02 -0.31128333E-02
 -0.68533746E-04 -0.33409930E-02  0.13160372E-02
  0.16109965E-02  0.13005015E-02  0.19499378E-02
  0.13267038E-03  0.16933553E-02  0.19005480E-02
  0.13982084E-02  0.34568881E-02  0.88664027E-03
  0.36226592E-02 -0.12789529E-02  0.11791272E-01
 -0.22219655E-02  0.52480409E-02 -0.26467267E-02
 -0.98165880E-03 -0.35028383E-03 -0.36449320E-02
 -0.43459998E-02 -0.21811280E-02 -0.46103920E-02
  0.34367789E-02  0.12946073E-02  0.92666586E-03
  0.51738130E-02  0.54638731E-02 -0.19351406E-02
  0.14093848E-02  0.79943646E-04 -0.28316094E-02
 -0.24834444E-02  0.13354127E-02 -0.24231536E-02
  0.96538648E-03 -0.17998301E-02 -0.11206866E-02
 -0.27438743E-03 -0.45564830E-02 -0.14175442E-02
 -0.10736414E-02  0.24070850E-02 -0.89458544E-03
  0.18566194E-02 -0.11683779E-01 -0.26804190E-02
  0.49973491E-03  0.20742004E-02 -0.54238094E-02
 -0.72240636E-04 -0.21376823E-02 -0.36964594E-02
  0.36749963E-02 -0.67819112E-03 -0.40711357E-03
 -0.42531926E-03 -0.71562639E-02 -0.14379361E-03
 -0.33247076E-02 -0.75842906E-03 -0.33579056E-02
 -0.35904513E-02 -0.19034491E-02  0.36532262E-02
 -0.23197982E-02 -0.30678936E-03 -0.78032662E-02
 -0.60229863E-02  0.10067881E-02  0.13085802E-03
 -0.12682166E-02 -0.23363618E-02  0.29765120E-02
 -0.22530762E-02  0.46657511E-03 -0.25520141E-02
 -0.28400361E-02 -0.48984869E-02  0.27993491E-02
  0.46153616E-03 -0.38231834E-02 -0.12310199E-02
 -0.30780429E-02 -0.73536796E-03  0.20918731E-02
  0.24688677E-02  0.23089043E-03 -0.32595230E-02
  0.62868408E-03 -0.61162931E-03  0.30836038E-02
  0.82886486E-03  0.50934002E-03  0.27522064E-02
  0.38344885E-03  0.37998277E-03 -0.99991807E-02
 -0.26143351E-02 -0.30981415E-02  0.28893390E-02
 -0.84850232E-03  0.17425585E-02  0.98509169E-02
  0.22421892E-02  0.16246872E-02 -0.27056260E-02
  0.29005044E-02  0.66226203E-03 -0.18598297E-02
  0.23077549E-02  0.16704444E-02  0.27853226E-02
  0.15729724E-02  0.47402924E-03 -0.46105984E-03
  0.38674315E-02 -0.48585154E-02  0.28747008E-02
 -0.78329414E-02 -0.38800829E-02  0.28562168E-02
 -0.13353391E-02 -0.98939366E-03  0.28073743E-03
 -0.31225196E-02  0.96161929E-03 -0.67697001E-03
  0.58050605E-02  0.70018741E-02  0.27333522E-02
  0.38921130E-02 -0.71498091E-02  0.16109391E-02
 -0.63734784E-02  0.28220800E-03 -0.13778506E-02
  0.46476624E-03  0.23825593E-02  0.55746649E-02
  0.21591405E-03 -0.14963192E-02 -0.42304449E-03
 -0.58757464E-02  0.90036056E-03  0.21040360E-02
  0.45037442E-02 -0.50274134E-02 -0.36799765E-02
  0.45280439E-03  0.14522976E-02 -0.25558997E-03
 -0.26022295E-02 -0.51734011E-02  0.73382042E-02
 -0.90418770E-03  0.37322477E-02 -0.68370017E-02
  0.38944121E-02 -0.25182069E-03  0.10088820E-02
  0.29141854E-02 -0.44591908E-04  0.24246828E-02
 -0.12838798E-02  0.44940325E-02  0.14434632E-02
 -0.82677010E-02 -0.24748344E-02 -0.67696124E-03
 -0.63511557E-02 -0.24324084E-02 -0.85451080E-03
  0.19067345E-02 -0.46411828E-02  0.34104909E-02
  0.21672312E-02 -0.61499163E-02 -0.25636766E-04
  0.15620901E-02  0.25829404E-03 -0.33082366E-02
  0.62920098E-02 -0.22566096E-02 -0.72929645E-02
 -0.16470600E-02  0.28884032E-02 -0.17800000E-02
  0.95252812E-02  0.55580145E-02 -0.68828113E-02
 -0.12812197E-02 -0.34191546E-02 -0.38678506E-02
  0.19095082E-02 -0.24672877E-02 -0.21408271E-02
  0.67830160E-03 -0.41785815E-02 -0.21358655E-02
 -0.32800251E-03  0.64205877E-02 -0.30314288E-03
  0.70128811E-03 -0.56242289E-02  0.10738024E-02
 -0.33894648E-02  0.98634902E-02 -0.19230311E-02
 -0.86999021E-03  0.36877871E-02 -0.50494637E-03
  0.31798882E-02  0.95224069E-02  0.38349358E-02
  0.88805040E-02 -0.92242451E-03  0.16444307E-02
  0.41766296E-02  0.43013403E-02  0.29247466E-02
  0.18954519E-02  0.79698018E-02  0.60755338E-02
 -0.45902628E-03  0.12907680E-02  0.94940594E-03
 -0.43093165E-02  0.75586896E-02  0.78161990E-02
  0.19480439E-02  0.33142129E-02  0.28998087E-02
  0.13964234E-02  0.79738578E-03 -0.37109329E-03
 -0.17191396E-02  0.77435224E-03 -0.17083076E-02
  0.31545963E-02 -0.32608885E-02 -0.45072557E-02
  0.91071709E-03 -0.15269965E-02  0.11860526E-02
 -0.21391030E-02 -0.41012039E-03  0.10787104E-02
 -0.33482578E-02  0.22087748E-02 -0.10510123E-02
  0.21104304E-02  0.29432253E-02  0.27309330E-02
  0.55400819E-02  0.42026381E-02  0.49766691E-02
 -0.55666575E-02  0.34599147E-02  0.84360175E-02
  0.54633762E-03 -0.33491707E-02  0.43452104E-03
 -0.22996221E-02 -0.92350504E-03  0.34245054E-02
  0.27791162E-02  0.33458732E-02  0.58780647E-02
  0.86150881E-03  0.57890473E-02  0.25763541E-02
 -0.10715036E-02  0.93899943E-03 -0.59930585E-03
 -0.90111887E-03 -0.52284298E-02  0.25803778E-02
 -0.14737205E-02 -0.29681958E-02 -0.15110834E-02
  0.31996562E-02 -0.12915022E-02  0.27667100E-02
  0.62760826E-02 -0.34329602E-02 -0.15432472E-02
  0.58752575E-02 -0.52925766E-02 -0.99692250E-03
 -0.17043351E-02  0.26585656E-02 -0.27282049E-02
  0.58145206E-02  0.84084036E-02 -0.81850821E-03
 -0.25751799E-02 -0.31396327E-02  0.34847912E-02
 -0.28027862E-02 -0.77037417E-03 -0.28058340E-02
  0.14315092E-02  0.19130666E-02 -0.64134034E-03
  0.90732842E-03 -0.17584420E-02 -0.11521212E-03
  0.14888688E-02 -0.20419818E-02  0.19916962E-02
  0.23933871E-02 -0.38293962E-02 -0.12284263E-01
 -0.24658733E-02  0.48278617E-02  0.12724527E-02
 
           1
   2.00000000000000     
  0.15897556E+01  0.11775099E-02  0.00000000E+00  0.00000000E+00
  0.46100118E-01  0.37889583E-02  0.11113001E+00
  0.48994096E+00  0.53469530E+00  0.61066070E+00
  0.54657922E+00  0.47536333E+00  0.86332913E+00
  0.97149207E+00  0.81049913E-04  0.38629514E+00
  0.21341341E-02  0.97981372E+00  0.89879856E+00
  0.73550972E+00  0.49475847E+00  0.37899770E+00
  0.26942561E-01  0.46175293E+00  0.11518889E+00
  0.28612869E+00  0.42466287E-03  0.12319705E+00
  0.76362461E+00  0.95847898E+00  0.62142887E+00
  0.73824495E+00  0.25173340E+00  0.89389932E+00
  0.78650592E+00  0.72705273E+00  0.37296922E+00
  0.23988644E+00  0.27103305E+00  0.78521887E+00
  0.76717054E+00  0.25198408E+00  0.12751030E+00
  0.24790444E+00  0.78975994E+00  0.49729077E+00
  0.98580233E+00  0.30438884E-02  0.75432232E+00
  0.22790159E+00  0.49324957E+00  0.37285601E+00
  0.20294263E-01  0.99904754E+00  0.61819555E+00
  0.30418994E-01  0.49131147E+00  0.64274728E+00
  0.53391032E+00  0.99149228E+00  0.25049735E+00
  0.22805191E+00  0.40916184E+00  0.88043262E+00
  0.49952557E+00  0.31611785E-01  0.36751058E+00
  0.25641569E+00  0.25219329E+00  0.37588777E+00
  0.72894549E+00  0.76689831E+00  0.99066244E+00
  0.74728127E+00  0.47205499E+00  0.63296293E+00
  0.23924040E+00  0.71203261E+00  0.67891439E-02
  0.28786467E+00  0.34804608E+00  0.63654943E+00
  0.75597603E+00  0.48306197E+00  0.12363203E+00
  0.73392759E+00  0.25601951E+00  0.37464822E+00
  0.52253790E+00  0.73463101E+00  0.51083039E+00
  0.50999800E+00  0.21648572E+00  0.99356400E+00
  0.38826353E-02  0.51153597E+00  0.38811629E+00
  0.49699845E+00  0.97829093E+00  0.75313727E+00
  0.99989837E+00  0.51821635E+00  0.26122088E+00
  0.53322703E+00  0.49076616E+00  0.74156730E+00
  0.34043535E-01  0.20270699E+00  0.10311617E-01
  0.54106500E+00  0.21940381E+00  0.48246123E+00
  0.51162942E+00  0.74949688E+00  0.96827214E-03
  0.22422016E+00  0.21337534E+00  0.11555717E+00
  0.98330820E-02  0.75021461E+00  0.78067601E+00
  0.77499513E+00  0.73440355E+00  0.24827816E+00
  0.12269560E-01  0.99520585E+00  0.25441423E+00
  0.47406085E+00  0.74322400E+00  0.73533748E+00
  0.47890531E+00  0.99337718E+00  0.87079291E+00
  0.24981864E+00  0.23897328E+00  0.23607011E+00
  0.27082423E+00  0.21206660E+00  0.98812219E+00
  0.81239959E+00  0.73446714E+00  0.51697715E+00
  0.99949546E+00  0.54579992E+00  0.50783959E+00
  0.74221749E+00  0.26038016E+00  0.19787374E-01
  0.15659296E-02  0.23548985E+00  0.74542501E+00
  0.47420119E+00  0.49470930E+00  0.24153845E+00
  0.35192696E-01  0.49614125E+00  0.77287654E+00
  0.51310693E+00  0.74414955E+00  0.23781260E+00
  0.27895319E+00  0.29020412E+00  0.51349204E+00
  0.77673385E+00  0.74570530E+00  0.12258659E+00
  0.77165847E+00  0.21610504E+00  0.59551791E+00
  0.98886543E+00  0.73281394E+00  0.99681478E+00
  0.25892386E-01  0.45570920E+00  0.98057356E+00
  0.50309444E+00  0.49844583E+00  0.49689718E+00
  0.50571021E+00  0.48463793E+00  0.98373840E+00
  0.14599810E-01  0.95446721E+00  0.51268104E+00
  0.54223398E+00  0.97952034E+00  0.10746663E+00
  0.53896736E-02  0.26459295E+00  0.52444437E+00
  0.86407976E+00  0.45739246E+00  0.88471307E+00
  0.50350166E+00  0.98786135E+00  0.48907839E+00
  0.25094167E-03  0.26158337E+00  0.25671506E+00
  0.75489218E+00  0.74164873E+00  0.75889272E+00
  0.23818895E+00  0.75406251E+00  0.25611687E+00
  0.73170392E+00  0.23763002E+00  0.74590623E+00
  0.98558419E-03  0.73447646E+00  0.26610145E+00
  0.49052024E+00  0.23200715E+00  0.74836911E+00
  0.54430530E+00  0.24565251E+00  0.26028739E+00
  0.25103025E+00  0.75984301E+00  0.76702389E+00
  0.23681654E+00  0.47610168E+00  0.12915399E+00
  0.52521865E+00  0.99273641E+00  0.63297635E+00
  0.74159991E+00  0.98257279E+00  0.88481855E+00
  0.23573311E+00  0.76727030E+00  0.38166805E+00
  0.26912925E+00  0.73933032E+00  0.89391588E+00
  0.69233757E+00  0.93969682E+00  0.38487666E+00
  0.81462019E+00  0.97288682E+00  0.12197668E+00
  0.25481882E+00  0.75209323E+00  0.64419917E+00
  0.74897207E+00  0.70634771E+00  0.87209292E+00
  0.24274216E+00  0.35528259E-01  0.36804363E+00
  0.74862272E+00  0.73823106E+00  0.63052966E+00
  0.26861689E+00  0.74838930E+00  0.12741722E+00
  0.27168744E+00  0.24888785E-01  0.61859417E+00
  0.49761824E+00  0.53496302E+00  0.11343724E+00
  0.21438586E+00  0.11408222E-01  0.87674143E+00
  0.47973314E+00  0.48918358E+00  0.36925328E+00
  0.27370250E+00  0.99671236E+00  0.24325245E+00
  0.78127671E+00  0.49137957E+00  0.75205597E+00
  0.22749033E+00  0.99411712E+00  0.74934569E+00
  0.71962354E+00  0.48233461E+00  0.24598127E+00
  0.27109723E+00  0.94931857E+00  0.99948991E+00
  0.74448663E+00  0.46787367E+00  0.49810200E+00
  0.25908155E+00  0.41908639E-01  0.49061935E+00
  0.76414032E+00  0.51454193E+00  0.99911915E+00
  0.74428381E+00  0.99424130E+00  0.74943878E+00
  0.22612164E+00  0.49438588E+00  0.24827669E+00
  0.28232618E+00  0.50435083E+00  0.74462446E+00
  0.76744423E+00  0.10860928E-01  0.25533939E+00
  0.25588697E+00  0.53101115E+00  0.50278352E+00
  0.77827656E+00  0.13078407E-01  0.38781853E-02
  0.75822872E+00  0.99215091E+00  0.49347836E+00
  0.26481224E+00  0.46910007E+00  0.99860966E+00
  0.99252278E+00  0.26286337E+00  0.38594673E+00
  0.50598387E+00  0.73982430E+00  0.87291809E+00
  0.51301659E+00  0.25808743E+00  0.61957932E+00
  0.16090292E-01  0.72970684E+00  0.12464977E+00
  0.99481003E+00  0.22504933E+00  0.88279244E+00
  0.48724136E+00  0.76402143E+00  0.36766302E+00
  0.48684076E-02  0.73005028E+00  0.63889975E+00
  0.50462252E+00  0.24878185E+00  0.12165206E+00
  0.16126223E+00  0.36091212E+00  0.51279136E-01
  0.65229931E+00  0.87872385E+00  0.54420140E+00
  0.66548423E+00  0.11522419E+00  0.95519968E+00
  0.14615138E+00  0.62769132E+00  0.44661346E+00
  0.37764907E+00  0.36307836E+00  0.94395202E+00
  0.85927227E+00  0.88035598E+00  0.44941656E+00
  0.87198250E+00  0.11783362E+00  0.55082925E-01
  0.35304522E+00  0.64863833E+00  0.54797656E+00
  0.87115665E+00  0.12717718E+00  0.19912469E+00
  0.37762968E+00  0.59536231E+00  0.68825593E+00
  0.86277859E+00  0.89182437E+00  0.30303418E+00
  0.38212373E+00  0.38649480E+00  0.79845491E+00
  0.13745355E+00  0.60141122E+00  0.30663097E+00
  0.64286301E+00  0.96931697E-01  0.79900056E+00
  0.11672338E+00  0.38692567E+00  0.20391614E+00
  0.64108889E+00  0.88948499E+00  0.69826018E+00
  0.86534041E+00  0.62214821E+00  0.94757971E+00
  0.35721332E+00  0.14456193E+00  0.44263097E+00
  0.85455294E+00  0.38078426E+00  0.55360425E+00
  0.36800956E+00  0.85814820E+00  0.62292480E-01
  0.15186388E+00  0.13026912E+00  0.54809625E+00
  0.67247953E+00  0.62251598E+00  0.53797440E-01
  0.14965704E+00  0.86233651E+00  0.95100875E+00
  0.63446941E+00  0.38095322E+00  0.44806075E+00