Na88 Sn16 P8 S96                        
   1.00000000000000     
    13.4813327813000008    0.0000000000000000    0.0000000000000000
     0.0000000000000000   13.4813327813000008    0.0000000000000000
     0.0000000000000000    0.0000000000000000   26.9626655626000016
   Na   Sn   P    S 
    88    16     8    96
Direct
  0.9968872949532588  0.0253145619260568  0.1073864052919415
  0.5058246172324854  0.5096590913720332  0.6215659648223509
  0.5309551734693114  0.5022917240552138  0.7728975546077694
  0.0405441669020875  0.9876412504437735  0.3764317134758977
  0.2123470521690491  0.0174160397358930  0.8736581457680025
  0.0034195302759083  0.5469223999227100  0.3747486985419761
  0.9572834859115579  0.5080042251589857  0.1441141940104594
  0.2318973190497711  0.2498133735700628  0.1174017816517906
  0.7401311383434982  0.0375510906031922  0.6296827408715813
  0.7563106145670636  0.2532685737069247  0.8842391568209349
  0.7559763708043139  0.4976406946151286  0.3725683815054883
  0.2738781994353215  0.2495299061461156  0.8747243660493970
  0.6921362331998644  0.0540888796062781  0.1242671411504815
  0.2572854164923992  0.7416172574070240  0.6008885153694031
  0.9858562032696326  0.0162792712783015  0.8021912484379782
  0.2602179756393521  0.5255857978597428  0.3674058147867711
  0.0071578407011694  0.9979859990182812  0.6508262533245143
  0.0108422624418014  0.4682433201159077  0.6162799885499678
  0.3396886132334740  0.9970851619548223  0.1350086914211326
  0.0193863007897259  0.5410491774416802  0.8761615701943863
  0.5152111770091788  0.0108716791141770  0.3511358926848297
  0.3008216556873112  0.2592217519463952  0.3654129838270809
  0.7615231950250817  0.7400324612986838  0.8875465722763951
  0.7320367048100159  0.4227063106211216  0.6380858815407207
  0.2620822045581526  0.7187679958274353  0.0019769624799578
  0.2517113301637192  0.2364696334573997  0.6082012750600592
  0.7176784499077823  0.4330159281543413  0.1223932003937864
  0.7871901731474075  0.1813475699261743  0.3816682152352552
  0.5096147397086184  0.7615034122466717  0.4963391764989584
  0.5000702576743612  0.2371467330076515  0.9881440475638013
  0.0024844133114450  0.4588281986448344  0.4870440269918541
  0.4976165659361071  0.9751665590807149  0.7489440568598371
  0.0193516309301091  0.7395257743618392  0.2717808151447347
  0.4877187332872344  0.2522500666222489  0.7543917909337183
  0.0097931360302802  0.0076714094814671  0.9828556629718956
  0.5337314448776536  0.2178554006980815  0.4945169358308039
  0.5258395630646012  0.7427882785395938  0.0285118430828921
  0.2746414682885664  0.2536234294997869  0.2453508933456391
  0.0606946023915834  0.7874118928313629  0.7306520701907686
  0.5378459702418895  0.7513013829931400  0.2303935316053213
  0.0308493645428646  0.9934797149374843  0.2539923054944952
  0.5163601276029779  0.7284567676878618  0.7308303794397236
  0.4965317872494742  0.0260774433194507  0.8767414890552848
  0.9809714916713773  0.4853124652305844  0.2635667753305535
  0.2351618289670369  0.2216445734885822  0.0015377786312112
  0.7648527929780190  0.7432800852788616  0.5002080477154615
  0.0288836694566131  0.7702751446565932  0.4899586448953652
  0.7415118305286267  0.2550998963059817  0.0112061876757276
  0.9540947346696642  0.2487481211090620  0.7459946620035088
  0.4982490432584710  0.4441974161311950  0.2387736077157844
  0.0187972876350311  0.5317476960163575  0.7488320217527429
  0.5374990929105575  0.0420907522392475  0.2367593397326846
  0.2605509249967305  0.2916550072188981  0.4887345190948008
  0.7716240071380704  0.7764039015236941  0.0244236635161962
  0.7630914663092337  0.2402969506745382  0.5162677306972736
  0.0244297640774049  0.7471361232574893  0.9898735932933727
  0.9718454242635561  0.2570737608707307  0.0033196844238106
  0.4994672317882095  0.5045286870304203  0.5017343477729007
  0.5379601168939242  0.5013415442603781  0.0012757540891080
  0.0132533859034374  0.0097813931529496  0.4955324519157299
  0.5067243899329397  0.0139288592823033  0.0120354025394375
  0.0052651155335280  0.2339748239843623  0.5300147356909853
  0.0142603022711671  0.5227421802458226  0.0117421016061726
  0.5117016703039625  0.9783258866222947  0.4943615035195407
  0.0051640318419711  0.2311511007785207  0.2504346609929385
  0.7532712998303523  0.7356832731335033  0.7516557667048708
  0.3065702625743534  0.7705536984480886  0.2747266341945810
  0.6975384244708590  0.2244219539454284  0.7174104897401108
  0.7518523247315664  0.7400227447162551  0.2722370220949191
  0.2687633037683488  0.2440263516184105  0.7484211787817269
  0.7253516680594509  0.2393223031793310  0.2423591933134147
  0.2808642629729519  0.7501501014073565  0.7556432639395041
  0.2114074359631979  0.4938340240877583  0.1268108076300601
  0.4937502599950340  0.9733545599821570  0.6218597632726569
  0.7757253755204563  0.0253300050151821  0.8728756019356342
  0.2799976790532941  0.7659286648609599  0.4522472788276265
  0.3381229667683015  0.5151757060336576  0.8863849984701287
  0.7323587782269374  0.9077260773970920  0.3792866657457443
  0.7382389312135793  0.7647866679716361  0.1321884336144852
  0.2717573155149413  0.4840884362914175  0.6357181971491913
  0.7408370378865422  0.5017749851846585  0.8718269393373654
  0.2830511957063770  0.0096562239478312  0.3667555467745172
  0.7273772989783581  0.7207030318151104  0.6263482916765662
  0.2466135494306360  0.7583229732341098  0.1323808965629931
  0.2283047526024193  0.9748600173452900  0.6178450797261524
  0.4767872735230522  0.5274990734390823  0.1143725539037988
  0.2428387849803462  0.7392243097965262  0.8766947077209362
  0.4924657663854262  0.4507273938191491  0.3675316500527783
  0.2800710451293234  0.9993934717080911  0.2448588658568299
  0.7635926278904001  0.4935724029883878  0.7547713119519599
  0.2434734429710359  0.0132171419883186  0.7483746727234910
  0.7322089298398125  0.5018284267016179  0.2481877707189442
  0.2571863262074798  0.9701301582938848  0.9998700388695497
  0.7682654186785717  0.4710365898552918  0.5014770878966447
  0.2655770783338332  0.0247906190362554  0.4965539839380235
  0.7711232033081949  0.5080947686187735  0.9878715737630263
  0.7443556186217468  0.9917815956517574  0.7497036633414373
  0.2429736685680705  0.5067254522498839  0.2445462902834734
  0.2772699702744196  0.5041700191212625  0.7586066854585094
  0.7758031187975932  0.0071992154761433  0.2597666746171725
  0.2481307337301492  0.5240522793881123  0.5018871293294010
  0.7586228274288018  0.0108329658420097  0.9944560668807810
  0.7703949602898357  0.9721883203355953  0.4997775408729143
  0.2596889432710094  0.4655433888399772  0.0001546510594931
  0.0360364379351387  0.2474534867352994  0.3854918856526797
  0.5104163411790491  0.7632469653413253  0.8767471450116883
  0.4993865048769792  0.2290132318903920  0.6218144954983175
  0.0016605403466602  0.7685002808475455  0.1374244709559466
  0.0053173881040926  0.2710339421664880  0.8758914181981950
  0.5165230716865213  0.7425904992374761  0.3810723627991989
  0.9903413717642497  0.7293039268685022  0.6160362247994946
  0.4847894559071603  0.2678799919280533  0.1131207393591891
  0.1429551191049271  0.3828429611868039  0.0522050361738148
  0.6551078842916173  0.8774491175481425  0.5527660106628876
  0.6541555409232699  0.1213316952995459  0.9447908291063807
  0.1328288701347696  0.6272903807700798  0.4484755723433958
  0.3569798279717684  0.3570563646437016  0.9489554901832774
  0.8842735603099120  0.8838978074724979  0.4502111527993369
  0.8504167522901507  0.1074655608239163  0.0510975005919970
  0.3645715098784940  0.6286760958445307  0.5471266433520150
  0.8783545086045317  0.0852609815316400  0.1975154390826808
  0.4016816581449961  0.5923514699406516  0.7017723440477754
  0.8803877594634933  0.9314204220985048  0.3182103994246872
  0.3649620945751302  0.3871378781602711  0.8060196229767063
  0.1544040259821513  0.6329030184807719  0.2961595153508596
  0.6312097017589613  0.1072423985817464  0.7890693267246029
  0.1273200110953990  0.3992013993610364  0.2078207213400990
  0.6315341630947996  0.8784018677681816  0.7067236402154583
  0.8666168327681493  0.6325862689929840  0.9546995881282753
  0.3681853085698498  0.1378187120090781  0.4514343696219683
  0.8774514257380961  0.3826421247062304  0.5588973849079295
  0.3685763822937919  0.8669797749833987  0.0504780262012164
  0.1477373136763420  0.1116091391463817  0.5452407923797844
  0.6661273933875694  0.6237153402503012  0.0517641600731865
  0.1526735265454867  0.8728877122962793  0.9495309339972327
  0.6673114348479222  0.3574700910095556  0.4543695715231962
  0.6295603629145397  0.3878238519634195  0.2956702839171733
  0.1495838788801507  0.9010398326411939  0.7982912877607824
  0.1377465950309137  0.1188965073182177  0.6943369893326315
  0.6171286885355893  0.5945843525530558  0.2013773871573142
  0.8836421398491277  0.4194356858312678  0.6981076578103562
  0.4040190151068942  0.8954026619801464  0.2143141927048583
  0.3785273309728264  0.1071175746341479  0.3012638138433630
  0.8573724309909427  0.6003643951060590  0.8095438710615641
  0.1476340633267945  0.0715468588894530  0.0479676408235080
  0.6453045016783578  0.5481624144517416  0.5594006567538780
  0.6655203456605209  0.3981186388577825  0.9445948181490360
  0.1680275998690551  0.9226806353137742  0.4457133184707894
  0.3517136109033432  0.0768905226306637  0.9502128404395639
  0.8413798449754826  0.5760007542230096  0.4421279263163617
  0.8560889615905566  0.4051037043604631  0.0567719500817538
  0.3646656761841392  0.9200156536154444  0.5561432355887069
  0.1946238222391022  0.1128939665387115  0.1950951286281975
  0.6543728325546725  0.5804225330849951  0.6984930788812064
  0.1710269774439555  0.9180127643333066  0.3055115592453552
  0.6542043510861775  0.3799490743570653  0.7907674347151750
  0.8494429601170320  0.5913669729263689  0.2986414243260993
  0.3373213924696302  0.1051915805519013  0.8036781048665478
  0.8345777845860781  0.3891097843677309  0.2055647120410940
  0.3315422940622079  0.9039001994102139  0.6873246129079620
  0.8546530354038051  0.8986815429581386  0.9453526787248137
  0.3529866227457654  0.4338196305708059  0.4481089888394073
  0.8704964821261865  0.0615555636899381  0.5599899392250440
  0.3574667097982662  0.5747757641801394  0.0459882709897175
  0.1489167738992829  0.4256271412537905  0.5565800625496005
  0.6527593633494529  0.9185814518944659  0.0602692848624191
  0.1526654577124080  0.5740147204360733  0.9561159905015649
  0.6700923570502451  0.0718350450787167  0.4470274406158935
  0.3505944773631694  0.4052328548978124  0.2967330620983614
  0.8397313718000463  0.8888446489646770  0.8067325722747795
  0.8479612023895842  0.0980912403195062  0.7036975540809026
  0.3371748112185489  0.6000245741818927  0.1888515789946812
  0.1739397107483779  0.4218398241932423  0.7062599710559384
  0.6738805581181372  0.8957621553327235  0.2090755580403103
  0.6791236018525758  0.1214541654896582  0.3105136111568793
  0.1696188691291463  0.6133462575434314  0.8114048196197271
  0.1162699359017070  0.1503466604404023  0.3338755114812772
  0.5915263222960343  0.6657704559444042  0.8298498140728495
  0.5692527774948505  0.3373955955325216  0.6604880127260744
  0.0909284162294327  0.8893304287890854  0.1657955303752401
  0.4117182308895043  0.1435224101713589  0.6665863956980165
  0.9116922613972935  0.6907943428123720  0.1852052450317788
  0.9362878034601412  0.3217272102084667  0.3404529713706635
  0.4063802908185686  0.8360544948437789  0.8412394868100486
  0.0990372329820883  0.1805693505123541  0.9201734675682820
  0.5939296624708396  0.6632380118380082  0.4287636100550565
  0.0745538219418117  0.8352554773188412  0.5742279121898434
  0.5651276972610982  0.3389028466784004  0.0627814863381687
  0.9071932639209104  0.6582079591614369  0.5667503792312891
  0.3929459226693607  0.1644723514890918  0.0803881802863387
  0.9332650511265986  0.3677248304902792  0.9195883017094120
  0.4590336606238877  0.8755852429975310  0.4180610885033503
  0.9080002591663248  0.7983652696712801  0.6663131423157528
  0.3957464995373449  0.3672724635403587  0.1508586550965289
  0.9056811997780183  0.1831146937457427  0.8398340504477100
  0.4008174563851038  0.6705868506533363  0.3488186387149673
  0.0978525428755926  0.3569971603055391  0.8256227862628526
  0.5942353616147541  0.8156693526986587  0.3189040168383243
  0.0985862701497702  0.6415852803052553  0.6494949925206972
  0.5870605461479050  0.2169232502545556  0.1619534103996392
  0.4250642057974781  0.3155403213074455  0.5677674911358402
  0.9029385663052780  0.8352262367288591  0.0845885928783608
  0.9597350545819765  0.1774810625835603  0.4391012146053861
  0.4419657086187127  0.6698200143623823  0.9303845008673300
  0.1244978946442557  0.3504549614333927  0.4160864408623282
  0.6028326312037391  0.8603695532878707  0.9093534791807660
  0.6011441295522735  0.1371944906916374  0.5907660772763761
  0.0803169710307663  0.6623775723782327  0.1007660575605772
 
 -0.29278003E-02  0.30482609E-02 -0.37299958E-02
  0.19665798E-02  0.22075396E-02 -0.59064881E-03
  0.30027111E-03  0.88120163E-02  0.12280273E-02
  0.35394258E-02  0.48435266E-02 -0.21756714E-02
 -0.39714842E-02 -0.12401151E-02 -0.69020639E-03
  0.31081591E-03  0.14923749E-02  0.23133328E-02
 -0.34485202E-02 -0.22572279E-02  0.25042353E-02
  0.93252327E-02 -0.40523854E-02 -0.45689710E-02
  0.30060565E-02 -0.48600119E-02  0.68418202E-02
  0.41884618E-02 -0.56596646E-02 -0.12894282E-02
 -0.18062411E-02  0.57619997E-02 -0.40384773E-02
  0.85465847E-02  0.38730515E-03 -0.11470589E-02
  0.16333229E-02  0.40216616E-02 -0.75723035E-02
 -0.30994004E-02  0.73400872E-03  0.97222667E-03
 -0.66391514E-02 -0.37843188E-02  0.62388024E-02
 -0.15849235E-03 -0.25340190E-02  0.47753805E-02
  0.78898038E-02  0.11383338E-02 -0.92254168E-02
 -0.11943482E-01  0.26700178E-02  0.24703764E-02
 -0.60517858E-02 -0.22903617E-03  0.73401488E-03
 -0.10131176E-01 -0.40464218E-02  0.28420948E-02
  0.51918804E-02  0.11669626E-01 -0.46357298E-02
  0.38079674E-02 -0.67997242E-02  0.63311955E-02
  0.16756905E-02  0.32407449E-02  0.55321870E-02
  0.66137607E-03 -0.78366312E-02  0.23362176E-02
  0.40151526E-02 -0.40256211E-02 -0.58045864E-03
 -0.45653060E-02  0.77109376E-03 -0.89918548E-03
  0.48412175E-04 -0.25253755E-02  0.79345420E-03
 -0.90284716E-02 -0.29510879E-02  0.27270325E-02
 -0.16137938E-02 -0.26381683E-02  0.89504270E-02
 -0.28905764E-02 -0.62969330E-02  0.12226373E-03
  0.51162585E-02 -0.73084876E-02  0.25346456E-02
 -0.18722043E-02  0.19022761E-02 -0.39490523E-02
  0.25403325E-02 -0.16328855E-02 -0.24337586E-03
  0.43014884E-02  0.32327247E-02  0.58693854E-02
 -0.66407940E-02 -0.33773709E-02  0.50333131E-02
 -0.37730987E-02 -0.70336093E-02 -0.21023823E-02
 -0.25098831E-02  0.60470852E-02  0.50593821E-02
  0.35057943E-03  0.86612492E-03 -0.91274714E-02
 -0.18812205E-02  0.14440616E-02  0.58243129E-02
  0.52876607E-02 -0.19189123E-02  0.58184676E-02
 -0.65917638E-02  0.51476383E-02  0.35809689E-02
 -0.47325338E-02 -0.25621277E-02  0.40898540E-02
 -0.39798199E-02  0.20259865E-02 -0.19878713E-02
  0.56503134E-02 -0.14693827E-02 -0.40499173E-02
  0.22744105E-04  0.57065832E-02 -0.38823303E-02
 -0.52157757E-02  0.53447213E-02 -0.39507409E-02
  0.43136731E-03  0.67925798E-02  0.14300287E-02
 -0.32530561E-02 -0.37332950E-02  0.86944197E-03
  0.43337080E-02 -0.35822359E-02  0.11037017E-02
 -0.70020346E-03 -0.36765519E-02 -0.69588608E-03
  0.17101629E-02 -0.18522453E-02  0.66400163E-03
 -0.66361423E-03 -0.84270157E-02 -0.43450836E-02
  0.12609908E-02 -0.40811911E-02  0.54476043E-02
 -0.41604481E-02  0.19454443E-02  0.10650107E-01
 -0.92920118E-03  0.15339531E-02  0.24504138E-02
  0.17629918E-02  0.91013752E-03 -0.11780833E-02
 -0.38902174E-02  0.44597732E-02  0.57629347E-02
 -0.12398809E-02 -0.31698941E-02 -0.74808070E-02
 -0.10304842E-02  0.17640935E-02 -0.20461034E-03
  0.51429224E-02  0.39960075E-02  0.51232781E-03
 -0.76591893E-02 -0.45808021E-02  0.65548407E-02
 -0.23207463E-02 -0.54178174E-03  0.40489552E-02
 -0.14843563E-02  0.53687218E-02  0.33837946E-02
  0.37535007E-02 -0.20716925E-02 -0.48354682E-03
 -0.81564646E-02  0.90487054E-02  0.71520076E-02
  0.49667547E-02  0.18856758E-03  0.84731198E-03
 -0.60657346E-02 -0.41331127E-03 -0.48917897E-02
  0.17921201E-02  0.23175228E-02 -0.29508104E-02
  0.20206318E-02 -0.17599779E-02  0.11233085E-02
 -0.18461462E-02 -0.42729241E-02  0.54368501E-03
  0.10529979E-02 -0.33293387E-02 -0.36156935E-02
 -0.71699623E-03 -0.15306431E-02  0.21007793E-02
 -0.14802412E-02  0.73091611E-03  0.93543707E-03
  0.74125760E-02  0.80332408E-03  0.28875801E-05
  0.36312599E-02 -0.39565989E-02  0.56015591E-02
  0.52908040E-03 -0.77151160E-02 -0.10419838E-01
 -0.97249977E-03 -0.17248230E-02  0.39954170E-02
  0.63017578E-03  0.53793393E-02 -0.38000760E-02
 -0.50817386E-02  0.88460699E-02 -0.67366308E-02
  0.37229286E-02 -0.28156339E-02 -0.63312273E-02
 -0.26070221E-02 -0.36005897E-02  0.44016830E-02
 -0.25085209E-02 -0.13587442E-02  0.46152302E-02
 -0.70551581E-02  0.13261975E-02 -0.50724328E-02
  0.10708004E-02  0.18710616E-02 -0.43667207E-02
  0.31100296E-02 -0.16986242E-03 -0.52543364E-02
 -0.50939267E-02  0.25604399E-03 -0.28658765E-02
 -0.10934266E-01  0.65132697E-02 -0.11121568E-01
 -0.36164872E-02 -0.21359095E-02  0.71092256E-02
  0.21011688E-02 -0.15712867E-02 -0.13403518E-02
  0.12526537E-02  0.64994621E-03  0.33634983E-02
  0.38843043E-02  0.11065730E-02 -0.78618699E-03
  0.75716719E-03  0.30170539E-02  0.44362258E-03
  0.53710284E-02  0.24428883E-02 -0.10616794E-02
 -0.45051998E-03  0.95045415E-03 -0.27043907E-02
  0.81817435E-03  0.25025892E-03  0.51047154E-03
 -0.18003082E-02 -0.37755707E-02  0.34365308E-02
  0.22469622E-02 -0.31116104E-02 -0.27796186E-03
  0.75960678E-03 -0.34553683E-02  0.11079558E-02
 -0.32421272E-03 -0.13129976E-02 -0.34664033E-02
 -0.45879676E-02 -0.23806777E-03  0.12911078E-02
 -0.90039802E-03  0.70437833E-03  0.31412954E-02
  0.33106075E-02  0.70390357E-03  0.24459329E-02
  0.14938542E-02 -0.15849379E-02  0.64831430E-03
  0.36359797E-04 -0.31333767E-02 -0.15798165E-02
 -0.50160187E-02  0.22897678E-02 -0.20267553E-02
  0.56169210E-03 -0.17200871E-02  0.38988208E-03
  0.87236521E-04  0.11685494E-02 -0.11756215E-02
 -0.80177055E-02 -0.26853601E-02  0.14537193E-02
  0.33695196E-02 -0.10392193E-02  0.32467743E-02
 -0.28177663E-02 -0.69861186E-03 -0.23820179E-03
  0.94635744E-03  0.45193015E-02  0.83827949E-03
 -0.22385254E-02  0.33956195E-02 -0.38625316E-02
 -0.47953040E-02  0.57391155E-02 -0.11276661E-02
  0.19707408E-02 -0.13593809E-02 -0.14015653E-02
 -0.24743992E-02 -0.29022106E-02 -0.81317712E-02
  0.11760214E-02  0.43555931E-03 -0.10098490E-01
 -0.57378178E-04  0.50172337E-02 -0.37086367E-02
  0.51288765E-02 -0.35012260E-02 -0.95486858E-03
  0.40834737E-02  0.47129133E-02 -0.91223169E-03
 -0.40082715E-02  0.23740957E-03 -0.12219830E-02
  0.12089708E-02  0.29404796E-02  0.34231121E-02
  0.12158515E-02 -0.52430646E-02 -0.37884906E-02
  0.29228530E-02  0.25780258E-02 -0.67302999E-02
  0.26638141E-02 -0.33904995E-03  0.83406602E-02
  0.51149497E-02  0.22620688E-02 -0.38804200E-02
 -0.34415214E-02  0.12469226E-02  0.28569527E-02
 -0.12232925E-03  0.52065658E-03  0.17577600E-02
  0.19618111E-02  0.66475196E-02  0.17104933E-02
 -0.45503597E-02 -0.51064052E-02  0.11766006E-02
  0.11576950E-01  0.28892923E-02 -0.36306619E-03
 -0.22172776E-03  0.68857727E-03  0.42800343E-02
 -0.57045811E-02  0.57463663E-02 -0.47293029E-02
 -0.12723744E-02 -0.51851676E-02 -0.16920298E-02
 -0.60537400E-02  0.99359224E-03  0.34259161E-02
  0.19073582E-02  0.28336029E-02 -0.51863435E-02
 -0.29816255E-02 -0.26930232E-02  0.26954582E-02
  0.64844131E-02  0.51249478E-03  0.44559078E-02
 -0.40494094E-02  0.56248850E-02 -0.10167691E-02
 -0.64060773E-02 -0.61335197E-02 -0.68515278E-02
  0.65469756E-02  0.46300682E-04  0.34023737E-03
 -0.39081487E-03 -0.33969650E-02 -0.41961075E-02
 -0.80128535E-02  0.19620183E-02  0.59537675E-02
 -0.15702636E-02 -0.34382803E-03 -0.19574315E-02
 -0.38134723E-02 -0.12428486E-02 -0.21882561E-02
  0.39602907E-02  0.14544217E-02  0.55938006E-02
  0.71445353E-02 -0.23447044E-03  0.10845826E-01
  0.37914781E-02  0.51367326E-03  0.33180041E-02
  0.56907983E-03  0.75074268E-03  0.80148436E-02
 -0.31033466E-02 -0.14857251E-02 -0.16767330E-03
  0.56162449E-03  0.18222025E-02  0.33622677E-02
 -0.39728002E-03  0.93343669E-02 -0.41544170E-02
 -0.59983922E-03 -0.46289802E-02 -0.26240345E-02
 -0.35596523E-02 -0.22510261E-02  0.41456305E-02
 -0.91725999E-03 -0.15080160E-02  0.16300275E-04
 -0.33961466E-03 -0.62696693E-03 -0.72766872E-03
 -0.27790584E-03  0.63654866E-02 -0.33077757E-02
 -0.10175004E-02 -0.13217738E-02 -0.72581030E-03
 -0.21949100E-02 -0.19452299E-02 -0.36389713E-02
 -0.10979447E-02  0.47564882E-02 -0.60454460E-02
 -0.67848378E-02  0.86023433E-03  0.52962546E-02
 -0.15439224E-03 -0.22719179E-02 -0.10008656E-02
  0.64850289E-02 -0.32191577E-02 -0.30401810E-02
  0.53286396E-02 -0.11076172E-02  0.42702752E-02
 -0.29429804E-02 -0.58824400E-02 -0.97003633E-05
 -0.21689644E-02  0.21217729E-02 -0.81107012E-03
 -0.20007790E-02  0.39525516E-02  0.27161980E-02
  0.23815669E-02  0.16530273E-02 -0.18357247E-02
 -0.50993528E-02 -0.44300760E-02 -0.47273031E-02
 -0.44517401E-02 -0.13802004E-02 -0.13393425E-02
 -0.16994471E-02 -0.23866289E-02 -0.41246051E-02
 -0.64491333E-02  0.34414888E-04  0.30456355E-02
 -0.29986875E-03  0.81383476E-03 -0.13914509E-02
  0.28414972E-02 -0.68779079E-02  0.10092377E-01
 -0.22933878E-02 -0.77544187E-02  0.43752964E-02
 -0.90090226E-03 -0.10745232E-01  0.28279383E-02
  0.48193951E-03  0.27745865E-02  0.19474372E-02
 -0.61029276E-02  0.39694695E-02  0.12235708E-02
 -0.27145034E-02 -0.33807987E-02 -0.24058267E-02
  0.21174840E-02 -0.50532226E-02 -0.37166094E-02
  0.52813989E-02 -0.29742048E-02 -0.19189467E-02
 -0.28473129E-03  0.37644081E-03  0.61985425E-03
 -0.28489069E-02  0.19117987E-02 -0.11392474E-01
  0.69563938E-03  0.24115894E-02 -0.61636872E-03
  0.83904746E-02  0.72095541E-02 -0.74852828E-03
  0.11247594E-02 -0.39876281E-02 -0.57590816E-02
 -0.29691861E-02  0.52399976E-02  0.57455094E-02
  0.64943110E-02 -0.28559318E-02 -0.36949541E-02
  0.25114092E-02  0.45048319E-02 -0.34241604E-02
  0.60737814E-02  0.44421493E-02 -0.25566055E-02
  0.54255508E-03 -0.20648080E-02  0.94361110E-03
 -0.12732591E-03  0.95880387E-02 -0.43399538E-02
  0.15404819E-02  0.30841443E-02  0.48958641E-03
  0.61181067E-02 -0.20883178E-02  0.61946307E-03
 -0.19381802E-02  0.15974789E-02 -0.21495427E-02
 -0.27534673E-02  0.13835765E-03  0.88676857E-03
 -0.32859489E-02  0.94270827E-02 -0.18356155E-03
 -0.57659771E-02  0.17819482E-02 -0.67924631E-03
  0.19783802E-02 -0.81689111E-02 -0.49580953E-02
  0.10105542E-02 -0.88303390E-03 -0.75458231E-02
  0.21378092E-02  0.26811024E-02 -0.37636202E-02
 -0.26558982E-02  0.58884756E-02  0.10494377E-01
  0.28546311E-02 -0.57669944E-04  0.58926482E-02
  0.89333692E-03  0.33257308E-02 -0.22562091E-02
 -0.31350059E-02  0.16179779E-02 -0.21767691E-02
 -0.81494959E-03  0.42361567E-02 -0.67233421E-02
  0.28607023E-02 -0.52347697E-02  0.34061993E-02
  0.54030020E-02  0.42837217E-02  0.23086138E-03
  0.34011125E-02 -0.54945173E-03  0.45407501E-02
 
           1
   2.00000000000000     
  0.10863703E+01  0.23233175E-02  0.00000000E+00  0.00000000E+00
  0.99645295E+00  0.25766781E-01  0.10710973E+00
  0.50611637E+00  0.50998659E+00  0.62152215E+00
  0.53099972E+00  0.50359902E+00  0.77298865E+00
  0.41069252E-01  0.98835980E+00  0.37627033E+00
  0.21175787E+00  0.17232065E-01  0.87360695E+00
  0.34656408E-02  0.54714380E+00  0.37492029E+00
  0.95677189E+00  0.50766936E+00  0.14429995E+00
  0.23328075E+00  0.24921219E+00  0.11706287E+00
  0.74057710E+00  0.36830092E-01  0.63019024E+00
  0.75693199E+00  0.25242894E+00  0.88414351E+00
  0.75570841E+00  0.49849551E+00  0.37226882E+00
  0.27514611E+00  0.24958736E+00  0.87463928E+00
  0.69237854E+00  0.54685506E-01  0.12370545E+00
  0.25682561E+00  0.74172615E+00  0.60096063E+00
  0.98487126E+00  0.15717855E-01  0.80265402E+00
  0.26019446E+00  0.52520987E+00  0.36776004E+00
  0.83283190E-02  0.99815487E+00  0.65014194E+00
  0.90704077E-02  0.46863943E+00  0.61646323E+00
  0.33879081E+00  0.99705118E+00  0.13506314E+00
  0.17883308E-01  0.54044888E+00  0.87637239E+00
  0.51598141E+00  0.12602906E-01  0.35079203E+00
  0.30138658E+00  0.25821299E+00  0.36588261E+00
  0.76177179E+00  0.74051324E+00  0.88795693E+00
  0.73213482E+00  0.42154372E+00  0.63825917E+00
  0.26267787E+00  0.71817078E+00  0.19339060E-02
  0.25103405E+00  0.23658403E+00  0.60813458E+00
  0.71768563E+00  0.43264128E+00  0.12245206E+00
  0.78585077E+00  0.18090977E+00  0.38187050E+00
  0.50937533E+00  0.76111203E+00  0.49700309E+00
  0.49964143E+00  0.23621256E+00  0.98815312E+00
  0.32434271E-02  0.45774396E+00  0.48723204E+00
  0.49733882E+00  0.97544877E+00  0.74865113E+00
  0.19728498E-01  0.73928353E+00  0.27176276E+00
  0.48835687E+00  0.25272965E+00  0.75482716E+00
  0.88079524E-02  0.71703654E-02  0.98322902E+00
  0.53317169E+00  0.21681194E+00  0.49436099E+00
  0.52546721E+00  0.74368538E+00  0.28887131E-01
  0.27469348E+00  0.25375192E+00  0.24467385E+00
  0.60415517E-01  0.78762612E+00  0.73108410E+00
  0.53863041E+00  0.75101671E+00  0.23082513E+00
  0.29871455E-01  0.99424338E+00  0.25425793E+00
  0.51565804E+00  0.72807667E+00  0.73113375E+00
  0.49594137E+00  0.26378005E-01  0.87659404E+00
  0.98180973E+00  0.48509448E+00  0.26326637E+00
  0.23516520E+00  0.22249116E+00  0.12498004E-02
  0.76407902E+00  0.74407299E+00  0.49991500E+00
  0.28947664E-01  0.77128285E+00  0.49006472E+00
  0.74102923E+00  0.25454605E+00  0.11270680E-01
  0.95473765E+00  0.24821668E+00  0.74607653E+00
  0.49814517E+00  0.44365199E+00  0.23872199E+00
  0.19050996E-01  0.53147291E+00  0.74888128E+00
  0.53740064E+00  0.40840577E-01  0.23643704E+00
  0.26073800E+00  0.29104955E+00  0.48913860E+00
  0.77100679E+00  0.77669251E+00  0.25213653E-01
  0.76295362E+00  0.24052452E+00  0.51644949E+00
  0.24691310E-01  0.74727115E+00  0.98978621E+00
  0.97126830E+00  0.25773538E+00  0.37471596E-02
  0.49928329E+00  0.50405842E+00  0.50117945E+00
  0.53780724E+00  0.50160325E+00  0.12605768E-02
  0.14016355E-01  0.10374214E-01  0.49557045E+00
  0.50558812E+00  0.13249282E-01  0.12521619E-01
  0.49208252E-02  0.23389445E+00  0.53031507E+00
  0.14040093E-01  0.52353865E+00  0.11993100E-01
  0.51225851E+00  0.97801854E+00  0.49432564E+00
  0.39539935E-02  0.23249351E+00  0.25096517E+00
  0.75400813E+00  0.73571125E+00  0.75171862E+00
  0.30567039E+00  0.77049238E+00  0.27436378E+00
  0.69780429E+00  0.22476577E+00  0.71719161E+00
  0.75215209E+00  0.73976165E+00  0.27232035E+00
  0.26848942E+00  0.24339245E+00  0.74846151E+00
  0.72550788E+00  0.23882838E+00  0.24209099E+00
  0.28075789E+00  0.74992303E+00  0.75579909E+00
  0.21118784E+00  0.49394246E+00  0.12688020E+00
  0.49484994E+00  0.97347374E+00  0.62185998E+00
  0.77626408E+00  0.24743031E-01  0.87329111E+00
  0.28007617E+00  0.76478410E+00  0.45147437E+00
  0.33797869E+00  0.51491982E+00  0.88668137E+00
  0.73245227E+00  0.90852412E+00  0.37900479E+00
  0.73748504E+00  0.76609901E+00  0.13168873E+00
  0.27230962E+00  0.48367073E+00  0.63524857E+00
  0.74045028E+00  0.50124083E+00  0.87215344E+00
  0.28267905E+00  0.94546498E-02  0.36709789E+00
  0.72633064E+00  0.72089978E+00  0.62597204E+00
  0.24677241E+00  0.75860055E+00  0.13205699E+00
  0.22876614E+00  0.97483482E+00  0.61745533E+00
  0.47603157E+00  0.52753706E+00  0.11415997E+00
  0.24121665E+00  0.74019057E+00  0.87586975E+00
  0.49192925E+00  0.45041052E+00  0.36805899E+00
  0.28038276E+00  0.99916037E+00  0.24475944E+00
  0.76377846E+00  0.49366882E+00  0.75502080E+00
  0.24404969E+00  0.13381306E-01  0.74831636E+00
  0.73232126E+00  0.50227602E+00  0.24822068E+00
  0.25798314E+00  0.97049257E+00  0.99979129E+00
  0.76819858E+00  0.47117759E+00  0.50127649E+00
  0.26569846E+00  0.24827746E-01  0.49659185E+00
  0.77085612E+00  0.50753465E+00  0.98812648E+00
  0.74468896E+00  0.99131998E+00  0.74968305E+00
  0.24308636E+00  0.50621284E+00  0.24462847E+00
  0.27722187E+00  0.50397523E+00  0.75834956E+00
  0.77512248E+00  0.71638973E-02  0.25986244E+00
  0.24799716E+00  0.52415678E+00  0.50212014E+00
  0.75911397E+00  0.10937392E-01  0.99463750E+00
  0.77061658E+00  0.97195319E+00  0.49982563E+00
  0.25969434E+00  0.46507854E+00  0.37465576E-04
  0.35292295E-01  0.24779318E+00  0.38534155E+00
  0.51049967E+00  0.76299178E+00  0.87677607E+00
  0.49939945E+00  0.22918659E+00  0.62172729E+00
  0.47108741E-03  0.76810190E+00  0.13753230E+00
  0.58172674E-02  0.27087977E+00  0.87613225E+00
  0.51610505E+00  0.74248686E+00  0.38105469E+00
  0.99048177E+00  0.72997438E+00  0.61609841E+00
  0.48445736E+00  0.26838374E+00  0.11283423E+00
  0.14224372E+00  0.38369438E+00  0.52121390E-01
  0.65540025E+00  0.87724745E+00  0.55266205E+00
  0.65378846E+00  0.12090114E+00  0.94418764E+00
  0.13300334E+00  0.62735500E+00  0.44772650E+00
  0.35697132E+00  0.35780069E+00  0.94868040E+00
  0.88503445E+00  0.88337839E+00  0.45014032E+00
  0.85102255E+00  0.10816474E+00  0.51029834E-01
  0.36397687E+00  0.62871132E+00  0.54703600E+00
  0.87853386E+00  0.85697211E-01  0.19776935E+00
  0.40186203E+00  0.59157364E+00  0.70149133E+00
  0.88082137E+00  0.93180288E+00  0.31771117E+00
  0.36535728E+00  0.38708758E+00  0.80663831E+00
  0.15516285E+00  0.63323860E+00  0.29587168E+00
  0.63069914E+00  0.10742738E+00  0.78928125E+00
  0.12730186E+00  0.39927864E+00  0.20795111E+00
  0.63182520E+00  0.87938805E+00  0.70685052E+00
  0.86594177E+00  0.63182872E+00  0.95478686E+00
  0.36990279E+00  0.13824735E+00  0.45140744E+00
  0.87741853E+00  0.38274428E+00  0.55921486E+00
  0.36773009E+00  0.86783227E+00  0.50127222E-01
  0.14754855E+00  0.11083990E+00  0.54511528E+00
  0.66522930E+00  0.62386274E+00  0.52018283E-01
  0.15295649E+00  0.87330809E+00  0.94914623E+00
  0.66686910E+00  0.35707057E+00  0.45456951E+00