Na88 Sn16 P8 Se96                       
   1.00000000000000     
    14.0793397336999995    0.0000000000000000    0.0000000000000000
     0.0000000000000000   14.0793397336999995    0.0000000000000000
     0.0000000000000000    0.0000000000000000   28.1586794673000007
   Na   Sn   P    Se
    88    16     8    96
Direct
  0.9112247899053448  0.0064826499029519  0.1118081519003513
  0.1710207984924995  0.7867891171047213  0.7288420404118362
  0.0345203859457117  0.5159546290569728  0.8718187366751138
  0.0212788616648386  0.7939328551615624  0.4892138328117939
  0.0007918220030185  0.0146316611740238  0.8857969110397005
  0.9946550502338879  0.5246294657032683  0.3795761281057500
  0.5010565718260623  0.7413087464326801  0.2381442688379487
  0.2585273279920300  0.2419066982688127  0.8742867750839242
  0.7783074062909268  0.7176427587980094  0.6195040052675308
  0.7444789373974395  0.0523282394913925  0.8712454308853137
  0.6791825929520557  0.2112296753452163  0.3915795286362260
  0.9674938172925055  0.2543583732931106  0.9993322142555934
  0.6464720870017453  0.4081771617301979  0.1449645958051685
  0.2600317437995048  0.7526068017764220  0.9659053525487244
  0.5033491079166584  0.0714272586379519  0.8607295500408297
  0.0212742648718590  0.4696935719212817  0.5115450830450120
  0.2397076116553179  0.0077748385454868  0.6270395070155910
  0.9941298382389836  0.2894301300154124  0.7402453853216253
  0.2804112444316744  0.9663296853281965  0.1264956492852850
  0.2954571588630927  0.2657055158759054  0.9932131979809877
  0.4988085282546058  0.0107853726964861  0.5232863154614459
  0.2479972206983027  0.0073319046938453  0.3674795867738005
  0.7082169356054747  0.7775582070323166  0.9738249967409172
  0.7863025215207702  0.4817640053366862  0.3863135708289805
  0.2354527622837912  0.4747643534904765  0.3713836065146196
  0.2888289485042473  0.5439328064932951  0.6177618126943621
  0.1240717428645645  0.7463509276032343  0.2273769025693309
  0.7648431847297420  0.7201096248199692  0.3757378119097494
  0.5259615589934177  0.4927804760707638  0.5033797369970273
  0.4885259743720233  0.7924828060690020  0.0052200987213009
  0.2296225532806987  0.7365367415430238  0.3648525720246787
  0.7698333443626162  0.7491459708793008  0.8638923956195513
  0.7447585122765503  0.7057614743032833  0.1100546480867438
  0.7395539041653647  0.4391310257233944  0.6154070799932587
  0.6839041239858932  0.2535020865335917  0.0079388284259498
  0.4951149699451174  0.2307921902621225  0.4784588197764271
  0.5099908743164963  0.5045531124892469  0.8769672442762345
  0.1807654220268622  0.2209620058828703  0.1190668352277350
  0.2691027889374134  0.7516989452055090  0.8649746645590060
  0.9034967834547015  0.8602461841656566  0.1930543990868282
  0.0342292987458267  0.0030691804682477  0.2674633806453379
  0.4752365142704218  0.2802381267484556  0.7741094075936708
  0.5203466649464312  0.8050330318755347  0.7375065806504824
  0.9766909003729195  0.5237117428963437  0.2395367197899484
  0.9858508745350689  0.7173593544669802  0.9938244858745402
  0.2669539194246505  0.7984523233413382  0.4795024460503933
  0.7540453794830139  0.7207934292300567  0.4963698033013554
  0.4697436933741174  0.0602708292352764  0.0155718108056092
  0.9999188970755983  0.0513450716225956  0.7547024466833654
  0.2274210047514673  0.2409163407919652  0.2634825069212636
  0.8189246737401601  0.7625597213470421  0.7487882760204827
  0.5250606825466437  0.0501846237738314  0.1979882855895413
  0.2510351789771421  0.2820110349101418  0.4866939054208376
  0.7374402298524243  0.7250656315637940  0.2480732471588400
  0.7142383649894418  0.3076144673677677  0.6998487087947067
  0.1941127383640570  0.5197506287310939  0.1282688603044369
  0.9874869358083660  0.9833259732301614  0.0124584295011383
  0.5075565178089319  0.7408659576583363  0.4914261082224950
  0.2725057338456281  0.5057367753562165  0.8704807963360078
  0.7416187008901531  0.1915591771797059  0.4884907314927467
  0.4933152186063472  0.5219345235288171  0.0004118639115516
  0.0022667759308845  0.5013563565894401  0.6023895767868587
  0.0158505575132121  0.5140201228954639  0.0052435699220364
  0.7914078131326276  0.9817395222955896  0.6314266402442121
  0.0021001197974800  0.2227657069874402  0.2438423463867154
  0.7675697678323770  0.4967777669035426  0.8654731893268831
  0.5017259661572258  0.0321403389705939  0.3798939411481941
  0.5103726522080453  0.0421523873809908  0.6946505914798556
  0.4747934013543937  0.2669760405919126  0.2633083574090883
  0.5252457706967284  0.5500596286936114  0.7562449232505304
  0.7588881639570163  0.2594860723515729  0.2437140338579026
  0.3010481875000983  0.7565386727282394  0.1195821054714475
  0.9162329808479830  0.4797849007737018  0.1220377149052876
  0.0507697657338328  0.0493277623465608  0.6188483166064783
  0.2868813418350726  0.9952656993339513  0.8681928905758186
  0.4784498412459359  0.5114764638247740  0.2593235159622291
  0.0206611651877461  0.5511763563728791  0.7430870268803565
  0.7168241246084845  0.9722405586813189  0.3724523927306863
  0.6696586950283250  0.0479942964152324  0.1219344159529321
  0.3000551487165702  0.7504292352369520  0.6236256715583330
  0.7682892970367713  0.2720696592756920  0.8693775617503808
  0.9801600727902925  0.9988633050473850  0.3965564627234477
  0.5137608291532584  0.5373183896533196  0.6204476259808330
  0.4940581164298541  0.4378389450674700  0.3728960364531522
  0.2718834139299079  0.2582704989340071  0.6126807650582901
  0.4137087415048664  0.5205117797070785  0.1112707116960934
  0.2460073878392999  0.2807210321501901  0.7515194808991129
  0.9948845682503009  0.2183977479089806  0.5051845887717622
  0.2896600044875062  0.9732316284255467  0.2403008445297179
  0.7533863812857308  0.5159000403687410  0.7401935984305106
  0.2549646838298864  0.0283695340255116  0.7454214845899421
  0.7405239643688459  0.4868926376799543  0.2517701515037470
  0.2166825662749439  0.0024052002240600  0.9908777995472235
  0.7696305674987827  0.4464227893120869  0.5054545573518436
  0.2361371249497355  0.0316573539370890  0.4876738026687543
  0.7208536283059572  0.5432851824103911  0.9936280268439652
  0.7616694396397639  0.0477797116610382  0.7484939643809150
  0.2293616648154213  0.4899671545514003  0.2496658012511346
  0.2584836356392256  0.5386731405222229  0.7467510838095363
  0.7672803615916385  0.9884898698196346  0.2534684483644141
  0.2827599975478820  0.5391179959424538  0.4863420457983606
  0.7353216662929571  0.0096984136581149  0.9946297833155447
  0.7606010019297403  0.9545617455698577  0.5096662009884734
  0.2549207733025510  0.4997027837848058  0.9869359014879268
  0.9757026546657123  0.2744770807878470  0.3674200993588098
  0.5147200574183723  0.7893214391666296  0.8593869343575966
  0.5164298319410048  0.2704724112653379  0.6064207749993966
  0.9989172774321682  0.7429981351501777  0.1171521737818518
  0.0168865146973825  0.2821371486404454  0.8774262050541660
  0.4998897498982289  0.7248564251626117  0.3785123683975116
  0.0311414328481823  0.7775631702981470  0.6190677381609512
  0.4533598275138607  0.2636759913065587  0.1226495435198784
  0.1753543319204023  0.4022737642975892  0.0486768990520642
  0.6493351655636421  0.8589246650887463  0.5587227256576932
  0.6273036894057308  0.1220543561555498  0.9534288585554708
  0.1502490807002454  0.6352914992381088  0.4490222046357482
  0.3689762573159021  0.3877089957930979  0.9283652125649372
  0.8490038030349788  0.8721648282232091  0.4449089471192512
  0.8179324426672200  0.1294826797522034  0.0544671264619248
  0.3607392497304285  0.6517693191813279  0.5409957217237710
  0.8723486278951760  0.0736324418912590  0.1963536481090587
  0.3898541755070076  0.6530068875738834  0.6947076678634001
  0.8672732409475362  0.8740449493741823  0.3038927170642536
  0.3755857311914656  0.4384516068171720  0.7958969560863468
  0.1314231248314541  0.6014733102992089  0.3013205169988440
  0.6507078908877614  0.1693761294978658  0.7998724273639797
  0.1284181598862509  0.3765054133727481  0.1986669984961144
  0.6685793336576705  0.9231427954153287  0.7034943938070845
  0.8607403892126611  0.6234321758512116  0.9527644739415656
  0.3418545898815958  0.1107128172269509  0.4290219711764361
  0.8801545170797781  0.3682660925051336  0.5543398074177625
  0.3345243024953116  0.8904789071723084  0.0356278426252303
  0.1671643494384623  0.1424713944459110  0.5532085364658009
  0.6212840394048582  0.6513284795594695  0.0385949279389399
  0.1309544175047038  0.8940122028601647  0.9332456290347968
  0.6604719129554335  0.3713956800742230  0.4467834193095744
  0.6330633208782446  0.3751760787708474  0.2980321384768830
  0.1411896254988753  0.9446804863007171  0.7978699472698666
  0.1679700786198606  0.1353200058336117  0.6885555130872598
  0.6306523886366281  0.5995778384500150  0.1988089453785202
  0.8672710016883394  0.4519191922585186  0.6859162249462286
  0.4117611966633469  0.8740116222053297  0.1810180854457935
  0.3913186528607054  0.0795387321883884  0.2906454354459175
  0.8692771788473619  0.6053696550984403  0.8006993801324371
  0.1264962920496854  0.0969998544211812  0.0501841637477912
  0.6663811190737707  0.5652987451078981  0.5564767298077239
  0.6318849465422166  0.4090254697952462  0.9419933440685220
  0.1371834811791235  0.9231136343271121  0.4451676105995412
  0.3406714624915030  0.0840265696812169  0.9415349737698123
  0.8760685623793047  0.5615888326271681  0.4588655992790889
  0.8304608227937752  0.4195664283967609  0.0312231089354518
  0.3488475187006179  0.9185719470127663  0.5498133115734490
  0.1721947246812371  0.0670957960775257  0.1943909493915257
  0.6506762048453338  0.6114942707827594  0.6832810099306085
  0.1757249171211384  0.8865560430010001  0.2923519333858063
  0.6661407587125574  0.3907275084907208  0.7847758755062753
  0.8499609421030914  0.5964736395506326  0.2973801768681626
  0.3487216947514592  0.1262768768749074  0.7958404104736169
  0.8480682803834626  0.4006541719335057  0.1922123846015741
  0.3304931370698511  0.8980711626445625  0.7031649937319852
  0.8486407073298200  0.9084674267629259  0.9433004317768423
  0.3546088408388558  0.4155990548841875  0.4389725144269240
  0.8694339239786998  0.0560421668301992  0.5516512005537740
  0.3292957591605403  0.6137925012901483  0.0361338589319266
  0.1886447601598210  0.4198725688557133  0.5479414117915861
  0.6245076475428032  0.9242843121788060  0.0454759911243364
  0.1397059952442573  0.5917763433062599  0.9407113310878157
  0.6227816277596449  0.0518886586431843  0.4565168070544663
  0.3449316631784785  0.3897517742444834  0.3018013446474117
  0.8565494963235299  0.9468785885539484  0.8004348711457793
  0.8670424994320359  0.1422782515449594  0.6901066818963064
  0.3122700125380840  0.5996781845382670  0.1939717375422506
  0.1848964533445479  0.4115549166208987  0.6918771778533614
  0.6554891938080615  0.8938571911093867  0.1993943144876309
  0.6738793186153668  0.1089515580243904  0.3027989255586288
  0.1706005618477652  0.6306417181788098  0.8057139467977241
  0.0818266486201855  0.1693538916969013  0.3369442971467113
  0.6083921276262383  0.6813693735408337  0.8219240786223623
  0.5020795609780669  0.3279163023541675  0.6816581745267818
  0.0902972833533846  0.8684879690725165  0.1495765057478542
  0.4411068682387762  0.1301308018876803  0.6040701517733004
  0.9126526963241260  0.6680496146328960  0.1739307382432813
  0.8813651688488660  0.3335375667132299  0.3162698981883542
  0.4063596984897516  0.8511842835448777  0.8129117741204701
  0.1135582161884322  0.3697889346328966  0.8324254069032211
  0.5913709956138564  0.6274809963578367  0.4208362141385447
  0.1194060762017747  0.8668148261618925  0.5786804253257446
  0.5200461646107510  0.3471515956437325  0.0616195175714348
  0.9441610139114277  0.6664914336942080  0.5692363114447059
  0.4072885180780887  0.1181928266116962  0.1054052519193430
  0.9345664599277146  0.1848523605376182  0.8276055140121461
  0.4167840085523103  0.8424201887200803  0.4185368978365451
  0.9335740796447406  0.8555352188296010  0.6699857385515166
  0.3370398743258378  0.3452901461444197  0.1580685378479167
  0.9170733311227225  0.3645579762852603  0.9219004786543601
  0.4116668726134805  0.6374300813897354  0.3306817432665017
  0.0920267165531322  0.1785032587720310  0.9266303287937893
  0.5932860179060861  0.8156485748369440  0.3254092642723758
  0.1108391718063891  0.6653782297785944  0.6609349757564214
  0.5875279578382245  0.2419744702631599  0.1730789144461255
  0.4254947873633753  0.3573552032184027  0.5618943006220420
  0.8911857709761123  0.8245088192225138  0.0684196252209258
  0.9019298459396745  0.1818562810956972  0.4189327129875325
  0.4336543959330768  0.6923101078574260  0.9175811902808869
  0.0732673981004166  0.3600549780998450  0.4170124127473701
  0.5947520220744364  0.8851028261395378  0.9004682269415312
  0.6618022789584828  0.2725703345940389  0.5809117646011616
  0.0781018912792467  0.6325574924890136  0.0815609413010983
 
  0.11859854E-01 -0.15964814E-02  0.71253703E-02
 -0.66012207E-03  0.12609125E-03  0.21885238E-02
  0.20093619E-02  0.11802442E-01 -0.95677250E-02
 -0.10493120E-01  0.63791882E-02 -0.70559624E-02
  0.30869178E-02 -0.29692905E-02  0.44619103E-02
 -0.10711451E-02 -0.35726449E-02 -0.62282909E-02
  0.29897313E-02 -0.89571261E-03 -0.65365033E-03
 -0.38093951E-02 -0.71664188E-03 -0.71901856E-02
  0.64814683E-02  0.75184198E-03  0.12463477E-01
  0.26060208E-02  0.48321322E-02 -0.69255814E-02
  0.27574582E-02 -0.73225543E-02  0.27367614E-02
  0.51476324E-02  0.78281673E-02 -0.88650484E-02
  0.89405012E-02  0.51645616E-02 -0.97353593E-02
 -0.30895575E-02  0.20828878E-02  0.48640054E-02
 -0.54788227E-02 -0.69902973E-02 -0.38713868E-02
 -0.49213074E-02  0.52791943E-02 -0.12670017E-02
  0.23600298E-02 -0.12350450E-02  0.20812010E-02
  0.29643489E-02  0.41869056E-02 -0.11332621E-01
  0.38663795E-02  0.64122044E-02 -0.22425442E-02
 -0.76776551E-02 -0.92553883E-02 -0.10902357E-01
 -0.48060878E-02 -0.22780520E-02 -0.24222855E-02
 -0.24396136E-02  0.34409115E-02 -0.18573687E-02
 -0.27567318E-02 -0.30126439E-02 -0.24503705E-02
 -0.43029891E-02  0.41527987E-02 -0.16029197E-02
  0.24887923E-02 -0.42870313E-02  0.59203845E-02
 -0.14687393E-01 -0.49061994E-02 -0.22527415E-02
  0.32937698E-02 -0.14966016E-01 -0.32039045E-02
 -0.17184799E-02 -0.57999003E-02  0.71641119E-02
  0.22042518E-02  0.17661604E-02 -0.52630672E-02
  0.18469999E-02  0.61622507E-02 -0.10149751E-01
  0.33955856E-02 -0.13966451E-01  0.19843239E-02
 -0.88140530E-02 -0.38702760E-03  0.54047089E-02
  0.13179591E-01  0.65808139E-02 -0.34905187E-02
  0.17966817E-02 -0.52075889E-03  0.10165352E-02
 -0.61953912E-02 -0.24561288E-02 -0.30430374E-03
 -0.16131677E-02  0.13702737E-02 -0.11202847E-02
  0.57990600E-03  0.19004512E-02 -0.55715963E-02
 -0.16074806E-02 -0.20543023E-02  0.12469244E-01
 -0.23564268E-02 -0.16104482E-02  0.12608514E-01
 -0.12534328E-02  0.27013270E-02 -0.45537989E-02
 -0.63018677E-02  0.64675440E-04  0.77847334E-02
  0.27791756E-02 -0.53112191E-02  0.57501510E-02
  0.26591468E-02  0.17972669E-02 -0.28517777E-02
  0.18027767E-02 -0.26818718E-03  0.11056855E-02
  0.49129493E-02 -0.31851672E-02  0.14442273E-02
  0.16461312E-02 -0.71255968E-02  0.34127450E-02
 -0.67487678E-04  0.73479488E-02 -0.41288250E-02
  0.52084038E-03  0.30359145E-03  0.59240090E-02
  0.30997269E-02 -0.39094137E-02  0.22589590E-02
 -0.55573429E-02  0.37122104E-03 -0.24049898E-02
 -0.43178666E-02  0.87500467E-02 -0.49009512E-02
  0.53370116E-02 -0.29489689E-02 -0.86254563E-02
  0.64224554E-03 -0.78039326E-02  0.52779893E-02
  0.11423616E-02  0.30372774E-02 -0.55644166E-03
  0.44447868E-02  0.25034019E-02  0.10580695E-02
  0.13406550E-01 -0.43643453E-02  0.31454277E-02
  0.20104496E-02  0.52822274E-03  0.46575575E-02
  0.76530466E-04  0.59882911E-02  0.20405794E-02
 -0.55264056E-02 -0.91930817E-02  0.68077194E-02
 -0.92353696E-02  0.56889711E-03 -0.65732149E-02
 -0.70813625E-02 -0.11279169E-02 -0.18294137E-02
 -0.21468018E-02 -0.10552526E-01 -0.48356353E-02
 -0.21609286E-02  0.63425328E-02 -0.47289218E-02
 -0.95341507E-03  0.28599856E-02  0.19640988E-02
 -0.32430246E-02 -0.41519330E-02 -0.48892284E-03
 -0.23725029E-02 -0.16741639E-02  0.49051400E-02
  0.10746658E-01  0.29528821E-02 -0.11825677E-02
 -0.14224662E-02  0.42102450E-03  0.59998008E-02
 -0.50784475E-02 -0.27873636E-02  0.98152389E-02
 -0.33361708E-02 -0.47005723E-02 -0.41126237E-02
 -0.91421705E-03 -0.50029733E-03 -0.30695877E-02
  0.21194719E-03 -0.10430719E-02  0.80178689E-03
  0.55557516E-02 -0.24015841E-02  0.10374475E-01
  0.83012448E-02 -0.21647818E-02 -0.61432734E-02
  0.34300010E-02  0.52153459E-02 -0.24930698E-02
  0.28249846E-02  0.46865272E-02  0.91909626E-02
 -0.87263408E-03  0.12812480E-03  0.33426637E-02
 -0.70775210E-02  0.21822895E-02 -0.25498190E-04
 -0.27084986E-02 -0.44671675E-02  0.15955024E-02
  0.46721781E-02 -0.34211920E-02 -0.63803940E-02
  0.37765462E-02 -0.79209425E-02 -0.10999562E-01
  0.48319129E-02  0.29618133E-02  0.24574448E-02
  0.44216095E-02 -0.43556342E-02  0.42043800E-03
  0.10544073E-01  0.26770663E-02 -0.34177076E-02
 -0.94118573E-03  0.20068549E-02  0.18249473E-02
 -0.95249358E-02  0.80208830E-03 -0.47764545E-02
 -0.32542095E-02  0.79112431E-02 -0.92205707E-03
  0.13359641E-01 -0.28566354E-02 -0.51855621E-02
 -0.60146237E-03  0.38196844E-03  0.35493814E-02
  0.29358076E-03  0.54960423E-03 -0.16379912E-02
 -0.89148733E-03  0.11624063E-02 -0.74713167E-03
 -0.38183445E-03 -0.10201454E-02  0.16012323E-02
  0.79477660E-03  0.55178107E-02 -0.22598753E-04
  0.57147153E-03  0.51409608E-04 -0.95840188E-03
  0.65985407E-04 -0.32365121E-02 -0.63838858E-03
  0.10531515E-02  0.11706226E-02 -0.42577858E-02
  0.25878811E-02  0.12762222E-02  0.12418918E-02
  0.34910189E-02  0.48415194E-03 -0.16490763E-02
 -0.10568649E-02  0.41748952E-03 -0.19262656E-03
  0.28671019E-04 -0.24761729E-02 -0.85517169E-03
 -0.23580132E-02 -0.29664610E-02 -0.45009984E-03
 -0.26613428E-02 -0.22926363E-02  0.13353379E-02
 -0.14486636E-02 -0.41145334E-03  0.34524830E-02
 -0.36650417E-02 -0.40231160E-03  0.40142585E-02
 -0.43171987E-02  0.20887573E-02  0.53385321E-02
  0.23065328E-02 -0.62305528E-03  0.60189156E-02
  0.50191085E-02 -0.52741359E-02  0.41891191E-02
  0.49599216E-04 -0.12864329E-02 -0.13571482E-02
 -0.21491682E-02 -0.16775896E-02 -0.48096908E-02
  0.55719499E-03  0.55285679E-03 -0.25568134E-03
 -0.97490244E-03  0.10010014E-02  0.66097667E-02
  0.76520351E-03  0.13418778E-02  0.30781468E-02
 -0.41414345E-03 -0.19974890E-02 -0.22525702E-02
 -0.26994567E-02  0.57009540E-03  0.30408939E-02
 -0.40463540E-02 -0.29812530E-02 -0.21147727E-02
 -0.48378803E-02 -0.10219463E-02  0.22303248E-02
  0.25616894E-03  0.39392770E-02 -0.38056816E-02
 -0.13407142E-02  0.12619047E-02  0.17796152E-03
 -0.38103066E-02 -0.33537351E-02 -0.16527685E-02
 -0.50491387E-02 -0.34117453E-02  0.51856476E-02
  0.19139155E-02  0.25876675E-02 -0.32315482E-02
  0.16068932E-02  0.69085853E-03 -0.25120087E-02
 -0.33022799E-02 -0.45656793E-03 -0.31474945E-03
 -0.40492546E-02  0.35062998E-02 -0.38485636E-02
  0.17279148E-02  0.69464147E-02 -0.20992667E-02
  0.24391301E-02  0.89359223E-03 -0.12072665E-02
  0.14029454E-02  0.67796733E-02 -0.54962193E-02
 -0.63588296E-03  0.10519366E-02 -0.20905071E-02
 -0.17033143E-02  0.30541713E-03 -0.55717095E-02
  0.91996764E-03 -0.25964025E-02 -0.16700976E-02
  0.65184620E-04  0.45324837E-03  0.55656263E-03
  0.36453744E-03  0.10987561E-03 -0.10142552E-02
 -0.26825970E-02 -0.17755476E-02 -0.20212848E-02
  0.31236132E-02 -0.26975558E-02  0.38380258E-03
 -0.26722601E-03  0.19220153E-02  0.52691308E-04
  0.32243911E-02 -0.76046940E-03  0.10311590E-02
  0.15028799E-02 -0.36159491E-02 -0.23261611E-05
 -0.76733703E-02  0.28452577E-02 -0.15682014E-02
 -0.29612497E-03 -0.19355018E-02 -0.38889588E-03
  0.15982532E-02  0.21230050E-02 -0.33030234E-02
  0.15044602E-02  0.10356882E-02 -0.11415031E-02
  0.13219888E-02  0.15722435E-02 -0.46610327E-02
 -0.13728301E-02  0.35135989E-02 -0.88314659E-03
  0.36177955E-03 -0.46616681E-02 -0.39188611E-02
 -0.19278649E-03  0.18078323E-02  0.22054532E-02
 -0.59929284E-03 -0.62009414E-02  0.41220535E-02
  0.31527891E-03 -0.72548190E-03 -0.32391306E-03
  0.14814269E-02  0.34029436E-03  0.40350775E-02
 -0.32366434E-02 -0.80484139E-03  0.34653397E-02
 -0.35285555E-02  0.36579525E-03  0.21995424E-03
 -0.62740085E-02 -0.52310277E-03  0.39131899E-02
 -0.51106161E-03 -0.82778253E-03 -0.29942004E-02
  0.22363783E-02 -0.84253041E-02  0.40698363E-02
  0.11149483E-02 -0.78252907E-02  0.24002377E-03
 -0.27180455E-02  0.98568713E-03 -0.40673709E-02
  0.83395379E-03 -0.36527420E-03 -0.15260430E-02
  0.39481771E-02  0.17725057E-03  0.75503830E-02
 -0.15321676E-02  0.36491025E-02  0.11482507E-02
 -0.63517709E-03  0.33006432E-02 -0.12830595E-02
  0.15918346E-02 -0.93340914E-03  0.40870949E-02
  0.17465841E-02  0.33887953E-02 -0.33602830E-02
 -0.17507948E-02 -0.32678752E-02  0.80776180E-03
  0.60652264E-02  0.61239801E-03  0.18450013E-02
  0.18939513E-02  0.31871353E-02 -0.25631129E-02
  0.45218637E-02  0.14364262E-02  0.12506023E-02
  0.18990709E-02  0.46942343E-02  0.52202138E-03
 -0.19195873E-02  0.20953606E-02 -0.12186030E-02
  0.22247563E-02  0.12376336E-02 -0.59786131E-03
 -0.25282193E-02  0.13588457E-02  0.18638470E-02
 -0.44268441E-04 -0.52946816E-02 -0.21803093E-02
  0.60619862E-03  0.31252885E-02  0.78875957E-03
  0.17221908E-02  0.11985600E-02 -0.21747468E-02
  0.13620694E-02  0.41088556E-02 -0.11217274E-02
  0.31046265E-02 -0.58581914E-02  0.26947015E-02
  0.82419583E-04  0.25180172E-02  0.32792506E-02
  0.88371750E-03 -0.57976614E-04 -0.47491197E-03
  0.27156160E-02 -0.74140517E-04 -0.25400324E-02
  0.12867670E-02  0.56544197E-02 -0.19792244E-02
 -0.23579248E-02 -0.25785731E-02 -0.29946121E-02
 -0.19200651E-02  0.43491627E-02 -0.19569231E-02
 -0.26760420E-02  0.57928291E-02  0.76035270E-02
  0.28774367E-02 -0.22674444E-02  0.22870552E-03
  0.40523799E-02 -0.38057401E-03  0.72832033E-03
 -0.90919996E-02 -0.23612400E-02  0.77233847E-03
 -0.52661272E-02  0.26159659E-02 -0.31190877E-02
 -0.59505733E-03 -0.53204216E-03  0.35875944E-02
  0.22084216E-05  0.15900365E-02  0.28203355E-02
  0.27395138E-03  0.12733383E-02  0.68269213E-03
  0.57167910E-02  0.94569418E-03  0.15636899E-02
 -0.89335125E-04 -0.39007908E-02 -0.36358344E-03
  0.25590969E-02  0.98531014E-03  0.21456826E-02
 -0.75981619E-03 -0.25602470E-02  0.43800210E-02
 -0.61413582E-02  0.80922347E-03 -0.85718079E-03
 -0.50449709E-03  0.31327338E-02 -0.35508039E-03
  0.47692372E-03  0.10674452E-02 -0.93665321E-03
  0.13815421E-02  0.11488456E-02  0.26997574E-02
  0.29560339E-02  0.22484353E-02  0.34657617E-02
  0.15222683E-02  0.32469481E-02 -0.35775410E-03
  0.70552858E-02 -0.25444824E-02  0.19297127E-02
 -0.30503832E-02  0.45851206E-03 -0.31201416E-03
  0.19553511E-02 -0.38425579E-02  0.12878648E-02
 -0.14852144E-02 -0.71158472E-02  0.21847522E-02
 -0.78921458E-03 -0.20401696E-03 -0.57118212E-03
 -0.15549258E-02 -0.25323240E-02 -0.25413202E-02
 -0.22123847E-02 -0.28524145E-02 -0.44443765E-02
  0.72672612E-02  0.80560488E-03  0.41648066E-02
  0.54390125E-02  0.29018500E-03  0.23679373E-03
 -0.24815922E-02  0.20433408E-02 -0.18390364E-03
 
           1
   2.00000000000000     
  0.58219883E+00 -0.18571815E-03  0.00000000E+00  0.00000000E+00
  0.91290951E+00  0.62558663E-02  0.11231424E+00
  0.17092703E+00  0.78680703E+00  0.72899748E+00
  0.34805820E-01  0.51763119E+00  0.87113918E+00
  0.19788292E-01  0.79483903E+00  0.48871268E+00
  0.12303252E-02  0.14209867E-01  0.88611382E+00
  0.99450289E+00  0.52412196E+00  0.37913376E+00
  0.50148127E+00  0.74118151E+00  0.23809784E+00
  0.25798620E+00  0.24180490E+00  0.87377608E+00
  0.77922811E+00  0.71774956E+00  0.62038924E+00
  0.74484913E+00  0.53014654E-01  0.87075353E+00
  0.67957430E+00  0.21018949E+00  0.39177391E+00
  0.96822505E+00  0.25547038E+00  0.99870256E+00
  0.64774210E+00  0.40891080E+00  0.14427313E+00
  0.25959287E+00  0.75290268E+00  0.96625082E+00
  0.50257083E+00  0.70434272E-01  0.86045458E+00
  0.20575183E-01  0.47044349E+00  0.51145509E+00
  0.24004286E+00  0.75993978E-02  0.62718733E+00
  0.99455093E+00  0.29002489E+00  0.73944047E+00
  0.28096047E+00  0.96724055E+00  0.12633637E+00
  0.29436653E+00  0.26439077E+00  0.99243885E+00
  0.49812581E+00  0.10461771E-01  0.52311427E+00
  0.24765067E+00  0.78206935E-02  0.36734767E+00
  0.70782534E+00  0.77713025E+00  0.97365096E+00
  0.78569127E+00  0.48235392E+00  0.38619972E+00
  0.23580630E+00  0.47415537E+00  0.37180411E+00
  0.28674257E+00  0.54323587E+00  0.61760181E+00
  0.12453963E+00  0.74422497E+00  0.22714934E+00
  0.76459907E+00  0.71928574E+00  0.37624665E+00
  0.52627468E+00  0.49303136E+00  0.50300592E+00
  0.48878834E+00  0.79335817E+00  0.44992019E-02
  0.23010490E+00  0.73455278E+00  0.36499351E+00
  0.76858129E+00  0.74909099E+00  0.86427627E+00
  0.74663070E+00  0.70669629E+00  0.10980673E+00
  0.73980913E+00  0.43905705E+00  0.61547928E+00
  0.68302406E+00  0.25315319E+00  0.79172149E-02
  0.49488582E+00  0.23098684E+00  0.47837925E+00
  0.51007325E+00  0.50482308E+00  0.87657152E+00
  0.18053708E+00  0.22067019E+00  0.11995248E+00
  0.26876805E+00  0.75147018E+00  0.86587020E+00
  0.90331873E+00  0.86062991E+00  0.19273096E+00
  0.33334105E-01  0.30783678E-02  0.26801630E+00
  0.47563130E+00  0.27948366E+00  0.77451782E+00
  0.52072440E+00  0.80528834E+00  0.73730403E+00
  0.97694699E+00  0.52367365E+00  0.23961525E+00
  0.98654877E+00  0.71690689E+00  0.99392706E+00
  0.26718776E+00  0.79744012E+00  0.47974484E+00
  0.75403579E+00  0.72183722E+00  0.49607655E+00
  0.46981768E+00  0.60313955E-01  0.15992570E-01
  0.35921985E-03  0.50789731E-01  0.75486289E+00
  0.22663157E+00  0.24096907E+00  0.26331169E+00
  0.81831131E+00  0.76380268E+00  0.74844018E+00
  0.52581882E+00  0.49765716E-01  0.19737565E+00
  0.25112641E+00  0.28090247E+00  0.48706878E+00
  0.73760250E+00  0.72549708E+00  0.24803373E+00
  0.71486976E+00  0.30797008E+00  0.69992386E+00
  0.19601717E+00  0.51913066E+00  0.12849227E+00
  0.98777252E+00  0.98340101E+00  0.12789237E-01
  0.50756739E+00  0.74171661E+00  0.49157104E+00
  0.27172070E+00  0.50443088E+00  0.87096432E+00
  0.74030680E+00  0.19163999E+00  0.48802386E+00
  0.49230930E+00  0.52177430E+00  0.28192787E-03
  0.19618182E-02  0.49985735E+00  0.60204612E+00
  0.15543593E-01  0.51492109E+00  0.49076933E-02
  0.79127238E+00  0.98214579E+00  0.63156614E+00
  0.16394413E-02  0.22217592E+00  0.24380762E+00
  0.76723275E+00  0.49653995E+00  0.86582158E+00
  0.50325255E+00  0.32559802E-01  0.37980995E+00
  0.51017059E+00  0.42212195E-01  0.69507673E+00
  0.47407200E+00  0.26658009E+00  0.26400550E+00
  0.52477186E+00  0.54939190E+00  0.75595282E+00
  0.75875830E+00  0.25941500E+00  0.24349601E+00
  0.30107830E+00  0.75639050E+00  0.11963905E+00
  0.91702219E+00  0.47944375E+00  0.12277457E+00
  0.51948975E-01  0.49020251E-01  0.61841198E+00
  0.28736858E+00  0.99600655E+00  0.86801582E+00
  0.47885114E+00  0.51214219E+00  0.25997631E+00
  0.20537206E-01  0.55119456E+00  0.74332444E+00
  0.71581875E+00  0.97255056E+00  0.37245058E+00
  0.66927395E+00  0.47359726E-01  0.12204774E+00
  0.30071884E+00  0.74994325E+00  0.62317250E+00
  0.76882576E+00  0.27094447E+00  0.86859631E+00
  0.98084646E+00  0.99928404E+00  0.39673101E+00
  0.51438893E+00  0.53669966E+00  0.62047749E+00
  0.49555592E+00  0.43821923E+00  0.37265329E+00
  0.27174972E+00  0.25855558E+00  0.61281038E+00
  0.41235570E+00  0.52062572E+00  0.11093146E+00
  0.24554512E+00  0.28184484E+00  0.75145399E+00
  0.99678233E+00  0.21799196E+00  0.50481628E+00
  0.28957457E+00  0.97328589E+00  0.24055294E+00
  0.75342809E+00  0.51597811E+00  0.74007726E+00
  0.25483805E+00  0.28534656E-01  0.74536842E+00
  0.74046972E+00  0.48674772E+00  0.25188388E+00
  0.21679547E+00  0.31890169E-02  0.99087619E+00
  0.76971175E+00  0.44643009E+00  0.50538649E+00
  0.23614650E+00  0.31197601E-01  0.48762846E+00
  0.72100323E+00  0.54345147E+00  0.99332561E+00
  0.76203705E+00  0.47961002E-01  0.74858217E+00
  0.22985757E+00  0.49003593E+00  0.24954867E+00
  0.25833351E+00  0.53873245E+00  0.74673740E+00
  0.76728443E+00  0.98813812E+00  0.25340771E+00
  0.28242504E+00  0.53869660E+00  0.48631008E+00
  0.73494362E+00  0.93727398E-02  0.99472463E+00
  0.76039522E+00  0.95450330E+00  0.50991142E+00
  0.25440015E+00  0.49964563E+00  0.98722102E+00
  0.97508939E+00  0.27477379E+00  0.36779927E+00
  0.51504771E+00  0.78923293E+00  0.85981443E+00
  0.51714281E+00  0.26972321E+00  0.60671831E+00
  0.99892432E+00  0.74281539E+00  0.11705578E+00
  0.16581221E-01  0.28189884E+00  0.87708459E+00
  0.49996890E+00  0.72493496E+00  0.37849421E+00
  0.31002946E-01  0.77770536E+00  0.61953720E+00
  0.45346853E+00  0.26386661E+00  0.12286817E+00
  0.17529550E+00  0.40199002E+00  0.48516908E-01
  0.64895170E+00  0.85900565E+00  0.55893871E+00
  0.62672890E+00  0.12163086E+00  0.95327865E+00
  0.14956185E+00  0.63514633E+00  0.44918062E+00
  0.36901265E+00  0.38826858E+00  0.92809491E+00
  0.84881335E+00  0.87234408E+00  0.44492159E+00
  0.81739118E+00  0.12900627E+00  0.54349737E-01
  0.36002201E+00  0.65128467E+00  0.54136404E+00
  0.87262050E+00  0.74000026E-01  0.19612412E+00
  0.39008244E+00  0.65310503E+00  0.69452925E+00
  0.86680415E+00  0.87398009E+00  0.30387036E+00
  0.37501053E+00  0.43894968E+00  0.79562361E+00
  0.13166858E+00  0.60246006E+00  0.30117141E+00
  0.65105437E+00  0.16950307E+00  0.79978668E+00
  0.12861745E+00  0.37746848E+00  0.19827662E+00
  0.66848901E+00  0.92329223E+00  0.70334591E+00
  0.86049843E+00  0.62347556E+00  0.95236874E+00
  0.34198527E+00  0.11034399E+00  0.42890335E+00
  0.88016378E+00  0.36833048E+00  0.55437934E+00
  0.33457609E+00  0.89049452E+00  0.35555804E-01
  0.16678328E+00  0.14221917E+00  0.55306497E+00
  0.62172776E+00  0.65094529E+00  0.38622188E-01
  0.13091646E+00  0.89428523E+00  0.93324937E+00
  0.66092994E+00  0.37128765E+00  0.44685666E+00