Na88 Ge16 P8 Se96                       
   1.00000000000000     
    13.9614333504000001    0.0000000000000000    0.0000000000000000
     0.0000000000000000   13.9614333504000001    0.0000000000000000
     0.0000000000000000    0.0000000000000000   27.9228667008000002
   Na   Ge   P    Se
    88    16     8    96
Direct
  0.7224395896070838  0.7609847109587081  0.9812863491290799
  0.5188384723873493  0.2206109035975627  0.5087714197634454
  0.5091649391759698  0.5000320146089767  0.9922508439384121
  0.0023788669518152  0.0231150039487577  0.1184813280260790
  0.2769561045731024  0.0009694053905846  0.8722808749678518
  0.7269893916199256  0.4777175189432840  0.3760977164035834
  0.1969303268398672  0.5289630059914037  0.1294378328102162
  0.2740625707678483  0.2256012248649960  0.2425670865366104
  0.7311614953598676  0.7238330301770295  0.6078627964429567
  0.8073418752342972  0.2597113130877025  0.9559417016485160
  0.7551622052766238  0.7420734465859874  0.3516615974738433
  0.5036500974973037  0.4859796090778514  0.8747266776582643
  0.7275668961519213  0.2935766736048573  0.0742259987283757
  0.4979960589015461  0.5327881489902291  0.6332596843522597
  0.0072453392289005  0.7820825347792241  0.9827691486646090
  0.9843171650668020  0.5063466356977265  0.3542827166994984
  0.9699628526950088  0.0124012121639129  0.6306840360384740
  0.9997263313195495  0.5054862295821787  0.6452310484508934
  0.7455069737279092  0.9909416277866370  0.3862227978760352
  0.2226729616820493  0.4751710596663491  0.8618671349040782
  0.5174163312944970  0.9281609505091964  0.4788345533057562
  0.2720040066135911  0.2017466906753428  0.3676543790524504
  0.7391716680179442  0.0462038534651449  0.8768060130525678
  0.2626267991371801  0.2436499877587495  0.4997593538957345
  0.3230478316034028  0.0298661010844773  0.1166460290366911
  0.2436617262454570  0.3068543293891990  0.6278447003430433
  0.7552587698892399  0.8001282452702198  0.0961644216332136
  0.2239130861593765  0.4642878426202439  0.3776093622365005
  0.7083066358044438  0.7240150567927806  0.4884565201644027
  0.5203179217596547  0.0223640653436030  0.9927142980698521
  0.0033829467578042  0.2563503542634817  0.5089016503685625
  0.7859963710727325  0.7602266792592128  0.7275247472009715
  0.0083459362241746  0.5317912491250041  0.2015805378642036
  0.4848367861653479  0.2592391609480119  0.7615277108270537
  0.9961449776665415  0.5238905141026668  0.9868044149690907
  0.2393198154118929  0.7592673954582656  0.4966961954201243
  0.4890983150510770  0.7374101866201163  0.0068645271767078
  0.5354749270054657  0.0324915062024452  0.3589529375359671
  0.2645029430366428  0.7607054444799680  0.7426656623537676
  0.5205205525935055  0.7751622998735178  0.2337506585222010
  0.0292322492620390  0.0153042858439000  0.0047096316024901
  0.5017805318746866  0.4851168324378758  0.7453337047810097
  0.4773310938685162  0.0067007720801982  0.7517761914130838
  0.9959745107757169  0.5160295680191088  0.4999700301954417
  0.2483080945162187  0.2468388740547912  0.8654270640259560
  0.0076473875099812  0.9837701459000832  0.2348102157050762
  0.2475615591020179  0.7917618681298828  0.6141330954758126
  0.4970840028983570  0.2600606074252904  0.9861893747029578
  0.0006485964494636  0.7954990100997714  0.7355377964745177
  0.4893420139902844  0.4941661865117810  0.3586078343827088
  0.9943225972975042  0.4902573447930740  0.7672076273933282
  0.3163295660118087  0.9421992587492636  0.3636839795220341
  0.2177438631545255  0.2410723928026855  0.7447539584652157
  0.4940757304022213  0.5276009219970385  0.1280009938322527
  0.7594414010560763  0.2625338311450994  0.2518345427903417
  0.2302891123556195  0.7549004678954145  0.9951144588191226
  0.0256901181698631  0.2848437173038544  0.0153093952389546
  0.7517410701373328  0.2254195286372130  0.4956223493886128
  0.2504186037031265  0.2687603311716176  0.0027461596086923
  0.9818912324684825  0.7715040796976966  0.4954852834379827
  0.4992102083740023  0.9977890817643822  0.8554395151542478
  0.9899432835934747  0.0386753874028660  0.4987220826782001
  0.2733535457164186  0.8065504834177288  0.1206016612320665
  0.4648719735338134  0.0098822345217349  0.6187860007977013
  0.0067914461668734  0.2606718763336172  0.2461724668412689
  0.7470837919628376  0.7650295191184810  0.8450247347509251
  0.2279368369697738  0.7296158275742459  0.2415201152714692
  0.7955203818667408  0.2627164882445227  0.7846699154586069
  0.8017164639229900  0.7544924124855859  0.2323804549197464
  0.9816611178035688  0.0676130290806005  0.7745379042790973
  0.4723262415674402  0.3768919669511338  0.2284707237107975
  0.2430942446820591  0.0251219754517526  0.6170263591305806
  0.2494185996202680  0.2861294406080425  0.1269976346970653
  0.6974144012042202  0.9974963234675429  0.6305700069178047
  0.9837918999172433  0.0258331143461684  0.8939652606607283
  0.2723705878616088  0.7163846464235040  0.3620952913615380
  0.2478131293843703  0.7475317529068080  0.8707143772402437
  0.7200021937720075  0.2308051221114985  0.3791407501424034
  0.7198184562906936  0.0704870071284199  0.1361418522567100
  0.7355710311182271  0.4541463480933032  0.6225166407895310
  0.7519159611846354  0.5028726377371558  0.8700611990025400
  0.0109968603670102  0.9938633423981591  0.3690339567666439
  0.7771522120986670  0.2555961345858485  0.6410327418153131
  0.5153646371852042  0.0555746496880908  0.2256948331533531
  0.2394609278142927  0.5587420789812761  0.6323751831082908
  0.7615076170606619  0.5189370115863414  0.1238614868068937
  0.5171955190684061  0.7437170880163914  0.7450551734876112
  0.4946344282565595  0.5099796327376758  0.4981136254139276
  0.2835118355954842  0.9790575272859028  0.2445310553431400
  0.7396783172820424  0.5135548864345741  0.7433587614988542
  0.2251728768837151  0.9996940353124195  0.7408901433891030
  0.7385161567131820  0.4858830329150304  0.2375887061111505
  0.2708172884825813  0.0108715391695316  0.9918902663362728
  0.7540144596553712  0.4674972324984844  0.5033429911020719
  0.2521702322835181  0.0149986360500303  0.5019372591227221
  0.7388813257349330  0.5311773824702322  0.9993461005512612
  0.7422668869575717  0.0049671809841294  0.7518939211564223
  0.2363853087213535  0.4723595939872989  0.2575822914984742
  0.2582894874805196  0.4916234306740123  0.7519648457656131
  0.7815337918588258  0.0145851196817146  0.2565055154642815
  0.2431945154604031  0.5043508763542659  0.5105104801824459
  0.7494682982773812  0.0264361066532083  0.0030329438551549
  0.7427699046568614  0.9891992184087521  0.5100808414661246
  0.2363939475504273  0.5208688961990419  0.9975683925567903
  0.9961281080958176  0.2509468470268779  0.3762268491967657
  0.4979253597162331  0.7385089337646121  0.8693187257177316
  0.4817764249825933  0.2579134008064454  0.6355304845229796
  0.0128580369075514  0.7765028227641235  0.1150259785253305
  0.0016237869364072  0.2825405959835468  0.8910214731138280
  0.4945161066328490  0.7338576558441549  0.3681192974051182
  0.9855403984485220  0.7625751296918558  0.6145522765021932
  0.5021243648288457  0.2604934379879960  0.1168956371992772
  0.1307043248996884  0.4299307425403500  0.0510402150707231
  0.6579395538032934  0.8748191265299260  0.5566475360334573
  0.6593876461115911  0.1435747072363584  0.9585301479177923
  0.1547515523569467  0.5901928226388399  0.4545344881429699
  0.3279411865438330  0.4072509620304272  0.9441260340721094
  0.8345896718751933  0.8820396955614225  0.4669261418487862
  0.8607709621460754  0.1324915615992391  0.0549123054908550
  0.3426788099320424  0.6134508711289199  0.5535540389793603
  0.8826374825578154  0.1236620524110269  0.2170807760310910
  0.3664645195526481  0.6003910284275914  0.7091265629601013
  0.8693188716636769  0.9038725397287127  0.3031710118182931
  0.3644705013203626  0.3866229995057717  0.7986833925503213
  0.1304383144188957  0.5889288189969152  0.3018270873519404
  0.6262653341658356  0.1166435369989032  0.8015790846415261
  0.1524917372762823  0.3732775797323454  0.2110836178312697
  0.6296466968971220  0.9052585826680088  0.7159707907374363
  0.8302707965004160  0.6157078032966877  0.9394890712379783
  0.3861025403132707  0.0957198377300867  0.4503919266732249
  0.8439922042642038  0.3667169629663342  0.5534394496024923
  0.3594301656497046  0.9011807894114713  0.0332260763172558
  0.1528565675275451  0.1260452473268262  0.5426845992870433
  0.6306534876013017  0.6290322783045896  0.0460118952665513
  0.1631827680188729  0.9146673808436230  0.9378786723300097
  0.6478002829790883  0.3879676758422583  0.4509439441946616
  0.6382030744298954  0.3890910488206170  0.2907015914344885
  0.1344078684628985  0.9023195350274279  0.7936144741696678
  0.1161918719544964  0.0935751432272270  0.6987168224453270
  0.6270843716464028  0.5982510837079732  0.2029002074741844
  0.8612354684081950  0.4132517103314310  0.7022619215776426
  0.3748370973995936  0.8975684727404460  0.1887706487221184
  0.3750503905255072  0.0717446206530876  0.2924160029167100
  0.8369863815479734  0.6154139278066219  0.7919494986778147
  0.1881755746622950  0.0995371178028969  0.0519789712184971
  0.6622732509576584  0.5834109034406473  0.5510559641048296
  0.6503908421217055  0.4192886932828821  0.9436566173831689
  0.1373221276333486  0.9186674344305915  0.4555467207006672
  0.3733959429310504  0.1152032884710873  0.9420106275247789
  0.8375236987260727  0.5710006636941731  0.4473136253632911
  0.8444939385988280  0.4411355865643773  0.0494008295875336
  0.3537667881917533  0.9127267122438459  0.5482993903271615
  0.1790651589081143  0.0735179877857006  0.1981257554952543
  0.6471780220756291  0.6005148123760445  0.6914512840639586
  0.1841019280531572  0.8968961334487690  0.2991367422047985
  0.6463871319524140  0.4074131908622854  0.7976230395913491
  0.8293616182604224  0.5828896223092648  0.2893553785936097
  0.3365616943292562  0.0982933744809973  0.7906916147200700
  0.8377318978133154  0.3993162942040281  0.1823323880257804
  0.3282470187117728  0.9135823624190573  0.6940841311966430
  0.8470190805435569  0.9181264320630157  0.9575008568276147
  0.3483467485404562  0.4119081855988235  0.4619453716456053
  0.8414458979335110  0.0991840446296741  0.5558745224497839
  0.3359221486365825  0.6066226352997419  0.0506732513953930
  0.1463074698029129  0.3960317899346147  0.5499550403430825
  0.6481205052712912  0.9411907599367394  0.0516087065837526
  0.1421079133905824  0.6116048321859984  0.9423152848455112
  0.6381615082194457  0.0848587790480716  0.4566323740085917
  0.3374014601132382  0.3731329224241045  0.3076915144045949
  0.8416217377766777  0.9129274202951285  0.8046202239452913
  0.8449026162971833  0.1141929984585230  0.7043836466125160
  0.3124590797535730  0.5721190073657719  0.2017171540750257
  0.1480707781333946  0.4049631373061408  0.6980974623859288
  0.6939076364063368  0.9184316880778021  0.2071529202654356
  0.6826405309099984  0.1081450164044522  0.3038895975636591
  0.1696758416421309  0.6085610415527682  0.7956363036657553
  0.0762909039299753  0.1493029953697991  0.3281445437313495
  0.5815479103266934  0.6456851084273834  0.8222683056939263
  0.5642698875173169  0.3568767159027243  0.6776050926717900
  0.1017678230619887  0.6913057875087789  0.1661546840421114
  0.3784990289317720  0.1738592644522241  0.6780462462698060
  0.9307957336731895  0.6790669869884080  0.0734268142870571
  0.8921413341423261  0.3331611142953532  0.3292068375269438
  0.4104370247564687  0.8266621362712970  0.8201457947422390
  0.1006726755391528  0.1977379638246839  0.9392342806107393
  0.5830918202181508  0.6432891284980455  0.4143144413963217
  0.0704507108798654  0.8694112501182100  0.5759546907335702
  0.4030916102263373  0.3362319847868395  0.0636642371023759
  0.9198921762656355  0.6462820765049282  0.5735635970778551
  0.4084776958851917  0.1954869774438938  0.1744420546152506
  0.9274472203315758  0.4158770558475093  0.9126929033348495
  0.4027814751891856  0.8058366965171118  0.4212643147852091
  0.8857948723868597  0.8526580048788883  0.6517244136388874
  0.6191601207437318  0.3580450622375311  0.1426777505130078
  0.8990707819498289  0.1768603658720172  0.8607971629015394
  0.4164998670814364  0.6618712708819361  0.3049141383415606
  0.0905783258348792  0.3205270017343629  0.8236085160120191
  0.5794055616537491  0.8498275869610088  0.3351439122697315
  0.0842839975871285  0.6903799540561151  0.6678091700185778
  0.5525487680530808  0.1246082606879926  0.0798948927759344
  0.4062518621967954  0.3262202090629355  0.5758984255123279
  0.9166062114311263  0.8723410057623530  0.1573282837583362
  0.9168447084338294  0.1681714253916735  0.4333671538674272
  0.4008829122719245  0.6486822630819021  0.9148252690841021
  0.0912896986817932  0.3449671594728136  0.4188563788335027
  0.5790173789130629  0.8365981032425939  0.9167480340782772
  0.5944637372627285  0.1642205365253889  0.6030499227592649
  0.1015173341103650  0.8655203577817211  0.0644796333574072
 
 -0.46257352E-02 -0.46173311E-02  0.67964745E-02
 -0.32006139E-02 -0.53068251E-02 -0.17845003E-02
  0.48376733E-02 -0.17216610E-02 -0.28851184E-02
 -0.12298773E-02  0.26711214E-02  0.16527963E-02
  0.53514511E-02 -0.60054389E-03 -0.82145121E-02
 -0.77290275E-02  0.57563106E-02 -0.24893237E-02
 -0.13422955E-02 -0.46260770E-02 -0.42206338E-02
  0.81619248E-02 -0.26280780E-02 -0.49404895E-02
 -0.85676693E-02  0.33230616E-02  0.17082761E-02
 -0.51677624E-02 -0.43692552E-02 -0.81005116E-02
  0.10092422E-01 -0.12694149E-01  0.97502799E-03
  0.62806168E-02 -0.73330837E-02  0.46487401E-03
  0.11372874E-02  0.34376404E-02  0.91584327E-02
  0.86230328E-03  0.21981569E-02  0.26691245E-02
  0.55472691E-03  0.50164987E-02 -0.86009921E-02
  0.15283126E-02 -0.79829504E-02 -0.74437048E-03
  0.43328361E-02  0.69018276E-02 -0.12150960E-02
  0.26609740E-02 -0.25356802E-02 -0.18596597E-02
  0.15927083E-02  0.10128479E-02 -0.94649042E-03
 -0.30234975E-02 -0.55934317E-03 -0.86559920E-03
 -0.81013789E-03 -0.76497495E-03 -0.79105882E-03
  0.74355431E-02  0.16852944E-02 -0.52710629E-03
 -0.88750215E-02 -0.39739759E-02  0.27935436E-02
  0.19407940E-02 -0.45181174E-02 -0.24910081E-02
 -0.30130955E-02 -0.78784626E-02 -0.21144427E-02
 -0.41884979E-02  0.46088176E-02  0.26853034E-02
  0.24883835E-02  0.33956750E-02 -0.36893590E-02
  0.43149879E-02 -0.72945935E-02 -0.20590307E-02
 -0.37110136E-02  0.77765390E-03 -0.68190813E-02
 -0.20049580E-02 -0.51974330E-02  0.54633470E-02
 -0.83789356E-02 -0.25784322E-02 -0.32120156E-03
  0.39271389E-02  0.53903220E-02  0.10548628E-02
  0.47227458E-02 -0.44702304E-02  0.18630855E-02
 -0.99591325E-03 -0.82893514E-03 -0.22667270E-02
  0.43734854E-02 -0.14231491E-03  0.52454586E-04
 -0.60055677E-03 -0.22403577E-02 -0.65622173E-02
  0.87584747E-02 -0.18765073E-02 -0.10340629E-02
 -0.18283653E-02 -0.45916811E-02  0.62271963E-02
  0.11997356E-02 -0.40838495E-02 -0.17404807E-02
 -0.36353503E-03 -0.17278156E-02 -0.33193338E-02
  0.60375214E-03 -0.75276962E-02 -0.12853325E-02
 -0.26789821E-02 -0.11085315E-01 -0.48295305E-02
  0.37458500E-02 -0.14424779E-03 -0.19298293E-03
  0.35893551E-02  0.26911028E-02 -0.10894887E-02
  0.13898771E-02 -0.18788049E-02  0.13875751E-02
 -0.50027916E-02 -0.14821958E-03  0.98314772E-02
  0.41934206E-02 -0.61042911E-02  0.46432493E-02
  0.16202847E-02 -0.48057246E-02 -0.16481347E-02
 -0.28875330E-02  0.83087696E-03  0.51350192E-02
  0.77086317E-03  0.60999638E-02  0.25670065E-02
 -0.15101093E-02 -0.18530372E-02  0.21292627E-02
  0.22729427E-02 -0.18650710E-02  0.10900649E-02
  0.34481327E-02 -0.44458755E-02 -0.48381676E-02
  0.22987320E-02  0.68212682E-02 -0.11368475E-02
 -0.26777040E-02 -0.10235462E-02 -0.42310074E-02
  0.47848144E-02 -0.50668477E-02 -0.62358625E-02
 -0.74253377E-02 -0.38855893E-02  0.18096623E-02
 -0.96476664E-02  0.17363014E-02 -0.26250146E-03
  0.11854290E-01  0.74701115E-02 -0.19468935E-02
  0.12573977E-02 -0.11079021E-02 -0.17660171E-02
  0.28132224E-03 -0.92746819E-02 -0.27291101E-02
 -0.44681310E-02  0.14167878E-02  0.63347991E-02
 -0.48940756E-02 -0.58721284E-02 -0.38762736E-02
  0.11788582E-02 -0.26528752E-02  0.19085400E-02
 -0.16228694E-05 -0.11728791E-02  0.10412215E-02
 -0.18609665E-02  0.15308909E-02 -0.11759623E-02
 -0.31547154E-02  0.42366262E-02 -0.22366261E-02
 -0.48929646E-02 -0.19054951E-02 -0.18711362E-02
  0.27239703E-02  0.46408738E-02  0.41007132E-02
 -0.35385142E-02 -0.69107782E-02 -0.23707982E-02
 -0.18251343E-02 -0.65637208E-02 -0.11460270E-02
  0.22325744E-02  0.18500426E-02 -0.17069518E-02
 -0.93043638E-02 -0.56416713E-02 -0.19063846E-02
  0.18432002E-03  0.18025418E-02  0.37745049E-03
  0.71178184E-02 -0.45654253E-03  0.56800988E-02
 -0.21285506E-02 -0.11631963E-02 -0.23711850E-02
  0.10207918E-01  0.44205040E-02 -0.10760967E-02
 -0.66898205E-02 -0.30009421E-02 -0.50367513E-02
 -0.63730014E-02 -0.52187074E-02 -0.23569831E-02
 -0.33077234E-02 -0.14258993E-02  0.89024346E-03
  0.34145932E-02 -0.74636670E-02  0.74895652E-02
  0.43841104E-02  0.63654553E-02  0.27643347E-02
  0.30469693E-02 -0.14326686E-02 -0.51950944E-02
  0.58233468E-02 -0.16883909E-02  0.23111265E-02
 -0.10585644E-02  0.42559892E-02  0.11919664E-01
 -0.96150280E-02  0.74239529E-02  0.58777457E-02
 -0.35763751E-02  0.23667853E-02 -0.89865357E-03
  0.25780871E-02  0.29863046E-02  0.44357865E-02
 -0.13489393E-02  0.12128524E-02  0.22977496E-02
  0.31793896E-02 -0.17778655E-02 -0.44347860E-04
  0.34840251E-02  0.37835634E-02  0.34354124E-03
 -0.21770035E-03 -0.10540055E-02 -0.39766687E-03
  0.29178927E-02 -0.22292279E-02  0.21856346E-02
 -0.37486554E-03  0.93933683E-03  0.48933565E-04
 -0.18725944E-03 -0.40433789E-02  0.10063438E-03
  0.33475274E-02 -0.12817314E-02 -0.48211247E-04
 -0.18786710E-02 -0.47870182E-02  0.17776120E-02
 -0.13653744E-02  0.40300154E-02 -0.67516421E-03
 -0.39993347E-02 -0.14888112E-02  0.23602521E-02
 -0.30328241E-02 -0.30572048E-02 -0.15866390E-03
  0.35467822E-03 -0.34735751E-02  0.15597616E-02
 -0.16493608E-02 -0.18845849E-03 -0.23192406E-02
  0.71249397E-02  0.36321204E-02 -0.21347285E-02
  0.29025633E-02  0.19331157E-02  0.13564056E-02
 -0.71156166E-03  0.50853340E-02 -0.27964816E-02
 -0.55071743E-03  0.62258950E-03 -0.52881745E-02
  0.90989294E-03  0.62394457E-02  0.11883883E-02
  0.40695837E-02 -0.53016814E-02 -0.89538333E-03
 -0.22231414E-02  0.87234810E-02  0.12796701E-02
  0.75197488E-03  0.62053409E-03  0.14537955E-02
  0.93051790E-03  0.26260503E-02 -0.88695500E-03
 -0.26701897E-02  0.74720044E-02  0.30245829E-02
 -0.80249566E-03  0.66549989E-03  0.27909441E-02
 -0.14858596E-02 -0.48202136E-02 -0.20792176E-02
 -0.11679041E-02  0.17079591E-02 -0.21229132E-02
 -0.20436408E-03  0.24680112E-02  0.14242563E-02
 -0.65250702E-04  0.21981545E-02  0.28734364E-02
 -0.27799781E-03 -0.17842108E-02 -0.33381525E-03
 -0.69616118E-03  0.28460386E-03  0.16927195E-02
  0.18859774E-02 -0.94143180E-03  0.19857038E-02
  0.11796713E-02  0.48729613E-04  0.20751035E-03
  0.23159840E-02 -0.16713922E-02  0.10762885E-02
 -0.42500910E-02  0.19317823E-02  0.81801847E-04
 -0.75030286E-03  0.12877739E-02  0.16137262E-02
 -0.16173919E-02  0.23128740E-02  0.47882254E-02
  0.67604460E-03  0.22461920E-02  0.86945459E-03
 -0.37630528E-02  0.12933011E-02  0.28508074E-02
 -0.18568763E-02  0.30833707E-02 -0.86175181E-03
 -0.21643366E-02  0.72103610E-03 -0.17726062E-03
  0.18420804E-02 -0.93235577E-03 -0.32371428E-03
  0.22713839E-03 -0.12722475E-02 -0.14918696E-02
  0.61039774E-02 -0.91218295E-03 -0.13417626E-03
 -0.65099983E-03 -0.76539125E-03 -0.10679039E-02
  0.15795028E-02 -0.87095595E-03 -0.19668995E-02
  0.42080176E-02 -0.37481052E-02 -0.42234122E-02
 -0.22962452E-02  0.33860231E-02 -0.32415918E-02
 -0.26367746E-02 -0.27598826E-02 -0.21281746E-02
 -0.42563666E-02  0.54261071E-03  0.22211937E-02
 -0.50782156E-02 -0.15300608E-02  0.55676789E-02
  0.25853247E-02 -0.13211401E-02  0.35477304E-02
  0.12781400E-02 -0.38331560E-02  0.50515314E-03
  0.14232190E-02  0.20557007E-02  0.29667379E-02
  0.19576859E-03  0.19976095E-02  0.10770634E-02
  0.48445209E-02 -0.35120158E-02 -0.30902432E-02
  0.78696336E-03  0.12419197E-02 -0.55049230E-02
  0.39440402E-03 -0.20035644E-02 -0.42843433E-02
  0.61350822E-02  0.17315478E-02  0.31918180E-03
 -0.37906506E-02 -0.14169144E-02 -0.43650623E-02
  0.36103955E-02  0.16824570E-02  0.22054602E-02
  0.39577627E-02 -0.10399277E-02  0.35520534E-02
 -0.42362368E-03 -0.51908613E-03  0.22955948E-02
 -0.11901886E-02  0.48908044E-03 -0.46970318E-02
 -0.37817299E-02  0.37561162E-02 -0.29350353E-02
  0.19282727E-02 -0.43337750E-02 -0.44761363E-02
  0.31023510E-02 -0.34600883E-02  0.55624653E-02
  0.17497696E-02 -0.22697090E-02 -0.45190855E-03
  0.14489250E-02 -0.14709102E-03  0.28805757E-02
  0.34694662E-02 -0.73105613E-03 -0.62907844E-02
 -0.54918492E-02  0.17607617E-02  0.28495788E-02
 -0.13973478E-02  0.22488198E-02  0.40039343E-03
  0.33967368E-02 -0.20123936E-03  0.10515562E-02
 -0.35432773E-02  0.36061877E-05 -0.35992053E-02
 -0.11217255E-02  0.15441470E-02 -0.25173930E-02
 -0.18460710E-02 -0.46807469E-02  0.60077296E-03
 -0.82285627E-03  0.29216499E-03 -0.22522378E-02
 -0.25787458E-02 -0.11290107E-02  0.18887914E-02
 -0.27128497E-02 -0.40594051E-03  0.52356201E-03
 -0.39007205E-02  0.25286440E-02 -0.57512028E-03
  0.17517058E-02  0.27264531E-02  0.14364891E-02
  0.82324206E-03 -0.72618952E-03  0.48600318E-02
  0.25542114E-02  0.10964396E-03 -0.54573479E-03
 -0.20516584E-02  0.21554865E-02 -0.20268790E-02
  0.17903383E-02 -0.10342292E-02  0.27818252E-02
 -0.61923233E-03 -0.12535186E-02 -0.14323900E-02
 -0.46539557E-02  0.65370548E-02 -0.17653723E-02
 -0.46140351E-03 -0.64145187E-03  0.13151910E-02
  0.21684084E-02  0.15793318E-02 -0.53780427E-02
 -0.47451874E-03 -0.12647401E-02  0.13715687E-02
 -0.27737183E-02  0.45868829E-03 -0.32736469E-03
  0.67531338E-03 -0.78248786E-03  0.36628185E-02
 -0.22071110E-02  0.37014416E-02  0.76253325E-03
 -0.13341692E-02 -0.61157110E-03  0.80553750E-03
 -0.35582548E-02 -0.86473706E-03 -0.50589248E-02
  0.11155458E-02  0.50141092E-02 -0.35265107E-02
 -0.14933342E-02  0.20305163E-02 -0.58387812E-03
 -0.85138069E-03 -0.22959900E-02  0.30787257E-02
 -0.74114229E-03  0.83738743E-03 -0.34140270E-02
 -0.58801677E-03  0.28528104E-02  0.29924597E-02
  0.40772375E-02  0.30206819E-02  0.31317965E-02
  0.78939008E-03  0.29590358E-02  0.43800046E-03
  0.41668159E-03  0.40782310E-02 -0.11124011E-02
  0.17182235E-03  0.17501352E-02  0.70256356E-03
  0.32436854E-02 -0.88355657E-03  0.11068559E-02
 -0.19130805E-02  0.85601102E-03  0.19686730E-02
  0.23877217E-02 -0.26364010E-04 -0.94269933E-03
 -0.96842968E-03  0.17293351E-02 -0.18313310E-02
 -0.12201513E-02 -0.99531501E-03  0.90916974E-03
  0.50429459E-02  0.14895672E-02 -0.30221040E-02
 -0.14035418E-03  0.14763859E-03  0.87553389E-03
  0.22598343E-03  0.19503289E-02  0.32451532E-03
 -0.13855010E-02  0.31170752E-02  0.11878118E-02
 -0.41707250E-04 -0.82621597E-02  0.10555170E-02
 -0.25624515E-02 -0.11068861E-02 -0.18615631E-02
 -0.36278614E-03  0.28156851E-02 -0.30923161E-02
  0.21081027E-02  0.21693597E-02 -0.19433267E-02
 -0.41310224E-03  0.16924696E-02  0.11424144E-02
 -0.26196936E-02  0.24303885E-02  0.66830444E-02
  0.69406770E-03 -0.24561387E-02 -0.95714517E-03
 
           1
   2.00000000000000     
  0.42736405E+00 -0.40320140E-03  0.00000000E+00  0.00000000E+00
  0.72177694E+00  0.76032327E+00  0.98177315E+00
  0.51837998E+00  0.21985069E+00  0.50864360E+00
  0.50985794E+00  0.49978538E+00  0.99204419E+00
  0.22026848E-02  0.23497647E-01  0.11859971E+00
  0.27772271E+00  0.88337642E-03  0.87169250E+00
  0.72588219E+00  0.47854212E+00  0.37591942E+00
  0.19673804E+00  0.52830031E+00  0.12913553E+00
  0.27523178E+00  0.22522475E+00  0.24221322E+00
  0.72993416E+00  0.72430906E+00  0.60798515E+00
  0.80660158E+00  0.25908541E+00  0.95536150E+00
  0.75660796E+00  0.74025499E+00  0.35173143E+00
  0.50454981E+00  0.48492913E+00  0.87475997E+00
  0.72772981E+00  0.29406912E+00  0.74881980E-01
  0.49811959E+00  0.53310304E+00  0.63345086E+00
  0.73248048E-02  0.78280116E+00  0.98215310E+00
  0.98453610E+00  0.50520306E+00  0.35422940E+00
  0.97058354E+00  0.13389911E-01  0.63059700E+00
  0.10752055E-03  0.50512299E+00  0.64509785E+00
  0.74573513E+00  0.99108672E+00  0.38615500E+00
  0.22223984E+00  0.47509093E+00  0.86180514E+00
  0.51730028E+00  0.92805137E+00  0.47877789E+00
  0.27306916E+00  0.20198811E+00  0.36761662E+00
  0.73790031E+00  0.45634574E-01  0.87700610E+00
  0.26290482E+00  0.24300276E+00  0.49958093E+00
  0.32261620E+00  0.28737497E-01  0.11649458E+00
  0.24306172E+00  0.30751455E+00  0.62803704E+00
  0.75561524E+00  0.80061468E+00  0.95900168E-01
  0.22453122E+00  0.46324288E+00  0.37746188E+00
  0.70777503E+00  0.72412646E+00  0.48796810E+00
  0.52003071E+00  0.21619524E-01  0.99310562E+00
  0.21826494E-02  0.25598099E+00  0.50887864E+00
  0.78655894E+00  0.76099885E+00  0.72760030E+00
  0.90224779E-02  0.53115088E+00  0.20171398E+00
  0.48469412E+00  0.25912041E+00  0.76136535E+00
  0.99677149E+00  0.52387013E+00  0.98680817E+00
  0.23923378E+00  0.75894646E+00  0.49622617E+00
  0.49035298E+00  0.73714137E+00  0.67904615E-02
  0.53521301E+00  0.31833740E-01  0.35939897E+00
  0.26467481E+00  0.76012043E+00  0.74254100E+00
  0.52046848E+00  0.77491479E+00  0.23351291E+00
  0.29318738E-01  0.14225930E-01  0.46175685E-02
  0.50139676E+00  0.48352884E+00  0.74498779E+00
  0.47786769E+00  0.66801083E-02  0.75176237E+00
  0.99648869E+00  0.51641507E+00  0.49989199E+00
  0.24850720E+00  0.24656973E+00  0.86552645E+00
  0.69307288E-02  0.98374891E+00  0.23551440E+00
  0.24816227E+00  0.79088742E+00  0.61446567E+00
  0.49731611E+00  0.25937218E+00  0.98607133E+00
  0.23495225E-03  0.79561803E+00  0.73590560E+00
  0.48945244E+00  0.49504002E+00  0.35879170E+00
  0.99410627E+00  0.48999189E+00  0.76736014E+00
  0.31665517E+00  0.94193208E+00  0.36376206E+00
  0.21823781E+00  0.24043551E+00  0.74440742E+00
  0.49440503E+00  0.52857808E+00  0.12791957E+00
  0.75905782E+00  0.26238721E+00  0.25153149E+00
  0.23097455E+00  0.75417463E+00  0.99466781E+00
  0.24626425E-01  0.28428710E+00  0.15439014E-01
  0.75035902E+00  0.22566826E+00  0.49560355E+00
  0.25211675E+00  0.26983044E+00  0.26067116E-02
  0.98207136E+00  0.77134537E+00  0.49535879E+00
  0.49925051E+00  0.99646047E+00  0.85524404E+00
  0.98930322E+00  0.38878345E-01  0.49917582E+00
  0.27265246E+00  0.80570929E+00  0.12032402E+00
  0.46504085E+00  0.95022055E-02  0.61892270E+00
  0.67912137E-02  0.26050386E+00  0.24624705E+00
  0.74681721E+00  0.76524882E+00  0.84494051E+00
  0.22748492E+00  0.73022273E+00  0.24135991E+00
  0.79481946E+00  0.26244352E+00  0.78453589E+00
  0.80210668E+00  0.75515723E+00  0.23267417E+00
  0.98115422E+00  0.66623048E-01  0.77436809E+00
  0.47206479E+00  0.37595170E+00  0.22838864E+00
  0.24341406E+00  0.25386997E-01  0.61690410E+00
  0.24808573E+00  0.28532126E+00  0.12686109E+00
  0.69744081E+00  0.99775454E+00  0.63059704E+00
  0.98481154E+00  0.25767714E-01  0.89437210E+00
  0.27206567E+00  0.71621802E+00  0.36192545E+00
  0.24927543E+00  0.74816500E+00  0.87063730E+00
  0.71904387E+00  0.23037523E+00  0.37877999E+00
  0.71890551E+00  0.69739418E-01  0.13597303E+00
  0.73509719E+00  0.45394209E+00  0.62258041E+00
  0.75240511E+00  0.50180345E+00  0.87059765E+00
  0.11624892E-01  0.99477521E+00  0.36923195E+00
  0.77758870E+00  0.25539090E+00  0.64066064E+00
  0.51619884E+00  0.55332785E-01  0.22586037E+00
  0.23930929E+00  0.55935176E+00  0.63322894E+00
  0.76013025E+00  0.52000051E+00  0.12428249E+00
  0.51668320E+00  0.74405613E+00  0.74499081E+00
  0.49500374E+00  0.51040743E+00  0.49843134E+00
  0.28331860E+00  0.97923127E+00  0.24469563E+00
  0.74013377E+00  0.51330020E+00  0.74335559E+00
  0.22567197E+00  0.23603746E-03  0.74091475E+00
  0.73848497E+00  0.48573204E+00  0.23756022E+00
  0.27123528E+00  0.10552198E-01  0.99204681E+00
  0.75396076E+00  0.46763179E+00  0.50334650E+00
  0.25214341E+00  0.14419415E-01  0.50194447E+00
  0.73936086E+00  0.53099377E+00  0.99934265E+00
  0.74199776E+00  0.42814322E-02  0.75202124E+00
  0.23618972E+00  0.47293690E+00  0.25753393E+00
  0.25771658E+00  0.49141016E+00  0.75213390E+00
  0.78109933E+00  0.14147170E-01  0.25649415E+00
  0.24324532E+00  0.50385328E+00  0.51062220E+00
  0.74923202E+00  0.26409110E-01  0.28668262E-02
  0.74379056E+00  0.98971953E+00  0.50992794E+00
  0.23680974E+00  0.52114582E+00  0.99766555E+00
  0.99602618E+00  0.25167533E+00  0.37602655E+00
  0.49784647E+00  0.73859812E+00  0.86893996E+00
  0.48190677E+00  0.25880721E+00  0.63561560E+00
  0.13441012E-01  0.77574335E+00  0.11496185E+00
  0.13053180E-02  0.28379025E+00  0.89111313E+00
  0.49462383E+00  0.73394655E+00  0.36822343E+00
  0.98567370E+00  0.76295132E+00  0.61448875E+00
  0.50174186E+00  0.26156382E+00  0.11711228E+00
  0.13058937E+00  0.43002608E+00  0.51240119E-01
  0.65772670E+00  0.87412862E+00  0.55649861E+00
  0.65922034E+00  0.14381938E+00  0.95837809E+00
  0.15472228E+00  0.59054637E+00  0.45463650E+00
  0.32793184E+00  0.40756585E+00  0.94433185E+00
  0.83454985E+00  0.88178410E+00  0.46690223E+00
  0.86067124E+00  0.13253233E+00  0.55033548E-01
  0.34294898E+00  0.61331601E+00  0.55369627E+00
  0.88280647E+00  0.12366903E+00  0.21709564E+00
  0.36679629E+00  0.60015160E+00  0.70920365E+00
  0.86871004E+00  0.90414927E+00  0.30317687E+00
  0.36436302E+00  0.38680748E+00  0.79879898E+00
  0.13020662E+00  0.58926014E+00  0.30217005E+00
  0.62636218E+00  0.11696531E+00  0.80164136E+00
  0.15195267E+00  0.37346285E+00  0.21128781E+00
  0.62938070E+00  0.90570028E+00  0.71590907E+00
  0.82996075E+00  0.61581109E+00  0.93947637E+00
  0.38636642E+00  0.95586276E-01  0.45036874E+00
  0.84402474E+00  0.36653471E+00  0.55333259E+00
  0.36030457E+00  0.90105012E+00  0.33216466E-01
  0.15276331E+00  0.12593560E+00  0.54260811E+00
  0.63087975E+00  0.62890751E+00  0.45871014E-01
  0.16378557E+00  0.91413046E+00  0.93757617E+00
  0.64747134E+00  0.38845273E+00  0.45071176E+00