Na88 Sn16 P8 S96                        
   1.00000000000000     
    13.4813327813000008    0.0000000000000000    0.0000000000000000
     0.0000000000000000   13.4813327813000008    0.0000000000000000
     0.0000000000000000    0.0000000000000000   26.9626655626000016
   Na   Sn   P    S 
    88    16     8    96
Direct
  0.6095039858369505  0.2593149775934025  0.4946081139082278
  0.1790440032142842  0.1559490143273028  0.8807381262718510
  0.0242685203519931  0.6369351037077713  0.8802707555155316
  0.7240915079105223  0.6826757023567649  0.2228095826383625
  0.7317604246797595  0.7713612896371630  0.9874101159139764
  0.0349797224618795  0.4821501394249410  0.7792281520854478
  0.2083325716759151  0.7675804253351429  0.2438284274000148
  0.0777881050420821  0.4968864885023789  0.1281764796643778
  0.7552401641623160  0.2774872435420305  0.7493696751903960
  0.8272857221265365  0.7642762505205883  0.5247042560911485
  0.6149283316355374  0.7558905486492966  0.4923775865780873
  0.9635835940378225  0.7837359121356376  0.9814337139318359
  0.4670825121990630  0.5212787523687870  0.2672437612394447
  0.3047659587137552  0.7409481252541056  0.4855314855905041
  0.5067088862717413  0.5081808473897673  0.4871459591234855
  0.2175344591083320  0.2673998808061202  0.4061624552647496
  0.2766619805877817  0.9430326526205034  0.8813362409274451
  0.0260733113274375  0.3334883150832660  0.6950642182283086
  0.2662961407157859  0.2268595824075881  0.0042971221363804
  0.9726708816142329  0.4924631708398211  0.2422593611802996
  0.0646652006236171  0.0164694174965209  0.5092141022152714
  0.2169228136247625  0.2835110737638092  0.2562159712568134
  0.3286406638712376  0.6010296280744019  0.8702841887201516
  0.2371196688360015  0.2711474932226700  0.6325746520241670
  0.7881103894702706  0.2731358909296813  0.9718726894749712
  0.0112034858422451  0.8384303095941983  0.7543991670232434
  0.5379757343617995  0.2862414786094145  0.9924759401505540
  0.7475122592801218  0.2649076479365701  0.1152337609218113
  0.6267775369081199  0.5086000247454621  0.3606184992949077
  0.4925777107124797  0.8109711711365087  0.9948689113177683
  0.8017578403296641  0.7465571820046367  0.3890361778129044
  0.5062560431215871  0.0143122722207488  0.6314897874862374
  0.7145757889078468  0.7442317953164487  0.1083084265365140
  0.1948688798939401  0.7483864129120834  0.0105933534857834
  0.7569111795068790  0.0562766304384033  0.8646112512372698
  0.3828130873593060  0.2560430774140791  0.5306885837121854
  0.7596677283987803  0.0152312471078246  0.3721632762063126
  0.2938241748012727  0.0038967189165479  0.3733893368665835
  0.4866969956807572  0.0615780300922583  0.0028301716393986
  0.7787836436610853  0.6152491025190536  0.6237604096877893
  0.8564650933784931  0.2290074984939763  0.4660276661537485
  0.2933449298225297  0.7793997656382020  0.7847309031510873
  0.5079708254839355  0.1264902506394014  0.2302189341634264
  0.0326965892720149  0.5212522536073328  0.5033383408694510
  0.5066913066651989  0.5824077228681983  0.7524586275148681
  0.5401576936360410  0.9656944890344769  0.4953269490364286
  0.3245281997202387  0.6080102679276022  0.3716056977081840
  0.2736703556679133  0.0314937285123020  0.1076453724625747
  0.2268444741951226  0.3918670657772781  0.8747888603480818
  0.7727302522935799  0.5225268576458003  0.1135971166284176
  0.5461961263749405  0.3758446891377991  0.8139492706913659
  0.0132041895573222  0.7595514236290406  0.2569064709309702
  0.0291160534429558  0.2266026333760008  0.5516837888071860
  0.5430728245705775  0.8695716431975348  0.2513188978512509
  0.9871680201020470  0.2236559700359620  0.2446391988717180
  0.8216944842832095  0.8010651766945119  0.8577282973608787
  0.9904306071176385  0.0355848672076834  0.2924659317292156
  0.5168227075934438  0.5829824444471902  0.6281516385749500
  0.4972908895856245  0.0344118290903560  0.8521710545805160
  0.7389842456839255  0.3206269799495304  0.3592709896928113
  0.7459722006516416  0.1777952591592154  0.2267198566845905
  0.9917968294536905  0.5985131829486726  0.6906911092785333
  0.9888431039988723  0.0393626841357538  0.1160811053264766
  0.3011030643110191  0.3114179137073886  0.7494713328146564
  0.0284021645725780  0.9299831252683555  0.3842275738621301
  0.4904491286944645  0.1097564035648544  0.7496989324367344
  0.4113863595916442  0.4785545868610612  0.1296295577927536
  0.7579262634012756  0.2958943405954611  0.6141161700458078
  0.2855110547214817  0.7652896840382915  0.1281826833554644
  0.9974955985899310  0.1027603638178909  0.7755304098929380
  0.9914682664605370  0.5163657257965083  0.9760107571433746
  0.7415469770892130  0.0581711172057392  0.6054256995631221
  0.0414545700256152  0.2609124249946900  0.9984104420449087
  0.0325077452592125  0.7467852920061305  0.4632396073185679
  0.9955108224382254  0.0101384533971596  0.0022892950657927
  0.4155757084001619  0.2842349754250641  0.3308462670030261
  0.8161009503100209  0.4611896728277020  0.8543984407687994
  0.4810139927682512  0.9765069497075379  0.1030296320973048
  0.7833922423672104  0.0080936854650196  0.1286191363138000
  0.1872429012956138  0.5458188884521469  0.6291260722043812
  0.5289281911625384  0.8435365846121997  0.7151000548232741
  0.5299161159082121  0.0402715737862833  0.3663071604742536
  0.2499593535695721  0.8309999199566486  0.6283062945932205
  0.1977601910665170  0.2550221042474975  0.1312519536336221
  0.0030772121119544  0.0122909356047348  0.6363950447748440
  0.5067174030598806  0.5426152293102763  0.9707148296995735
  0.2862306552547019  0.0479449491768472  0.6206906939078332
  0.0099709891933868  0.4984333791199626  0.3747214834553074
  0.2587270461074654  0.0226889990424340  0.2364524118568334
  0.7749736240195582  0.5781381076280073  0.7451712540226396
  0.2459223824880956  0.0600024477603546  0.7465742226034227
  0.7422802878925979  0.4373480657763431  0.2445559095690319
  0.2228376286968789  0.0027807645790169  0.9866998411314900
  0.7638979564750179  0.5023079886720447  0.4898618064729819
  0.3091977184225134  0.0263402811775958  0.5052065392955520
  0.7231245274039778  0.5149464062133479  0.9965844134124942
  0.7708535745116109  0.0202013687641149  0.7476119467012948
  0.2175658088960075  0.5325105139658315  0.2550694383455212
  0.2617861662538072  0.5581867332094236  0.7428528403893585
  0.7787143862456292  0.9392643390580173  0.2457403689748646
  0.2531691978483858  0.4845934412249387  0.4872413701555387
  0.7200903736393834  0.0507907115403682  0.0110744903195840
  0.7859162981509561  0.9788814549775343  0.5006824779749086
  0.2528637415886593  0.4815483841869757  0.0083240387106389
  0.9923084953685940  0.2317490941215519  0.3794100066008260
  0.4994684479557088  0.8102993225588336  0.8827004419144071
  0.5226807736418928  0.2922174268709947  0.6296224145417872
  0.9879733212505922  0.7721004154923420  0.1274116158642639
  0.9951340754125337  0.2594283361765536  0.8748159892215549
  0.5184948637224024  0.7618187009942080  0.3728698004682557
  0.0197280892668938  0.7524348857399429  0.6117129428107249
  0.4888817156414904  0.2432681775658122  0.1188740674098319
  0.1383111244172167  0.3811470924448725  0.0597289055070748
  0.6797133062938792  0.8970799936799507  0.5587061588501607
  0.6270879971343855  0.1481084145324424  0.9577942317608865
  0.1609960966239692  0.6005080281016968  0.4301163326626672
  0.3474880131557403  0.3719051075564276  0.9516872717508377
  0.8805534690631518  0.8905575229034328  0.4375426579033259
  0.8465690791140520  0.1359648096743126  0.0589453072254165
  0.3391103916709317  0.5896890886840542  0.5362384765551016
  0.8852926541429057  0.0622733459463660  0.2140184574580023
  0.3656555686051211  0.6444534905301869  0.6893661841175192
  0.8602786494792063  0.8551707149981844  0.3109206348723040
  0.3709520075696298  0.4673611997685596  0.7964752371896029
  0.1278532655901418  0.6322722508777063  0.3132321968063810
  0.6682085098574346  0.1162840915719158  0.7974076279820952
  0.1199518047570784  0.3990847840863927  0.2041194488385963
  0.7002048890291236  0.9221469483446465  0.6766647362736924
  0.8389920779391501  0.6392259179293456  0.9451245100760065
  0.4194151068506308  0.1087708738295978  0.4431219425102557
  0.8648982440132127  0.4032418743378749  0.5453068024294730
  0.3402040178293505  0.9010559645579738  0.0406840680147330
  0.2079516493464269  0.1522988332302081  0.5514538887319635
  0.6103391246593546  0.5935108267141673  0.0531206513639007
  0.1012096512083660  0.9094492825125471  0.9426519355232680
  0.6576939282643328  0.4005824887132471  0.4360211949100435
  0.6107346523346020  0.3402639238755683  0.2857867194170228
  0.1376385034547096  0.9702658778878051  0.7935596313662779
  0.1515940257972911  0.1173626569331923  0.6858139208118424
  0.6182870538474657  0.5400543428520054  0.1892412943800196
  0.8864670735022846  0.4576104745189384  0.7002841854158609
  0.3762335936752320  0.9401319635406259  0.1967267617071530
  0.3444838841297803  0.1525563984070021  0.2817373288895534
  0.9028501258815717  0.6620076328774340  0.7989538919759851
  0.1323530234993226  0.1039478856996709  0.0538858364806807
  0.6497789746061828  0.5964574944735587  0.5442548268076904
  0.6467420674434293  0.4119258637180100  0.9365171801838115
  0.1977777011779237  0.9277800949178762  0.4509190101509000
  0.3183567555017703  0.1022579882167150  0.9335505110420714
  0.8645261857709946  0.6299848569844043  0.4506811703109634
  0.8609705824403173  0.4166052848289850  0.0327438993739190
  0.3781624247743540  0.9175013156081289  0.5647552596907384
  0.1494846357455130  0.1081511637944974  0.1859791051452457
  0.6656151520024303  0.6760664528538695  0.6945206848420030
  0.1557627679898253  0.9139396744080341  0.2883774418963416
  0.6963276561131441  0.4705196786212892  0.7979737840868775
  0.8125280767885887  0.5451559723300492  0.2965121751092329
  0.3474585343548063  0.1606958075798022  0.8002954392560708
  0.8513956854852722  0.3259104249454067  0.1993171670462142
  0.3588524631202055  0.9400114554329683  0.7079753474358440
  0.8185897274503358  0.9735034338234465  0.9420620381622513
  0.3858931228469636  0.3892434467683991  0.4392846259525993
  0.8765819458015572  0.0981467348845694  0.5414499529997545
  0.3293385306473791  0.6164391440887480  0.0628276877206450
  0.1629621445308698  0.3919443590891055  0.5556276917529719
  0.6399753745477795  0.9231147383202630  0.0603355889725726
  0.1730376279582217  0.5839428164865668  0.9320607294494875
  0.6847896619198343  0.0979356007733166  0.4511433835649455
  0.3181135416760123  0.4451519834652935  0.3205765178124238
  0.8802169727332330  0.9550436133972121  0.8064158788137031
  0.8741374517697623  0.1425216856404645  0.6903875626760695
  0.3227256856293192  0.6125451960733881  0.1909452144076272
  0.1768611673153594  0.4225148363393809  0.7027166468337221
  0.6734066455964325  0.8607474370128163  0.1754143059900035
  0.6494183786603901  0.0484202424437577  0.2796532389967858
  0.1593962594297007  0.6490524884336716  0.7991868952941730
  0.0090348131400077  0.1322128217130866  0.4339056412620229
  0.5989936566803631  0.9104768341715829  0.9120584672525986
  0.4148847885712937  0.2176295257926210  0.6643648855305869
  0.1097498456873316  0.8249152553196620  0.1624125955650978
  0.6069338031337780  0.3534765861689129  0.6864569726196967
  0.9089998996568026  0.6830091749267067  0.1769563985847001
  0.0991935800379778  0.2582700987047623  0.3246519038492681
  0.3703465471724988  0.7757932474413592  0.9234965946174880
  0.8563514060653200  0.2587361525641850  0.8411110786440179
  0.5948450292748210  0.6828837225734341  0.3205270929726078
  0.9789665188919244  0.6205199070728066  0.5826607259910763
  0.3977054143546459  0.1652173877874026  0.0709394080507112
  0.1094155147720533  0.7428196765806916  0.6725671627062829
  0.4059829360970323  0.2987901188331672  0.1704901593740950
  0.0213281167615074  0.3995555676801956  0.8969910579671765
  0.4677976385200339  0.6759388708485865  0.4277405635233361
  0.8929761172519108  0.8223358805361253  0.6411757481296733
  0.5740993648850037  0.3600186962551390  0.0963716378671582
  0.1018204032801017  0.2670785156488837  0.8142153086928624
  0.4109382350741148  0.8459963531420041  0.3394370244624327
  0.9837445355457763  0.1377880781645299  0.9201815773937700
  0.6034084486102350  0.8599645053139877  0.4036681832851189
  0.0912297506842181  0.8478251564373627  0.5572441360078682
  0.5873759356501690  0.1271276288866138  0.1440801935057641
  0.5823509701899109  0.1801163865975688  0.5970403014179816
  0.9178940146824416  0.8667954497151198  0.0712931633747496
  0.8679975296298214  0.1746757888452749  0.3419224035459105
  0.4358097181233171  0.8695566993217561  0.8148824332659079
  0.9610254338465408  0.3607493001393652  0.4197759362148911
  0.5720399919180736  0.6707057792556603  0.8837090162003874
  0.4889452320878070  0.3956283826068669  0.5781593545512401
  0.0392195007095987  0.6653298418312451  0.0781993688631823
 
 -0.52253844E-02  0.12536196E-02  0.45641697E-03
  0.17582164E-02 -0.75271414E-02  0.20025072E-02
 -0.29750066E-02  0.45133455E-02 -0.52777918E-02
  0.11036793E-01  0.76726547E-02  0.15726102E-01
 -0.15027051E-02  0.63674447E-02  0.36521823E-02
  0.17463854E-02 -0.37008034E-02  0.48622860E-02
  0.28643935E-02 -0.45333533E-02  0.11093646E-01
 -0.16608479E-02 -0.43628093E-02 -0.12648206E-01
 -0.19017560E-02 -0.75673225E-02  0.44180809E-02
  0.25722597E-02  0.95789133E-02  0.36131735E-02
 -0.20895817E-02  0.41496127E-03  0.66934937E-03
 -0.43672646E-02  0.20005749E-02 -0.47016406E-03
  0.79242805E-02 -0.25071237E-02  0.44863153E-02
 -0.42368882E-02 -0.26593478E-02  0.21478693E-02
 -0.30708094E-02  0.45992219E-02 -0.20726967E-02
 -0.63953367E-02  0.57052342E-02  0.65191053E-02
  0.34971850E-02 -0.11403276E-01  0.23251261E-02
  0.65241615E-02  0.28900369E-03  0.56331654E-02
  0.48545395E-02 -0.17909752E-02 -0.35736475E-02
 -0.26341339E-02 -0.23050503E-02  0.59693863E-02
  0.76953202E-02 -0.15014668E-02 -0.94269109E-02
 -0.28381749E-02 -0.16325770E-02 -0.10538958E-01
  0.29842844E-02  0.15476384E-01  0.10681810E-01
  0.56578791E-02 -0.11817871E-01  0.24884899E-02
  0.60521108E-03  0.69155125E-03  0.39089368E-02
  0.40807746E-02 -0.25121771E-02  0.53970716E-03
 -0.70521164E-02  0.73560395E-02  0.13096721E-03
 -0.35997880E-02  0.57312009E-02 -0.21010619E-02
 -0.71482876E-06  0.49126568E-02  0.85124475E-02
  0.20994703E-02 -0.23174663E-02  0.77520299E-02
 -0.45492306E-02  0.10342625E-01 -0.11374780E-02
  0.10689679E-02 -0.81012961E-02  0.78552310E-03
  0.11223874E-01  0.12224984E-01 -0.60804239E-02
  0.88968332E-02 -0.74081945E-03  0.95824753E-03
  0.70351248E-02 -0.27340083E-02 -0.21288017E-01
 -0.37139447E-02  0.58394920E-03 -0.76503105E-02
  0.20746579E-02 -0.15777174E-02  0.26137581E-02
 -0.29632432E-02 -0.52421297E-02 -0.10027698E-02
 -0.38123088E-02 -0.12734633E-01 -0.22702219E-02
 -0.10912092E-02  0.14710709E-02 -0.22969771E-02
  0.11108956E-02  0.15585137E-02  0.36320782E-02
  0.58716742E-02  0.92514975E-03 -0.14131751E-02
  0.28527353E-02 -0.41687991E-02 -0.74447592E-03
  0.22185247E-02 -0.88946488E-02 -0.79640119E-02
  0.48175228E-02 -0.18445562E-03  0.29625767E-02
  0.10000425E-02  0.14481613E-01  0.65676050E-03
  0.20532066E-02 -0.30274199E-02 -0.24969698E-02
  0.93979154E-02  0.97439664E-03 -0.16917987E-01
  0.51399112E-02  0.51361173E-03  0.87188116E-03
 -0.49178438E-02 -0.50815824E-02 -0.15330201E-02
 -0.11618078E-01  0.22051423E-02 -0.71218945E-02
  0.24226246E-02 -0.16667151E-02  0.11788612E-03
 -0.19605347E-02 -0.40474578E-02 -0.11334433E-01
 -0.44330607E-02 -0.44108448E-02 -0.78104387E-03
  0.15526644E-02 -0.17722508E-02 -0.17107539E-02
  0.18475345E-02  0.96026001E-03 -0.53789979E-02
  0.42966623E-02  0.21108031E-02 -0.10748826E-02
  0.15110996E-02 -0.52582104E-03 -0.18457097E-03
 -0.16527823E-02  0.25968340E-02 -0.69835646E-02
  0.22209950E-02 -0.83829900E-02  0.32946677E-02
  0.19881594E-03 -0.82027173E-03 -0.30275175E-02
 -0.26274551E-02  0.26937149E-02 -0.90228816E-02
 -0.11262949E-02 -0.28551835E-02 -0.57413018E-02
 -0.88112859E-02 -0.55277357E-02  0.19698895E-02
  0.76781280E-03  0.10794200E-02 -0.23500865E-02
  0.98833131E-02 -0.39539833E-02 -0.93277804E-02
  0.25183110E-02  0.87804456E-03  0.64716708E-02
 -0.86387095E-02 -0.25190724E-02  0.37038977E-02
 -0.72792153E-03  0.82892832E-02  0.43091063E-02
  0.12583022E-01  0.22836041E-02 -0.14741289E-02
  0.31305832E-02  0.36176684E-02 -0.42695438E-02
 -0.59199697E-02 -0.21998768E-02 -0.40472353E-02
 -0.13164207E-02  0.14380507E-02  0.25978227E-03
 -0.91666002E-02 -0.93928834E-03  0.15889134E-02
  0.63517535E-02  0.64468522E-02 -0.37982795E-02
 -0.33590969E-03  0.73739918E-02 -0.10142134E-01
  0.13190057E-01 -0.57838823E-02  0.46311348E-02
  0.34560464E-02 -0.83803591E-02  0.31417196E-02
  0.19012598E-02 -0.59102227E-02  0.62314782E-02
 -0.85733659E-02  0.10445483E-01 -0.36507293E-02
 -0.95733877E-02  0.61445440E-02 -0.40549708E-02
 -0.76952850E-02  0.81161634E-02  0.60838323E-02
  0.46130282E-02 -0.59520701E-02 -0.27594326E-02
 -0.57487477E-02 -0.21889882E-02  0.10933400E-02
 -0.13499948E-01  0.11920278E-02  0.69619594E-02
 -0.10210075E-02  0.34437992E-02  0.81176832E-02
  0.19758113E-04 -0.22727726E-02 -0.11772558E-02
  0.44778557E-02 -0.15077413E-03  0.23400299E-02
 -0.48527806E-02 -0.37988866E-02  0.75396692E-03
 -0.12892248E-03  0.48679421E-02 -0.30553975E-02
  0.35135902E-02 -0.66781881E-03  0.13889172E-02
 -0.99234463E-03  0.18022493E-02  0.20664921E-02
 -0.41952109E-03  0.21893338E-02 -0.24419451E-02
  0.16455716E-02  0.32139209E-03  0.13111008E-02
 -0.12037659E-02 -0.34787790E-02  0.24802669E-02
  0.31651105E-02  0.31234635E-02  0.97447626E-03
 -0.46475385E-02  0.12185671E-02 -0.12359243E-02
 -0.26269931E-02  0.10784008E-02 -0.17029364E-03
 -0.29341678E-02  0.63616056E-03  0.32808339E-02
 -0.17663721E-02  0.10929322E-02 -0.39057303E-03
 -0.30524967E-02 -0.21403701E-02 -0.12200741E-02
  0.22782137E-02 -0.33191949E-02 -0.43286481E-03
 -0.18332929E-02 -0.42936371E-02 -0.83416676E-03
  0.19728536E-02  0.44616082E-03 -0.34699874E-04
  0.49963683E-02 -0.83633654E-02 -0.34052502E-02
 -0.61654762E-02 -0.99493905E-04 -0.12320544E-02
 -0.39154998E-02 -0.47244749E-03 -0.25891828E-02
  0.28480661E-02 -0.36304758E-02 -0.10766386E-02
  0.42680935E-02  0.23550445E-02 -0.46286009E-02
  0.53541953E-02 -0.34818607E-02 -0.92506978E-02
  0.78632276E-02  0.10029130E-02 -0.20876680E-02
 -0.76955620E-03 -0.99459168E-03 -0.34123725E-02
  0.10289245E-02 -0.19123840E-02  0.76407152E-03
  0.86311209E-03  0.70725887E-03  0.54496957E-03
  0.19702525E-03 -0.85321633E-02 -0.67914620E-02
 -0.55565250E-02  0.44673787E-02 -0.20604537E-02
 -0.16461171E-02  0.49347414E-02 -0.16031323E-02
  0.59646757E-02 -0.31314987E-02  0.20465282E-02
 -0.63390544E-02 -0.21783562E-02  0.22493080E-02
  0.63493023E-03 -0.23617476E-02  0.42195819E-02
 -0.78550312E-02 -0.31618862E-03 -0.15959658E-02
  0.51973654E-02 -0.51149550E-03  0.10694581E-01
  0.59518853E-02 -0.11027546E-02  0.33460998E-02
  0.50751335E-02  0.15109584E-02 -0.17347513E-03
 -0.11993300E-02  0.23018847E-02  0.30667091E-02
  0.36243866E-02 -0.36606717E-04 -0.34349034E-02
 -0.96142054E-02 -0.94758969E-03  0.34356132E-02
  0.17118957E-02 -0.33969956E-02 -0.31775824E-02
 -0.90754991E-04 -0.24154550E-02  0.72226039E-02
 -0.31051883E-03 -0.95615405E-03  0.68345735E-02
  0.61605881E-02  0.23540876E-02 -0.28003419E-02
 -0.14390599E-02 -0.52233266E-02  0.10612809E-02
  0.14934460E-02 -0.10705299E-03 -0.34717279E-02
 -0.10405611E-01 -0.46965987E-02  0.21605554E-02
  0.18408540E-02 -0.35974217E-02 -0.25305662E-02
  0.78492899E-02 -0.17702000E-02  0.70072678E-02
  0.51725034E-02  0.25228419E-02 -0.61823437E-02
  0.74075915E-02  0.61001078E-02 -0.10591968E-01
 -0.23493720E-02  0.44890016E-02 -0.16800376E-02
 -0.37100240E-02  0.68646567E-03 -0.56880270E-02
 -0.16791926E-02  0.33939953E-02  0.54040039E-02
 -0.24970009E-02 -0.32111348E-02  0.10869369E-01
  0.74357405E-03 -0.96091124E-02  0.70321937E-02
  0.12432616E-01 -0.25100587E-02  0.58880485E-02
  0.46800992E-02  0.10859598E-01 -0.31666549E-02
 -0.31924971E-02  0.87442326E-03  0.28748744E-02
  0.37826733E-02  0.47408762E-02  0.29666818E-02
 -0.28047901E-02  0.31275167E-03  0.59408131E-02
 -0.17113403E-02 -0.43943871E-02  0.37658989E-02
 -0.47510812E-02 -0.40618008E-02  0.13466137E-02
  0.96748089E-02  0.10395360E-01  0.72394424E-02
  0.67174480E-02  0.81421152E-02 -0.50794422E-03
  0.98452332E-02 -0.39629287E-02  0.56020186E-02
 -0.64560639E-02  0.37803884E-03 -0.46390918E-02
  0.63512675E-03  0.99799444E-02 -0.54938926E-02
 -0.28709956E-02 -0.32616527E-02 -0.16632915E-02
 -0.82486153E-03 -0.55674511E-02  0.47806677E-03
 -0.18562531E-02  0.67969505E-02 -0.34764918E-03
 -0.61455216E-02  0.23056864E-02  0.78005625E-02
 -0.26219311E-02 -0.96108423E-02 -0.91159882E-02
 -0.52396942E-02 -0.44852749E-02 -0.47374912E-02
  0.35061409E-02 -0.30742633E-02 -0.21848702E-02
  0.62207993E-02  0.33640076E-02 -0.16830084E-02
  0.16921704E-02  0.14285063E-02 -0.21716739E-02
  0.60612979E-02 -0.73682868E-02  0.12386667E-02
  0.37459963E-03 -0.41810785E-02 -0.13045381E-02
  0.34662173E-02 -0.85699775E-02  0.14183769E-03
 -0.56598210E-02  0.68782294E-02  0.18363787E-01
 -0.12348097E-01  0.19542404E-02 -0.97710713E-03
 -0.57294157E-02  0.12595470E-02 -0.68851937E-02
 -0.45282942E-02  0.16196929E-02  0.84061747E-02
 -0.64704678E-02 -0.14738329E-02  0.64228974E-02
 -0.35223363E-02 -0.42963560E-02  0.70371955E-02
  0.17821119E-02  0.11702863E-02  0.75546159E-02
 -0.29611637E-02 -0.51136899E-02 -0.50718527E-02
 -0.34794441E-02  0.87836819E-03 -0.73414832E-02
  0.37850762E-02  0.21897038E-02 -0.21558453E-02
 -0.70601751E-02 -0.18347142E-02  0.58412688E-02
 -0.77545484E-02 -0.31568998E-02  0.65257653E-02
  0.62614712E-03 -0.63723066E-02 -0.17151963E-02
 -0.10327899E-01 -0.91593303E-02  0.24054835E-03
  0.49897591E-02  0.67759998E-02  0.53157974E-02
 -0.61757024E-02  0.12802691E-01  0.44295636E-02
 -0.40346820E-02 -0.20467165E-02 -0.19895921E-02
  0.15223184E-02  0.23262175E-02 -0.32448138E-02
  0.45070211E-02  0.47174535E-02 -0.79714432E-02
  0.37563276E-02 -0.26684321E-02  0.41045683E-02
  0.84218475E-02 -0.19930772E-02  0.44369004E-02
  0.88884206E-02  0.43221855E-02  0.45344251E-02
  0.63031142E-02  0.65594978E-02 -0.15638396E-02
  0.51285570E-02  0.89878317E-03 -0.37591428E-02
  0.40871077E-02 -0.79185760E-03  0.49794737E-02
  0.68396829E-02 -0.38005270E-02 -0.31929058E-02
 -0.11547824E-01  0.13660492E-01 -0.15128450E-02
  0.45376041E-02  0.61865187E-02  0.87772419E-02
  0.10782988E-02  0.79996656E-02  0.99538282E-04
 -0.68671185E-02  0.68308609E-02 -0.46088440E-02
 -0.55715487E-02 -0.26778942E-02  0.43893376E-03
  0.17036674E-02 -0.22227513E-03 -0.40929111E-02
 -0.34736108E-02  0.42840674E-02 -0.61030891E-02
  0.19896263E-02 -0.59151145E-02 -0.43221350E-02
  0.33680994E-02 -0.18060859E-02  0.40500275E-02
 -0.11882802E-03 -0.22366861E-03 -0.83317907E-02
 -0.16148804E-02 -0.41800365E-02 -0.11286135E-01
  0.43698275E-02 -0.11726402E-02  0.12939037E-02
 -0.34977684E-02  0.14747358E-02  0.16381551E-02
 -0.76318084E-02  0.39280977E-02 -0.16897638E-02
  0.12510834E-01  0.78680188E-03 -0.62177697E-02
 
           1
   2.00000000000000     
  0.83190664E+00  0.20562140E-02  0.00000000E+00  0.00000000E+00
  0.60872878E+00  0.25950096E+00  0.49464197E+00
  0.17930484E+00  0.15483234E+00  0.88088667E+00
  0.23827168E-01  0.63760467E+00  0.87987927E+00
  0.72572885E+00  0.68381397E+00  0.22397609E+00
  0.73153749E+00  0.77230592E+00  0.98768102E+00
  0.35238804E-01  0.48160111E+00  0.77958882E+00
  0.20875751E+00  0.76690789E+00  0.24465132E+00
  0.77541713E-01  0.49623925E+00  0.12723828E+00
  0.75495803E+00  0.27636461E+00  0.74969739E+00
  0.82766733E+00  0.76569731E+00  0.52497227E+00
  0.61461834E+00  0.75595211E+00  0.49242724E+00
  0.96293570E+00  0.78403270E+00  0.98139884E+00
  0.46825811E+00  0.52090681E+00  0.26757654E+00
  0.30413740E+00  0.74055360E+00  0.48569081E+00
  0.50625332E+00  0.50886316E+00  0.48699221E+00
  0.21658569E+00  0.26824627E+00  0.40664602E+00
  0.27718080E+00  0.94134094E+00  0.88150871E+00
  0.27041192E-01  0.33353119E+00  0.69548207E+00
  0.26701633E+00  0.22659389E+00  0.40320410E-02
  0.97228010E+00  0.49212121E+00  0.24270215E+00
  0.65806827E-01  0.16246670E-01  0.50851485E+00
  0.21650176E+00  0.28326888E+00  0.25543423E+00
  0.32908339E+00  0.60332560E+00  0.87107653E+00
  0.23795903E+00  0.26939427E+00  0.63275924E+00
  0.78820017E+00  0.27323848E+00  0.97216264E+00
  0.11808882E-01  0.83805762E+00  0.75443920E+00
  0.53692953E+00  0.28733277E+00  0.99248565E+00
  0.74697822E+00  0.26575789E+00  0.11507791E+00
  0.62677743E+00  0.50932883E+00  0.36124992E+00
  0.49288917E+00  0.81062737E+00  0.99544393E+00
  0.80108295E+00  0.74809154E+00  0.38895180E+00
  0.50641463E+00  0.13110418E-01  0.63154805E+00
  0.71624089E+00  0.74604541E+00  0.10785740E+00
  0.19618875E+00  0.74827651E+00  0.10664433E-01
  0.75795486E+00  0.55871031E-01  0.86303218E+00
  0.38226211E+00  0.25612971E+00  0.53012111E+00
  0.75997551E+00  0.14997188E-01  0.37235716E+00
  0.29338457E+00  0.31190318E-02  0.37331495E+00
  0.48613143E+00  0.59688805E-01  0.26617742E-02
  0.77862176E+00  0.61546734E+00  0.62359003E+00
  0.85662990E+00  0.22923871E+00  0.46629708E+00
  0.29421601E+00  0.77953701E+00  0.78462608E+00
  0.50839404E+00  0.12587180E+00  0.23016371E+00
  0.33025715E-01  0.51993270E+00  0.50274760E+00
  0.50740600E+00  0.58238036E+00  0.75267838E+00
  0.54030605E+00  0.96784288E+00  0.49537567E+00
  0.32483280E+00  0.60756114E+00  0.37142048E+00
  0.27506457E+00  0.31638283E-01  0.10639045E+00
  0.22760700E+00  0.39194326E+00  0.87485353E+00
  0.77200067E+00  0.52177299E+00  0.11348340E+00
  0.54447255E+00  0.37617183E+00  0.81342099E+00
  0.13563594E-01  0.75930416E+00  0.25691522E+00
  0.28825202E-01  0.22600218E+00  0.55084304E+00
  0.54241517E+00  0.86891728E+00  0.25126096E+00
  0.98739836E+00  0.22339305E+00  0.24451230E+00
  0.82196857E+00  0.80120763E+00  0.85732930E+00
  0.99106803E+00  0.35898012E-01  0.29238620E+00
  0.51704688E+00  0.58290444E+00  0.62813795E+00
  0.49704569E+00  0.34797078E-01  0.85165304E+00
  0.73931374E+00  0.31938334E+00  0.35951538E+00
  0.74600170E+00  0.17767357E+00  0.22649529E+00
  0.99140704E+00  0.59891280E+00  0.69002182E+00
  0.98867601E+00  0.38939108E-01  0.11565523E+00
  0.29979588E+00  0.31059786E+00  0.74961745E+00
  0.28516072E-01  0.93014326E+00  0.38405325E+00
  0.49191535E+00  0.10916982E+00  0.74900703E+00
  0.41175996E+00  0.47868485E+00  0.13010960E+00
  0.75664468E+00  0.29552063E+00  0.61439091E+00
  0.28540307E+00  0.76651943E+00  0.12850232E+00
  0.99936233E+00  0.10309914E+00  0.77542106E+00
  0.99193270E+00  0.51690242E+00  0.97569406E+00
  0.74066873E+00  0.57844758E-01  0.60512549E+00
  0.41259275E-01  0.26112576E+00  0.99842971E+00
  0.31147850E-01  0.74664595E+00  0.46335747E+00
  0.99645313E+00  0.11094865E-01  0.20075514E-02
  0.41552588E+00  0.28532893E+00  0.33009396E+00
  0.81805774E+00  0.46033161E+00  0.85474196E+00
  0.48152671E+00  0.97526370E+00  0.10326267E+00
  0.78367430E+00  0.72168845E-02  0.12908137E+00
  0.18597101E+00  0.54736851E+00  0.62885527E+00
  0.52750795E+00  0.84444815E+00  0.71479927E+00
  0.52877450E+00  0.41475633E-01  0.36675844E+00
  0.25064371E+00  0.83011691E+00  0.62810161E+00
  0.19690735E+00  0.25469736E+00  0.13133305E+00
  0.10744505E-02  0.12467777E-01  0.63691146E+00
  0.50656593E+00  0.54312613E+00  0.97131697E+00
  0.28623359E+00  0.47607776E-01  0.62060337E+00
  0.10635294E-01  0.49841101E+00  0.37489506E+00
  0.25800712E+00  0.22125422E-01  0.23650834E+00
  0.77495450E+00  0.57886028E+00  0.74494461E+00
  0.24644364E+00  0.59903375E-01  0.74667725E+00
  0.74213307E+00  0.43761544E+00  0.24470920E+00
  0.22277539E+00  0.31055594E-02  0.98651871E+00
  0.76414208E+00  0.50235567E+00  0.48995906E+00
  0.30901914E+00  0.25824193E-01  0.50539052E+00
  0.72359408E+00  0.51540978E+00  0.99665670E+00
  0.77016410E+00  0.20382147E-01  0.74752027E+00
  0.21717609E+00  0.53267050E+00  0.25505681E+00
  0.26135087E+00  0.55828111E+00  0.74309620E+00
  0.77845234E+00  0.93942648E+00  0.24571140E+00
  0.25271635E+00  0.48427591E+00  0.48715087E+00
  0.72042835E+00  0.50298298E-01  0.11042382E-01
  0.78564432E+00  0.97824448E+00  0.50062060E+00
  0.25315642E+00  0.48161457E+00  0.83214648E-02
  0.99304972E+00  0.23050836E+00  0.37915742E+00
  0.49855378E+00  0.81028456E+00  0.88260905E+00
  0.52209990E+00  0.29214734E+00  0.62943036E+00
  0.98839584E+00  0.77156182E+00  0.12733175E+00
  0.99576726E+00  0.25977771E+00  0.87447266E+00
  0.51928918E+00  0.76130216E+00  0.37218361E+00
  0.20894625E-01  0.75258367E+00  0.61155809E+00
  0.48876755E+00  0.24312063E+00  0.11862095E+00
  0.13846377E+00  0.38086338E+00  0.59785582E-01
  0.67984135E+00  0.89718492E+00  0.55874658E+00
  0.62711723E+00  0.14684264E+00  0.95729046E+00
  0.16017177E+00  0.60117078E+00  0.42996350E+00
  0.34724381E+00  0.37263719E+00  0.95156836E+00
  0.88143835E+00  0.89009295E+00  0.43769446E+00
  0.84562866E+00  0.13564164E+00  0.59112153E-01
  0.33920459E+00  0.58933872E+00  0.53655147E+00
  0.88412733E+00  0.62226438E-01  0.21390007E+00
  0.36642661E+00  0.64437761E+00  0.69015947E+00
  0.86116163E+00  0.85500712E+00  0.31116884E+00
  0.37170492E+00  0.46758536E+00  0.79646237E+00
  0.12767534E+00  0.63261374E+00  0.31345967E+00
  0.66874620E+00  0.11627866E+00  0.79715284E+00
  0.11852551E+00  0.39894421E+00  0.20437429E+00
  0.70045885E+00  0.92164299E+00  0.67642903E+00
  0.83897861E+00  0.63886758E+00  0.94566026E+00
  0.41936904E+00  0.10862903E+00  0.44362891E+00
  0.86581219E+00  0.40359111E+00  0.54509908E+00
  0.33999053E+00  0.90028107E+00  0.40762790E-01
  0.20817321E+00  0.15228295E+00  0.55119637E+00
  0.60879542E+00  0.59281407E+00  0.53280914E-01
  0.10148275E+00  0.90891559E+00  0.94246423E+00
  0.65885840E+00  0.40031987E+00  0.43654097E+00