Na88 Ge16 P8 S96                        
   1.00000000000000     
    13.3422163233000006    0.0000000000000000    0.0000000000000000
     0.0000000000000000   13.3422163233000006    0.0000000000000000
     0.0000000000000000    0.0000000000000000   26.6844326466999995
   Na   Ge   P    S 
    88    16     8    96
Direct
  0.9988430601610750  0.9786570784465992  0.1380998860060760
  0.6852288020230117  0.7265404473290927  0.7724983536278993
  0.3029725527711730  0.5225847433242840  0.8715331408638822
  0.0024718449184390  0.9417528072498501  0.3726815917554861
  0.7686663019273702  0.0129476637343874  0.8793991101050775
  0.2389228925429463  0.5223981712950675  0.3747241967287720
  0.0074081327066300  0.4738685179898378  0.1156197775235334
  0.2241990375186683  0.2561918868610907  0.1263464949280230
  0.6977929189632491  0.0120990205108030  0.6335496516589182
  0.7224069679155938  0.2631591495439039  0.6155432382790929
  0.7361708186430680  0.9898768592130102  0.3710771952068085
  0.2370473038974153  0.2172580485517279  0.8871522665666609
  0.7858578991512102  0.2326196468472793  0.1298035532968686
  0.2700307299047317  0.4888353645763188  0.6143031930485554
  0.1464363137373253  0.0001834923640278  0.8894830835959951
  0.6679770718749558  0.5220807812224426  0.3833803803116726
  0.9708436661349383  0.9921021674747155  0.6314775786603661
  0.9967310457971977  0.4826271218958616  0.4830549178230807
  0.5107736333430437  0.4560989439105022  0.9975415020772757
  0.0207859732484375  0.4835505078294440  0.8837601129794846
  0.4997794851561117  0.9552043635503412  0.1237787842825682
  0.2363298694390634  0.0089046777248403  0.3776448181471215
  0.7781329576272026  0.4909582285524097  0.8793050709092279
  0.7635454988312951  0.4786530773715474  0.6316862779709796
  0.2881767685597385  0.7385962430657940  0.1316929584440341
  0.2040040938641496  0.2426168315664764  0.6308040551577063
  0.7274068686370243  0.7575356023992732  0.1326091866539197
  0.7293360925086338  0.2211822762984710  0.4948368415664331
  0.2760673706710383  0.7717043382744277  0.4861177459313256
  0.5087425289681575  0.4688060359676460  0.8834947280804794
  0.9631358586933152  0.0066798199954336  0.4899630107974019
  0.9947184968562115  0.7384734433474878  0.7681102484815469
  0.0131618658559216  0.7540381643839247  0.2637045791167418
  0.7140930441389867  0.2424785135905818  0.8773444776647066
  0.9838807825484026  0.9759359200891319  0.0017048611477823
  0.4986794156222167  0.9570700080369956  0.5026275552610677
  0.4903711741715104  0.7302650235963769  0.0238935078009141
  0.2575483040534919  0.2417836805749647  0.3736309285063657
  0.0082830568466933  0.5333188334542959  0.7368077078359470
  0.4962157512958300  0.0002768775226383  0.2350405207977468
  0.0053360870514275  0.0215285498750526  0.2632598823864448
  0.5567796375826640  0.4950392333390169  0.7528625736839485
  0.4722009425250013  0.2047297092288259  0.7551309821428240
  0.9630819700765068  0.4731519396657648  0.2416079493770895
  0.2396043429895655  0.2035916955709519  0.0046794956562057
  0.7546704415106805  0.7154605200133892  0.5011378219315484
  0.2673253021816138  0.7462637221986103  0.6188591225707472
  0.7605071655743152  0.2642838097867526  0.0004686000010527
  0.9755694205202717  0.0088598325776221  0.7696852659507399
  0.4776571594105793  0.2605300164139228  0.2546606174532197
  0.9868605790950497  0.5183291297943774  0.6135438104194519
  0.4847587533209461  0.0565181026007683  0.0087400428544162
  0.4911666894929215  0.2259317420362854  0.4912275071469304
  0.7541847707443072  0.7813788302152170  0.0056238422171170
  0.0064805956776062  0.2566835874614014  0.5235044934506632
  0.2795473580789060  0.7087914967035203  0.0019042604811377
  0.0046887734742218  0.3927110910919618  0.9976816839532819
  0.4743731352031360  0.5559890570469053  0.4784020825557145
  0.4797561828516211  0.4677063529584829  0.2651426758382933
  0.9357559666352886  0.4789815627740991  0.3665683787301129
  0.4652115038770910  0.9296390929100448  0.7589964287606729
  0.0479889086603698  0.7651227615518380  0.5039110999667454
  0.9954430805226177  0.7322109181355758  0.9926826669663992
  0.4614765670748991  0.0079574469108106  0.3695848822292577
  0.1652345691034035  0.2372008561717515  0.2611923451507391
  0.7629217690634573  0.7534957997365284  0.8886410176023666
  0.4483770942142042  0.7481366996850058  0.2455159247330978
  0.9978272026252842  0.2709792694246700  0.7578460177458956
  0.6981281872181407  0.7259609923678911  0.2540459952984759
  0.2454375332090264  0.2236078300618288  0.7658917739350655
  0.7314540311091178  0.2166866560997021  0.2481430538962932
  0.2354340675224109  0.7098074003648157  0.7356217404887501
  0.2541476578546025  0.4857288175349741  0.1186654569539243
  0.4769027707275438  0.9327790269890135  0.6303465596619291
  0.7353204422965218  0.2192256232794110  0.7605776393967032
  0.2379657624233169  0.2653166946809961  0.5117396643515035
  0.2606269029966999  0.7353248110826583  0.8699381389946075
  0.7395914020181301  0.2547614739541886  0.3548714471560097
  0.7524604186358688  0.9735877804298725  0.1288624172034977
  0.4866132242463563  0.5097382334910043  0.6030840603314614
  0.5063816645982058  0.5169718657001879  0.1131584402822767
  0.2319995955673108  0.7250358889279228  0.2885249958655265
  0.7338024288194114  0.7590877045377630  0.6399452159186025
  0.2734736404383212  0.0136071085695712  0.1258884404372104
  0.2033169502123119  0.9821722566708483  0.6292274713229984
  0.7154100840606977  0.5150538377974712  0.1413483144297940
  0.5069464172231787  0.9938584764040020  0.8836908022250711
  0.7842444899736030  0.7467441121831837  0.3846191009794833
  0.2365586441302149  0.9849343129807976  0.2502800706049381
  0.7742967987574376  0.4893532015005634  0.7516842259092232
  0.2353884887092609  0.9797143039576210  0.7598222719440744
  0.7163356767805762  0.4868776396540527  0.2478336576605717
  0.2374730227284647  0.9279120014316961  0.9984386893291540
  0.7523485930365268  0.4635258884815873  0.5008390836064370
  0.2429610925432442  0.0160155397042041  0.5056052312733229
  0.7550315947092947  0.5222698256217070  0.0011881216316194
  0.7186666763149282  0.9864231824906753  0.7485126410842912
  0.1995269895847036  0.4890677099261528  0.2473571436924518
  0.2603925345996699  0.4819594153914987  0.7511448176693594
  0.7407984580700619  0.9690620931499876  0.2560352493449157
  0.2301444257130008  0.5033295360963604  0.5133367222239515
  0.7476539139239488  0.0215294604615499  0.9975090373265784
  0.7342043221794733  0.9839603153147271  0.4941497802046286
  0.2721004003002464  0.4586014996258106  0.9947425058426870
  0.9891700318146961  0.2429311230957353  0.3699566324264614
  0.5247247156643939  0.7291717661081704  0.8827256636793904
  0.4896219189802800  0.2344630445351584  0.6204875055238844
  0.0121253318333098  0.7340702629026212  0.1271333699435648
  0.9962000646907152  0.2466109075707438  0.8835484508156924
  0.4839892270254179  0.7670320932142106  0.3851224871043986
  0.9901947114820622  0.7486139108625837  0.6382885787178004
  0.5062686887779484  0.2418538655451510  0.1273334392097462
  0.1918269000382131  0.3649863353442844  0.0472636897881749
  0.6551532762527369  0.8896075480469111  0.5554186817294310
  0.6415593165305432  0.1104478734058114  0.9512217954342318
  0.1438244021202586  0.6110329326624038  0.4609902000979617
  0.3628839149418865  0.3769685962009416  0.9376453712994790
  0.8527687789211745  0.8786777587899718  0.4460063213529393
  0.8521865934104627  0.1065419368648410  0.0483814467176799
  0.3323789578154697  0.6174348706009201  0.5464539450591982
  0.8422454882153277  0.0634026864984731  0.2048367355857304
  0.3610925199412442  0.5696935112826422  0.6959236567785740
  0.8354295683969885  0.8655485179617868  0.2956609581186291
  0.3535002717764673  0.3804346066595067  0.7959470845766978
  0.1018822976664792  0.5718322233461373  0.2988195553912358
  0.6152764371451962  0.0723134241291563  0.7940714413620633
  0.1297581815814059  0.3993445468561104  0.1889210943466602
  0.6311809544413470  0.8795195774742364  0.7006372429806446
  0.8418052895839373  0.6135277309746383  0.9518353927781106
  0.3417912007017289  0.1176316079579916  0.4494580255352437
  0.8441577926745886  0.3764373583057407  0.5560904653927116
  0.3525268095065904  0.8490313046855182  0.0609884472481644
  0.1245987708870903  0.1125237631612801  0.5443731194544320
  0.6319774697664426  0.6014795941852376  0.0621696761838119
  0.1413377770005751  0.8222841090548821  0.9529833928811079
  0.6447147326494770  0.3666766568670267  0.4595104761379014
  0.6371136155007121  0.3617178308472200  0.2858168051636858
  0.1543282159397392  0.8785837901450360  0.8137972842830445
  0.1348233219365856  0.0774670225744297  0.7138445696460771
  0.6101763864734543  0.5939192993558481  0.2154740014931102
  0.8754385326361589  0.4039159174241306  0.7031473236901445
  0.3408643408769533  0.8822990570450443  0.2129032115538949
  0.3240449896280075  0.0918418994146151  0.2962139351111663
  0.8532640318255985  0.5763834229871235  0.8085923630164336
  0.1404602693650234  0.0464677004543391  0.0423581459238183
  0.6801907096758962  0.5555342245775260  0.5585029045608426
  0.6695669686659781  0.4103210850682176  0.9467195671764704
  0.1475416015257478  0.9166513161183669  0.4583628410537118
  0.3219365416558481  0.0301367068134559  0.9492655948274122
  0.8322643816003480  0.5592817035504623  0.4498278427801345
  0.8487857387928182  0.4118090476452206  0.0488217946804844
  0.3083681843239491  0.9132284219243527  0.5533975256286663
  0.1518206589627349  0.0872196101211818  0.1966580589334279
  0.6862461397508876  0.5876523329811165  0.7002190106867545
  0.1394827489850901  0.8951254029641961  0.3052289014820307
  0.6844516847438888  0.3862447242866340  0.7953174956284146
  0.7988703740419945  0.5799956567519268  0.3076467786249909
  0.3386154214150582  0.0683757168174351  0.8086372184102228
  0.8023708842557732  0.3954039768628836  0.1992767212347857
  0.3076271521955589  0.8926526938989404  0.7003103248773536
  0.8377969476810720  0.9046553325419533  0.9480851421040687
  0.3154340741599439  0.4084302799400520  0.4533534340033316
  0.8248237184033191  0.0682912546206311  0.5559985391528419
  0.3677540018970713  0.5680270153450778  0.0435092962405527
  0.1313272678671364  0.3984221073021493  0.5600889812890393
  0.6333071164003821  0.9252304543124656  0.0411681309244052
  0.1486739421581762  0.5463766794016603  0.9622258590938041
  0.6475114765555213  0.0745372776850398  0.4471741160353863
  0.2992485191944822  0.3853481370837274  0.2981440593523387
  0.8154856169333479  0.8790448889708715  0.7974222323996742
  0.8300973183286428  0.0859383311784211  0.7089022174719625
  0.2969786084586507  0.5940808675093412  0.2041330655974941
  0.1488756319180706  0.3811064432564197  0.7086358490296055
  0.6431403898916914  0.8821928780120809  0.1966390604700315
  0.6477268980421412  0.0785686897904282  0.2962622560903719
  0.1797786224464390  0.5866196111638335  0.7980555585279436
  0.0695340210378141  0.1239321701724334  0.3428406039281328
  0.6154134322621664  0.6212858087314856  0.8508284472160852
  0.5704571283568839  0.2995625301191163  0.6739745042644263
  0.0922293609719234  0.8173185450153669  0.1758261822831788
  0.3670505440688005  0.1726714635944041  0.6575946441088217
  0.9046525331342089  0.6465253930801504  0.1721821648004958
  0.9151637034232157  0.3053484857889962  0.3139455659689061
  0.4562753992599857  0.8033545419823994  0.8291340247192559
  0.8958456469611741  0.3363576557093252  0.9163620579357884
  0.5688427729698582  0.6885769050532815  0.4330927448704991
  0.0795123318347417  0.8509969989346522  0.5980380024875102
  0.5989731477241024  0.2900500876738102  0.0765453125510643
  0.8931274194429688  0.6782018302686500  0.5861227416366779
  0.3987104123759462  0.1502423224127632  0.0901261419739910
  0.9193001044718490  0.1459285715837264  0.8367504629821845
  0.3913574808489966  0.8632863130411420  0.4200021915278766
  0.9102938582573363  0.8377836742707726  0.6881002866174107
  0.4223763060447960  0.3351933920277873  0.1645757758039229
  0.0728840856954168  0.1636791301154990  0.9394811053217811
  0.3994911187721761  0.6487953910134765  0.3395631793257356
  0.0944177200498880  0.3216660117316048  0.8360297433809983
  0.5782469196331395  0.8434826484802730  0.3390759454170367
  0.0995846248892584  0.6476514900370759  0.6601389381518800
  0.5823941092178258  0.1637378366134800  0.1787125620655518
  0.4311099022090361  0.3176251303081258  0.5646691004408559
  0.9220915156353423  0.8191285850202733  0.0830624738977579
  0.8848421393032043  0.1809987638603107  0.4215159462473757
  0.4264871862561583  0.6399251508803350  0.9247322395925377
  0.0826751799923758  0.3358263650657640  0.4086740480831684
  0.5734553203620629  0.8386965399327533  0.9271218741407590
  0.5664378201677935  0.1311363163992441  0.5843171820205423
  0.1000415583884262  0.6624102690366527  0.0748966984127757
 
 -0.19145817E-02 -0.59713363E-02  0.45712246E-02
  0.73670497E-02 -0.89336549E-02 -0.59407915E-02
 -0.34474651E-02 -0.47571093E-02 -0.37255748E-02
  0.73121554E-02 -0.60689218E-02  0.19111760E-02
  0.30588923E-02  0.19058172E-02 -0.55456774E-02
 -0.48931315E-02  0.91601714E-02  0.75781949E-03
 -0.11764777E-01  0.78979026E-02  0.68160518E-02
  0.26298580E-02  0.21050706E-03  0.41142352E-02
 -0.18243627E-02 -0.52695224E-02 -0.60388392E-02
  0.66452638E-02  0.10738235E-03  0.73866475E-02
  0.33707163E-02  0.28850440E-02 -0.10685702E-01
  0.15249605E-02  0.42939658E-03 -0.76604349E-02
  0.24928263E-03 -0.45074346E-02  0.32294951E-02
 -0.16319331E-02 -0.68298581E-02  0.95530381E-02
  0.27862054E-02  0.46232688E-02  0.49987547E-02
  0.78062147E-02  0.26050194E-03  0.20429448E-02
  0.21950453E-02  0.22694410E-02  0.51064164E-02
  0.48837635E-02  0.41617629E-02 -0.36750027E-02
  0.41961936E-02  0.60799170E-03  0.56894502E-02
  0.43362479E-02  0.52183403E-02 -0.86581930E-03
 -0.45194874E-02  0.65143426E-02 -0.25497112E-02
 -0.57247308E-02 -0.13151361E-02  0.24895341E-02
  0.58515318E-02  0.62087849E-02 -0.37788544E-02
  0.11154209E-02 -0.13189110E-02 -0.47548516E-02
  0.20732765E-02 -0.72848087E-02  0.14382875E-02
  0.40605568E-02  0.59216021E-02 -0.78271844E-04
 -0.17359450E-02  0.19282320E-02 -0.40111751E-02
 -0.15989203E-02  0.87738406E-04  0.17152824E-03
 -0.73047805E-02  0.26953064E-02  0.21359509E-02
  0.55680935E-02  0.83222466E-02  0.25676065E-02
 -0.31605737E-02  0.31556957E-02 -0.30723437E-02
 -0.84600578E-02 -0.35738181E-02  0.38216060E-02
 -0.48574331E-02  0.70358907E-02  0.12059133E-02
 -0.66441558E-02  0.66734784E-02  0.17079140E-02
  0.52723217E-02 -0.48516565E-02 -0.11436653E-02
 -0.33428425E-02 -0.61849479E-02  0.66180434E-02
  0.29842530E-02 -0.82644150E-02 -0.17280576E-02
 -0.11105311E-01  0.34398963E-04 -0.13142020E-01
 -0.42875951E-02 -0.13832018E-02 -0.43923725E-02
  0.26182274E-02 -0.59161193E-03 -0.65790613E-02
 -0.16154919E-03 -0.30291682E-02 -0.28385941E-02
 -0.17871496E-01 -0.70487192E-02 -0.21669841E-02
  0.25441862E-02  0.40699331E-02 -0.53302481E-03
  0.18903509E-02 -0.26202435E-02 -0.44425439E-02
 -0.72376636E-02  0.14688526E-02  0.59848752E-03
 -0.86075995E-02  0.82218482E-02  0.37684245E-03
 -0.72340788E-03 -0.19839106E-03  0.72837964E-03
 -0.11281631E-02  0.39760411E-02 -0.68350249E-02
  0.35136409E-02 -0.26239743E-02  0.53272548E-02
 -0.18758313E-02  0.28686266E-02  0.55467989E-03
 -0.31563146E-02 -0.36139537E-02  0.82833659E-02
 -0.14720661E-02 -0.11289061E-02  0.23427207E-02
 -0.58033227E-03 -0.36820150E-03  0.21056944E-02
  0.24104718E-02  0.21686257E-02 -0.41226910E-02
 -0.80236982E-02 -0.54205276E-03  0.72362008E-02
 -0.47530111E-02  0.34133851E-02  0.22197938E-02
 -0.36754661E-02 -0.30389531E-02  0.12469594E-01
  0.15021060E-02 -0.55228237E-02 -0.32754239E-02
 -0.83081922E-03  0.73302544E-02  0.75249560E-02
 -0.29411505E-03 -0.14516903E-02 -0.36819852E-02
  0.78584126E-02 -0.26476907E-02 -0.12423991E-02
 -0.23983869E-02 -0.82891861E-02 -0.11557398E-01
 -0.45435848E-02 -0.95623732E-02 -0.20534999E-03
  0.12490952E-02  0.27613226E-02  0.29712455E-02
 -0.78111417E-02  0.53346676E-03  0.43032726E-02
 -0.14811426E-02 -0.39604787E-02  0.17177289E-03
  0.11475475E-01 -0.10195802E-02 -0.10336624E-04
  0.16665912E-02 -0.10280716E-01 -0.69234475E-02
  0.21959254E-02 -0.17574465E-02 -0.52300001E-02
 -0.10878569E-03 -0.29582013E-02  0.15583821E-02
 -0.15777213E-02  0.52445064E-03  0.62915767E-03
 -0.20203826E-03 -0.70677786E-03 -0.53641259E-03
  0.86907783E-02  0.56867075E-03 -0.22022296E-02
  0.12993593E-02  0.37322544E-02 -0.21663740E-02
 -0.39905699E-02 -0.73388753E-02 -0.33980777E-02
  0.24212865E-02  0.42993248E-02  0.48382618E-02
  0.66182453E-03  0.14410959E-01 -0.30163003E-02
 -0.42233552E-02  0.28590839E-02 -0.27374432E-02
  0.12917834E-02  0.20357725E-02 -0.51502844E-02
 -0.29841534E-02  0.14126948E-02  0.32357914E-02
 -0.39566928E-03  0.32338237E-02 -0.49132619E-02
  0.59363893E-02 -0.10121753E-01 -0.27439172E-02
 -0.26443343E-02 -0.57448743E-02 -0.12913643E-02
  0.36424778E-02 -0.98565806E-02  0.63951042E-02
  0.11158985E-03 -0.94523298E-03 -0.80479556E-02
 -0.14433526E-02 -0.37239887E-02 -0.23075854E-02
 -0.69416931E-02  0.93992475E-02 -0.11118050E-01
 -0.50907740E-02 -0.13271253E-02  0.11038438E-01
  0.19698930E-02 -0.28729966E-03  0.74006962E-03
 -0.12854689E-02  0.26288861E-02 -0.53524373E-02
 -0.92050127E-03 -0.16898155E-02  0.13038759E-02
  0.59607347E-02  0.11261672E-02 -0.20018872E-04
  0.22949556E-02 -0.86543080E-03  0.68668007E-03
  0.22415493E-02  0.11715378E-04  0.24330799E-02
 -0.15614004E-02  0.14580594E-02  0.20942129E-02
 -0.37834762E-03  0.49744993E-04  0.62279646E-03
 -0.70991226E-03 -0.19716512E-02  0.28023455E-02
  0.37417335E-02  0.44519930E-02  0.30278389E-02
  0.19898293E-02 -0.62906753E-02  0.85824251E-03
  0.32586671E-03 -0.17116366E-02  0.11374282E-02
 -0.33524541E-02 -0.18871666E-02  0.23725701E-02
  0.37087196E-02 -0.19813790E-03  0.97804004E-03
 -0.38681768E-03  0.25624079E-02 -0.11962452E-02
  0.13083186E-02  0.16532404E-02 -0.16453374E-02
  0.14960637E-02 -0.49697459E-03 -0.93363074E-03
 -0.14220073E-03  0.24542045E-03  0.18394222E-02
  0.40194755E-02 -0.21534554E-02  0.11566587E-02
  0.42134114E-02 -0.16539694E-02  0.13523413E-02
  0.44231506E-02 -0.68012877E-03  0.39480196E-04
  0.45014022E-02  0.70970391E-02  0.53804319E-02
  0.52958354E-03  0.99542338E-02 -0.31624977E-02
 -0.42527046E-03 -0.45947626E-02 -0.36829717E-02
 -0.27443258E-02  0.95544112E-03 -0.13490531E-02
  0.25606217E-02  0.18737792E-02 -0.12395650E-02
 -0.32124893E-02  0.65053306E-03 -0.32123935E-02
 -0.93764155E-03 -0.41363069E-02  0.45089228E-02
 -0.55668205E-02  0.28411099E-02 -0.31534382E-02
  0.59339518E-02 -0.20210930E-02  0.18856593E-02
 -0.41256248E-02 -0.23675539E-02 -0.71746067E-02
 -0.15637851E-02  0.43576181E-03 -0.58913020E-04
  0.40569975E-02  0.17022415E-02  0.10402389E-02
 -0.43026015E-02 -0.24260173E-02 -0.25872025E-02
  0.64361152E-02 -0.22747256E-02 -0.26055607E-02
 -0.16851337E-02 -0.37893748E-02  0.29404430E-02
 -0.10558749E-01  0.45011186E-02  0.40309130E-02
  0.46644894E-02 -0.74060887E-02  0.30570809E-02
 -0.19611489E-02 -0.37417143E-02  0.81332070E-02
  0.18504399E-02 -0.27276819E-03  0.24496527E-02
  0.35393075E-02 -0.78529730E-02 -0.15134165E-02
  0.13169269E-02  0.40406329E-02 -0.31847101E-02
 -0.18715828E-02  0.32597349E-02 -0.87974966E-03
  0.19203421E-02 -0.38853457E-02 -0.18408362E-02
  0.34551097E-02 -0.58633679E-03 -0.61972651E-02
  0.22921246E-02 -0.12326146E-02  0.52023111E-03
  0.20669884E-02 -0.16083847E-02 -0.28774066E-02
  0.21490928E-02  0.14729489E-02 -0.46598884E-02
  0.95652803E-03  0.33802364E-02 -0.30828876E-03
 -0.69609204E-02  0.32029011E-02  0.74792227E-03
 -0.10506898E-02  0.70994193E-02 -0.32835549E-02
  0.32921832E-02  0.46407145E-02 -0.52995364E-02
  0.72938289E-02 -0.35613123E-02 -0.23086029E-02
 -0.34213043E-03  0.35820744E-02 -0.36838396E-02
 -0.15001198E-02  0.11805590E-02  0.36073323E-02
 -0.26076807E-02  0.77769252E-02 -0.22019705E-02
  0.71261555E-02 -0.31534268E-02  0.57783260E-03
 -0.26895747E-02 -0.26663212E-02  0.14832867E-02
 -0.27872744E-02 -0.37386691E-02  0.19135228E-02
 -0.41258624E-02  0.60231358E-02 -0.45357657E-02
 -0.37440706E-02  0.24468286E-02  0.68661231E-02
 -0.46318705E-03  0.11509427E-02  0.11707744E-02
 -0.32554656E-02 -0.13444927E-01  0.74849019E-02
  0.57434374E-02  0.25063765E-02  0.27525198E-02
  0.20119196E-02 -0.21512630E-02  0.46876647E-02
  0.45664400E-02 -0.12724636E-02  0.24443770E-02
  0.23849729E-02  0.29571668E-02 -0.27927514E-02
 -0.52787065E-02  0.17483813E-02  0.56872383E-02
 -0.11053281E-02  0.20340549E-02 -0.28047187E-02
 -0.79369051E-02 -0.53743160E-02  0.24298922E-03
  0.57238863E-02 -0.13763066E-02  0.12839797E-03
 -0.30211257E-02  0.91637006E-03 -0.32609333E-02
  0.24514501E-02  0.33550086E-02 -0.82560816E-03
  0.92710246E-03 -0.72870083E-03 -0.59004321E-02
 -0.18738469E-03  0.41278034E-02 -0.42665076E-02
 -0.24737025E-03 -0.10130896E-01 -0.70249594E-02
 -0.22114826E-02  0.11563979E-02 -0.18153555E-02
 -0.47262394E-02  0.49604999E-02 -0.90527179E-02
  0.15349108E-02  0.10229020E-02 -0.85279276E-02
 -0.42260185E-02 -0.12430503E-02 -0.72668291E-02
 -0.17296577E-02  0.54867628E-04  0.28551593E-02
  0.48828551E-02 -0.13180790E-02  0.41960680E-02
 -0.27754129E-02 -0.46460201E-03 -0.12793712E-05
 -0.11243801E-02  0.36567644E-02  0.38300617E-03
  0.10312002E-02 -0.37721199E-02 -0.42596108E-02
  0.69314001E-02 -0.40379832E-02  0.31798038E-02
  0.44574060E-03 -0.19964229E-02  0.66587794E-02
  0.65358814E-02  0.38206405E-02  0.51951152E-02
 -0.18671436E-02 -0.13089339E-02  0.41338774E-03
  0.30041941E-02  0.41232835E-02 -0.46202588E-02
 -0.57838113E-03  0.12999285E-02  0.82641467E-02
 -0.74699671E-02  0.10890606E-01  0.36486966E-02
 -0.40431198E-02 -0.51123088E-02 -0.41185498E-02
 -0.84155273E-02 -0.11481652E-02  0.47096174E-02
  0.24349689E-02  0.46993815E-02  0.22957031E-02
  0.45773875E-04 -0.51395794E-02 -0.83085262E-03
 -0.10169080E-01 -0.55625503E-02  0.14406332E-02
  0.22867865E-02  0.71715680E-02 -0.15560578E-02
  0.91822989E-03  0.47292454E-02  0.34711372E-02
  0.18781600E-02 -0.60105540E-02  0.17501074E-02
  0.56382657E-03  0.84855963E-02  0.14863248E-02
 -0.42818941E-02 -0.10888985E-02 -0.60529805E-02
 -0.27812053E-03 -0.36644857E-02  0.37890119E-02
 -0.16658613E-02 -0.18540429E-02  0.76430198E-02
  0.49518599E-02  0.10515661E-02 -0.14269826E-02
 -0.59783922E-02 -0.48371037E-02 -0.86143932E-02
  0.33321062E-02 -0.15115473E-02  0.32957078E-02
  0.70261545E-02  0.75925720E-02  0.41231525E-02
 -0.12691558E-03 -0.57754668E-02  0.21175241E-02
 -0.16563001E-02  0.44404780E-02 -0.26795837E-02
  0.13732878E-02  0.87794302E-02 -0.16643188E-02
 -0.32700550E-02 -0.14372362E-02  0.18200081E-02
 -0.33358676E-02 -0.49358169E-02  0.11136779E-02
  0.86786159E-02 -0.80025315E-03 -0.44909891E-02
 -0.83816827E-02  0.58760660E-04  0.11450088E-02
  0.28709975E-02  0.36698776E-03  0.37805373E-02
 -0.17296581E-02  0.41839210E-02 -0.46423516E-02
 -0.37295267E-02 -0.43290854E-02  0.14990946E-02
 -0.53880828E-03  0.80572995E-02  0.78476360E-02
  0.59774469E-02 -0.21921423E-02  0.35710400E-03
 
           1
   2.00000000000000     
  0.94824348E+00  0.12717901E-02  0.00000000E+00  0.00000000E+00
  0.99855606E+00  0.97776197E+00  0.13844250E+00
  0.68633312E+00  0.72520129E+00  0.77205309E+00
  0.30245578E+00  0.52187165E+00  0.87125391E+00
  0.35679380E-02  0.94084308E+00  0.37282483E+00
  0.76912483E+00  0.13233346E-01  0.87898346E+00
  0.23818941E+00  0.52377128E+00  0.37478100E+00
  0.56445911E-02  0.47505241E+00  0.11613064E+00
  0.22459325E+00  0.25622344E+00  0.12665486E+00
  0.69751945E+00  0.11309118E-01  0.63309704E+00
  0.72340309E+00  0.26317525E+00  0.61609687E+00
  0.73667609E+00  0.99030933E+00  0.37027630E+00
  0.23727590E+00  0.21732242E+00  0.88657812E+00
  0.78589527E+00  0.23194398E+00  0.13004560E+00
  0.26978610E+00  0.48781157E+00  0.61501919E+00
  0.14685397E+00  0.87652097E-03  0.88985774E+00
  0.66914722E+00  0.52211983E+00  0.38353350E+00
  0.97117270E+00  0.99244236E+00  0.63186030E+00
  0.99746312E+00  0.48325097E+00  0.48277948E+00
  0.51140264E+00  0.45619008E+00  0.99796793E+00
  0.21435977E-01  0.48433274E+00  0.88369522E+00
  0.49910201E+00  0.95618086E+00  0.12358768E+00
  0.23547173E+00  0.87075387E-02  0.37783141E+00
  0.77901010E+00  0.49188893E+00  0.87902185E+00
  0.76371270E+00  0.47845537E+00  0.63132990E+00
  0.28848755E+00  0.73750425E+00  0.13180076E+00
  0.20461277E+00  0.24350448E+00  0.63079819E+00
  0.72714665E+00  0.75782464E+00  0.13230855E+00
  0.72909641E+00  0.22119543E+00  0.49484970E+00
  0.27497238E+00  0.77210837E+00  0.48627784E+00
  0.50957719E+00  0.47005354E+00  0.88368717E+00
  0.96266209E+00  0.71528592E-02  0.48973274E+00
  0.99345033E+00  0.73793773E+00  0.76839668E+00
  0.12433736E-01  0.75509285E+00  0.26379496E+00
  0.71309708E+00  0.24347887E+00  0.87747249E+00
  0.98467110E+00  0.97520866E+00  0.16191434E-02
  0.49817832E+00  0.95614288E+00  0.50312358E+00
  0.49081851E+00  0.72902619E+00  0.23763990E-01
  0.25588362E+00  0.24178884E+00  0.37264593E+00
  0.76403458E-02  0.53311149E+00  0.73647850E+00
  0.49660822E+00  0.18819482E-03  0.23454742E+00
  0.53118708E-02  0.21074477E-01  0.26304713E+00
  0.55410070E+00  0.49398263E+00  0.75270016E+00
  0.47258232E+00  0.20533979E+00  0.75509103E+00
  0.96336533E+00  0.47275916E+00  0.24127498E+00
  0.23851942E+00  0.20381188E+00  0.47243523E-02
  0.75338016E+00  0.71669298E+00  0.50116607E+00
  0.26721686E+00  0.74623398E+00  0.61891371E+00
  0.76033805E+00  0.26487982E+00  0.99995631E+00
  0.97609612E+00  0.84664985E-02  0.77008454E+00
  0.47737597E+00  0.26096002E+00  0.25470219E+00
  0.98638745E+00  0.51778740E+00  0.61416465E+00
  0.48453809E+00  0.56348879E-01  0.89156299E-02
  0.49107970E+00  0.22587655E+00  0.49138533E+00
  0.75454610E+00  0.78170391E+00  0.53148463E-02
  0.52778423E-02  0.25660233E+00  0.52404685E+00
  0.27883488E+00  0.70930316E+00  0.20706342E-02
  0.41378206E-02  0.39225555E+00  0.99861628E+00
  0.47459830E+00  0.55516119E+00  0.47815659E+00
  0.47963164E+00  0.46880516E+00  0.26570667E+00
  0.93571188E+00  0.47876395E+00  0.36629241E+00
  0.46638948E+00  0.92924220E+00  0.75890331E+00
  0.47629390E-01  0.76388021E+00  0.50304487E+00
  0.99476200E+00  0.73077752E+00  0.99266728E+00
  0.46166381E+00  0.83713695E-02  0.36980758E+00
  0.16406368E+00  0.23728082E+00  0.26151488E+00
  0.76269975E+00  0.75290212E+00  0.88865389E+00
  0.45009727E+00  0.74798386E+00  0.24551515E+00
  0.99807702E+00  0.26943819E+00  0.75732710E+00
  0.69845736E+00  0.72569755E+00  0.25365401E+00
  0.24542123E+00  0.22316440E+00  0.76600857E+00
  0.73121753E+00  0.21676527E+00  0.24819021E+00
  0.23540378E+00  0.70970145E+00  0.73558154E+00
  0.25545041E+00  0.48581406E+00  0.11850040E+00
  0.47709754E+00  0.93333849E+00  0.63018419E+00
  0.73472226E+00  0.21812552E+00  0.76032295E+00
  0.23832871E+00  0.26596116E+00  0.51210229E+00
  0.26072611E+00  0.73748502E+00  0.86971207E+00
  0.73895832E+00  0.25519005E+00  0.35466628E+00
  0.75265406E+00  0.97389294E+00  0.12847640E+00
  0.48616590E+00  0.50995000E+00  0.60332658E+00
  0.50632235E+00  0.51745662E+00  0.11279019E+00
  0.23288946E+00  0.72351864E+00  0.28831934E+00
  0.73340604E+00  0.75822655E+00  0.63984843E+00
  0.27401965E+00  0.12129606E-01  0.12636775E+00
  0.20333368E+00  0.98203057E+00  0.62862428E+00
  0.71519373E+00  0.51449561E+00  0.14117536E+00
  0.50590586E+00  0.99526742E+00  0.88285750E+00
  0.78348138E+00  0.74654518E+00  0.38544643E+00
  0.23685393E+00  0.98489125E+00  0.25033554E+00
  0.77410411E+00  0.48974727E+00  0.75128306E+00
  0.23525051E+00  0.97946100E+00  0.75992000E+00
  0.71722919E+00  0.48704645E+00  0.24783216E+00
  0.23781704E+00  0.92778227E+00  0.99849016E+00
  0.75268460E+00  0.46352764E+00  0.50102144E+00
  0.24272704E+00  0.16234103E-01  0.50576219E+00
  0.75497488E+00  0.52227728E+00  0.12348003E-02
  0.71856026E+00  0.98612763E+00  0.74872268E+00
  0.20008788E+00  0.48973506E+00  0.24758408E+00
  0.26069081E+00  0.48101644E+00  0.75120914E+00
  0.74084731E+00  0.96880552E+00  0.25612050E+00
  0.22964189E+00  0.50304665E+00  0.51351455E+00
  0.74820985E+00  0.21499760E-01  0.99758234E+00
  0.73414634E+00  0.98434442E+00  0.49406012E+00
  0.27229652E+00  0.45884932E+00  0.99461919E+00
  0.98939429E+00  0.24285663E+00  0.36988666E+00
  0.52470340E+00  0.72920855E+00  0.88286353E+00
  0.49022444E+00  0.23414024E+00  0.62057420E+00
  0.12756923E-01  0.73382233E+00  0.12723473E+00
  0.99686310E+00  0.24650896E+00  0.88355141E+00
  0.48466399E+00  0.76809594E+00  0.38552575E+00
  0.99027410E+00  0.75010605E+00  0.63805155E+00
  0.50620494E+00  0.24116511E+00  0.12705740E+00
  0.19141553E+00  0.36512956E+00  0.47162578E-01
  0.65553711E+00  0.88988843E+00  0.55532578E+00
  0.64107776E+00  0.11054539E+00  0.95098103E+00
  0.14368385E+00  0.61041290E+00  0.46132814E+00
  0.36204945E+00  0.37739448E+00  0.93740902E+00
  0.85365828E+00  0.87837480E+00  0.44614765E+00
  0.85156816E+00  0.10618704E+00  0.47843709E-01
  0.33214455E+00  0.61750019E+00  0.54644953E+00
  0.84285363E+00  0.63657853E-01  0.20491470E+00
  0.36044756E+00  0.56932985E+00  0.69572975E+00
  0.83639434E+00  0.86520754E+00  0.29546567E+00
  0.35324767E+00  0.37986658E+00  0.79616747E+00
  0.10029954E+00  0.57250694E+00  0.29912167E+00
  0.61597564E+00  0.71203250E-01  0.79430057E+00
  0.12946421E+00  0.39878366E+00  0.18953068E+00
  0.63145834E+00  0.87947869E+00  0.70082084E+00
  0.84233583E+00  0.61235057E+00  0.95172196E+00
  0.34198861E+00  0.11823730E+00  0.44921933E+00
  0.84387724E+00  0.37692599E+00  0.55602453E+00
  0.35281467E+00  0.84844889E+00  0.60850476E-01
  0.12511669E+00  0.11243587E+00  0.54390863E+00
  0.63232106E+00  0.60129483E+00  0.62208668E-01
  0.14164762E+00  0.82204301E+00  0.95276773E+00
  0.64503688E+00  0.36689745E+00  0.45916122E+00