Na88 Ge16 P8 S96                        
   1.00000000000000     
    13.3422163233000006    0.0000000000000000    0.0000000000000000
     0.0000000000000000   13.3422163233000006    0.0000000000000000
     0.0000000000000000    0.0000000000000000   26.6844326466999995
   Na   Ge   P    S 
    88    16     8    96
Direct
  0.5209629385916400  0.7290689026459424  0.2338525788847369
  0.5886945457696898  0.9235483968983770  0.8785636185761562
  0.9536758603640703  0.4792898019271002  0.6116981222007186
  0.1888091879892852  0.2601505547446345  0.2997027827821891
  0.7121847019559986  0.2438234744184398  0.8507905106201255
  0.7608187677168019  0.7376849814639600  0.3852771000242027
  0.0397014829163910  0.2202738477356612  0.0049300659030813
  0.0232669775743729  0.4663905982454988  0.1479606530215233
  0.8911049666840553  0.2584271047775053  0.7487527734652132
  0.7682735062467873  0.5380027965029320  0.1220644068144830
  0.9817100651747988  0.4351441320268447  0.2665866631448001
  0.2801426589400380  0.2581325269406700  0.0162213009319492
  0.7292948606854187  0.2933869300590121  0.1359376064837459
  0.2059547935328095  0.7241390323304271  0.6251368244952527
  0.4547359830386419  0.9934814034372261  0.7648611672020004
  0.4519897679959491  0.7687420440290423  0.4962109416805224
  0.2201923967468243  0.2695216789615613  0.4821314281223360
  0.4895340751787179  0.7473084744971257  0.7360664394192034
  0.5037428006854626  0.9799938604764199  0.1198985636779831
  0.2179064775740114  0.2719539991618984  0.7423038027129727
  0.7756086010049686  0.2451862476671621  0.2717398522000932
  0.9562590974663296  0.7934051938283674  0.5074110199904763
  0.9873707560794607  0.4976686241079272  0.7453323984732836
  0.4984264585382321  0.4646767560867858  0.7423619538294984
  0.5096199202730803  0.9859351215249289  0.2637501529824084
  0.2679732595086359  0.7371681282010213  0.7707743226864266
  0.0342711088039780  0.7418567769531740  0.7417028230377252
  0.7073551623640854  0.0149927477046233  0.6309714916302892
  0.7419151631816006  0.7395005016506206  0.5094116961412997
  0.4667252102376960  0.4767823785678674  0.8890035980587078
  0.9712569844023542  0.0200822690580434  0.6489028943861345
  0.7974304141924889  0.7581637841495767  0.8725478785881489
  0.0056019156940583  0.8920007544890421  0.3713569578170159
  0.6617264513855652  0.4490963658982748  0.6317026006851770
  0.2051691852602063  0.4637769334785068  0.1210312283603059
  0.4785880537553336  0.9922954753678277  0.3843475302162275
  0.5312082149012889  0.9150684475527592  0.9802397946079324
  0.3468591646136559  0.2073168645982678  0.3822783206086509
  0.1865464245155999  0.0371162558060086  0.6268419863751539
  0.7530657894731068  0.7084316531153678  0.9957105127271499
  0.9989224161240564  0.9394532328080797  0.2457230893483420
  0.5063989960743407  0.1980227858323232  0.0094348251816012
  0.4591519040899633  0.2523135993207211  0.7944762283471162
  0.9026540399905988  0.5225991363934693  0.8772953332085366
  0.1791694007032051  0.0581950436728745  0.3741831263699065
  0.1037263347608306  0.4394515867568030  0.3802732401682665
  0.4657177756212686  0.4570596500378404  0.3983373410131816
  0.7434404518242569  0.7558260418549201  0.7523864361413156
  0.2403618863740826  0.0292571260949686  0.8830691210573431
  0.5046738999706851  0.4973403780336052  0.2622402717294718
  0.6987633319132214  0.7868515664933575  0.6316580123359128
  0.9765475375197791  0.0743212749251418  0.4987620255095382
  0.9587680064845483  0.2537986010578182  0.5152458442318302
  0.2331601907855981  0.2334982579791399  0.1476225291370614
  0.9425678272579574  0.5136806043292467  0.5022373645668943
  0.0046313566979521  0.6600207794414996  0.2787244652242131
  0.1889259182986088  0.4198742431087199  0.8683114495150037
  0.2579136218160110  0.6627210957370093  0.3886903425620721
  0.2801325016818788  0.7476385227877852  0.1197847560529767
  0.7187429811004861  0.5061964494665485  0.3725010088736929
  0.9956384484890596  0.9329467613505874  0.0171580022599019
  0.7412304959333796  0.7511613949577720  0.1162400434789932
  0.1264588209165190  0.7383414298256402  0.0031288713884012
  0.4889615433377562  0.0278508917274050  0.5287194072984935
  0.7615026472976614  0.0276504787623194  0.1128019250099568
  0.9568595350631185  0.9339297276025464  0.7747413714503126
  0.5016114972155407  0.4267487875923983  0.5176522945470809
  0.9988133122816676  0.0043637749501178  0.9053851111196193
  0.5181441694087073  0.2447579646363356  0.2833689323067869
  0.6422686448464213  0.2829200134376976  0.7076983488873347
  0.2663492447630865  0.9680318888766002  0.1297549488653513
  0.1773633702464089  0.7123824845675649  0.8916355906143459
  0.4180551503924859  0.4763067558696213  0.0326978517048384
  0.4356542550384581  0.0214176008928795  0.6609755104167372
  0.7017878762422545  0.5306040813579140  0.8699743603434031
  0.7336699142804498  0.2260466089345381  0.3997502621071661
  0.9267338222233773  0.4986633478918447  0.0102464265810363
  0.7447178670153081  0.9791655965784285  0.3629239462654326
  0.0001769868748343  0.1003200703363821  0.1394437706613968
  0.1696010046563690  0.2853520572230168  0.6154146833091951
  0.7267429919412898  0.7517129488303949  0.2538400539043644
  0.2398857171135821  0.7190423132773394  0.2557303286749721
  0.1996148463322879  0.7866210272966445  0.5117382980214377
  0.7485501248151216  0.2323059415817997  0.0133479827573625
  0.3099574147388092  0.4797628069814502  0.6151257272436984
  0.1047143428723144  0.1076419258536543  0.8090585182595988
  0.4128167061443471  0.6935615926825163  0.0133198094102126
  0.6565898410303921  0.2268297455756260  0.5062224517855102
  0.2397081655794065  0.9763926250283189  0.2562673377526432
  0.7498666036236746  0.5121332353840370  0.7443857336365600
  0.2070920380386040  0.0043826855964431  0.7416228107808368
  0.7503691600769334  0.4851029580895327  0.2523861848059727
  0.2629269967161557  0.9953786581793027  0.0120087877012291
  0.7225815843348804  0.5005440108631919  0.5006638569388724
  0.2178704781357414  0.0098011596849812  0.5015010094662377
  0.6734617150642632  0.5081731249366416  0.0026908371499871
  0.6970046878331294  0.0114930007759527  0.7492643111624309
  0.2566491577447533  0.4658101220624998  0.2564814364166495
  0.2249555278016294  0.5237457109844710  0.7507473622867299
  0.7497439624389318  0.9890594691780328  0.2530207023834565
  0.2039989740836431  0.5298459719749726  0.4998816742948966
  0.7649280565931692  0.9714262108444204  0.9902023086507526
  0.7228238396910804  0.9879626647171746  0.5053253016355562
  0.1719219478636738  0.4781654845661432  0.9988766245615865
  0.9794486412414823  0.2390489820670280  0.3704912843786955
  0.4595064085374775  0.7079941311702219  0.8726330395518616
  0.4401795058033025  0.2529097796361201  0.6214415934541281
  0.0301119074897840  0.7489730119940130  0.1393734422674030
  0.9891117724351456  0.2586174710158534  0.8760360554953043
  0.4933182412906473  0.7329007688162509  0.3612618953587007
  0.9566257543762210  0.7653643767102698  0.6301443257565511
  0.4889498588720079  0.2455861385202766  0.1389040905643687
  0.0829509468130906  0.3798818996534936  0.0520486876908259
  0.6285066179353584  0.8840996534296184  0.5484170907056204
  0.6646030082923965  0.0570035205646326  0.9409934656721056
  0.1027872827998675  0.6166548440148870  0.4434632616662433
  0.2900656838065710  0.3955718588250335  0.9604548903867532
  0.8226831678791883  0.8795451556484500  0.4438835076485165
  0.8675865746492281  0.0882484471593076  0.0304860725415731
  0.3053539207901739  0.6423372701842374  0.5497728188947710
  0.8399413313320031  0.0844451567673381  0.2042545814932796
  0.3457210905412837  0.6157875040391205  0.6989407029637627
  0.8327541204956326  0.8759852376720313  0.2976919637637708
  0.3217748670765420  0.4160323317543508  0.7978911952062272
  0.1561442579198362  0.5456745727186599  0.3080660655891206
  0.6004734323690373  0.1249722765390076  0.7919219168063337
  0.1457600597709318  0.3721880295686807  0.2084787819075755
  0.5935469684171968  0.9207003265630511  0.7041315741384130
  0.7797574988910118  0.5609906820557665  0.9471246736804824
  0.3307171095971382  0.0960022816451157  0.4612509620565861
  0.8066016874704441  0.3825717559780863  0.5515710857610882
  0.3712118701486359  0.8990670338909081  0.0555060505412432
  0.1237119127265473  0.1347112171789747  0.5481283953904091
  0.6067956650674677  0.6018346646353275  0.0573196391615495
  0.1554243341865686  0.9057034160452134  0.9606494831032627
  0.6388351046271679  0.3803174600017502  0.4513820986954279
  0.6526563316801739  0.4002192798936429  0.3075168731141243
  0.1384036191139593  0.9001768925334692  0.8000854334902509
  0.0780420379003659  0.0906933610411940  0.7170428983420738
  0.6287435187657052  0.5911711764762508  0.2118158533001928
  0.8453608006103358  0.4081140383084528  0.6945972570787752
  0.3520928794678282  0.8858946815231487  0.2099543030439217
  0.3567128492693556  0.0537785196842918  0.3068756368144103
  0.8360701621886694  0.6041162361382160  0.7927433193462804
  0.1885388943247965  0.1047336152818847  0.0685635072158786
  0.6033144262892606  0.5858396285842825  0.5451514198007891
  0.5521697043655430  0.4092984937011394  0.9732379043751057
  0.1102641401191762  0.9337460298219957  0.4566251198574071
  0.3692894195653313  0.0734245298364364  0.9583999700320542
  0.8208846450171181  0.6049299645974217  0.4524180732714825
  0.7667550598668224  0.4024858048904270  0.0555787903548595
  0.3216478334100381  0.9401159229562979  0.5487654008057370
  0.1359861599832099  0.1004023122906271  0.2320899046497117
  0.6383528656748348  0.6044873720206765  0.6997469354533654
  0.1424859216429638  0.8632899005696092  0.2961487787220667
  0.6756559958181311  0.4010751990902792  0.7922820923504948
  0.8500620268817903  0.5621515921048662  0.2983551119130905
  0.2982764898810636  0.1050381067183255  0.7885684168900590
  0.8294162568188944  0.4024604432636221  0.1954881183548686
  0.2960990053461866  0.8909394607195630  0.7018840867783417
  0.8621440398533069  0.8605713829464801  0.9522109207237698
  0.3065883652782499  0.4518649468397360  0.4542250848772852
  0.8104097385775271  0.0911174230175271  0.5526211000084943
  0.2572185097297994  0.5849614261245312  0.0471264867374986
  0.0957176707436759  0.4275244874398514  0.5511511384858314
  0.7008639048889880  0.8720878156349409  0.0501712038385307
  0.0804948535272585  0.5732273139970134  0.9444283594073425
  0.6235554583428153  0.0801371834236367  0.4496675133185444
  0.3607022010095581  0.3808124044166459  0.3159768555553845
  0.7798326947911962  0.9148853162083455  0.8074434576679563
  0.7922674184126286  0.1204616143757878  0.7039341444036579
  0.3459994192010991  0.5482123422654732  0.2079319286891138
  0.1493363420726037  0.4330708067415578  0.6857678405408404
  0.6548602752217942  0.8956959810161726  0.1989991962050077
  0.6489054335910130  0.0842909444528254  0.3070062574098523
  0.1342529825860434  0.6007979332238292  0.8037764203750940
  0.1259820042285435  0.2580740829699816  0.3956242208611594
  0.5584060839175382  0.7337591594751671  0.9297266333375038
  0.4917149486019288  0.3781059910829169  0.6562216345366285
  0.9323773581940472  0.7946262791995649  0.1925929065192294
  0.3774158568697009  0.2758392133774137  0.5501034251881612
  0.0606094326522511  0.8852167221263209  0.0985791957180508
  0.9864984682859114  0.2248698906029988  0.2944859769245414
  0.5575395925312621  0.6529979933191482  0.8154340293055936
  0.8812661339064138  0.1460491340499940  0.8431623722292128
  0.3920838695476959  0.8379709381843821  0.3918597401388573
  0.8580838601728631  0.6713665578397451  0.5873903607156821
  0.5967891028624288  0.1777075767166364  0.0905838509211073
  0.0463440521499138  0.8578633183736457  0.5925930597246442
  0.3978212168010955  0.1468230520400746  0.1824848613085428
  0.0268336479544596  0.3430329230740233  0.8126487834539577
  0.3931426638325234  0.6428703482222069  0.3149363332638478
  0.0481127705789789  0.6572058903278747  0.6676737878466724
  0.3900553198343152  0.3251512654860843  0.0962873611039399
  0.0996973688032027  0.1819425135455042  0.9093379976376592
  0.5477355652809801  0.6414585289518536  0.4142445209811741
  0.9189424826243267  0.3498655482343945  0.9286779264491655
  0.6050135108288531  0.8021307046027866  0.3242662975624092
  0.8886668250257053  0.8570240496851841  0.6930197683176503
  0.5735841281042243  0.3198620400290380  0.1909001141883128
  0.5776101619349351  0.1701184286574829  0.6172872845409827
  0.1240387590131878  0.6445277030445641  0.1683691387888993
  0.9349813614362832  0.1184016539949728  0.4104895514470619
  0.3371339015016154  0.6279224928255850  0.9137233335250112
  0.9131611079263389  0.3644484281747377  0.3972678870556063
  0.3928846576319668  0.8342086786134320  0.8354899233073846
  0.3339807107084964  0.2098293558358290  0.6709929414949970
  0.9402465305769112  0.6766218882855466  0.0845888829213704
 
 -0.45211680E-02 -0.46551652E-02 -0.54449222E-02
  0.16350382E-01 -0.15871497E-02  0.28937710E-02
 -0.27451743E-02  0.29293773E-02  0.27971302E-02
  0.38863894E-03 -0.20157162E-02 -0.73942663E-02
  0.12454143E-02  0.28200480E-02 -0.81905955E-03
 -0.31799109E-02 -0.85977954E-02  0.28218170E-02
 -0.10576334E-01  0.35882888E-02  0.54003247E-03
  0.25051879E-02  0.19922487E-02  0.49477306E-02
  0.60015080E-02 -0.65508287E-02  0.22625195E-02
 -0.13641017E-01  0.75289813E-02 -0.81750319E-02
  0.17145035E-02  0.29318052E-02 -0.30079886E-02
  0.47999265E-02  0.34042638E-02  0.38946651E-02
 -0.38813802E-02  0.84690678E-02  0.49441537E-02
 -0.13919191E-02 -0.89711312E-02 -0.26090501E-02
 -0.16664131E-02  0.97744760E-03  0.64440363E-02
 -0.10532100E-01  0.47228287E-02 -0.39777811E-02
 -0.48863567E-03  0.98933104E-03  0.79365698E-02
  0.37526415E-02 -0.71771111E-02 -0.46860189E-02
  0.42180339E-02 -0.12454635E-01  0.49758765E-02
  0.38979374E-02  0.13132555E-01 -0.50085225E-02
 -0.15637836E-01 -0.45739381E-02 -0.11444673E-01
  0.65476667E-02  0.54076763E-02  0.75816029E-02
 -0.68096574E-02  0.36944140E-02  0.77586444E-02
 -0.48496279E-02 -0.10759761E-01 -0.27500491E-02
  0.13306972E-01 -0.16663829E-02 -0.38291768E-02
 -0.62209239E-02 -0.24839471E-02  0.35644847E-02
 -0.57522715E-02  0.56400758E-02  0.38278068E-02
  0.13568195E-01  0.19007921E-02  0.48619285E-03
  0.17553927E-02  0.13848339E-02  0.29740513E-02
  0.13881307E-01  0.12334050E-01 -0.71471939E-02
 -0.18433508E-02  0.30930215E-04  0.70764984E-02
  0.10729774E-02  0.17899941E-02 -0.73050101E-03
 -0.53061727E-02  0.53132053E-03 -0.16624469E-02
 -0.23551503E-02  0.91225329E-02 -0.28383949E-02
  0.10943338E-01 -0.26765724E-02  0.55259207E-02
  0.54919098E-02 -0.60082752E-03 -0.34796505E-02
 -0.22037130E-02 -0.12039875E-01  0.38685392E-02
 -0.58663128E-02  0.51337616E-03  0.46100849E-02
 -0.35057499E-02 -0.15813682E-02 -0.18919234E-01
 -0.25077300E-02 -0.28270355E-02  0.75636579E-02
  0.53562024E-03  0.36107407E-02 -0.14429948E-01
  0.66096221E-02  0.28504054E-02  0.22125394E-02
  0.27916381E-02 -0.38411693E-03 -0.54082698E-02
  0.99333490E-04  0.39868442E-02 -0.21387610E-02
 -0.50252848E-03  0.10165635E-01  0.94951546E-02
  0.81354134E-02  0.11823640E-02  0.63771309E-03
 -0.20363826E-02  0.25213070E-02  0.78809543E-02
  0.31294592E-02 -0.77391359E-02  0.61877363E-02
 -0.23914960E-02 -0.54684019E-02 -0.42848081E-02
  0.67994279E-02 -0.13315773E-01  0.76634847E-02
  0.24893896E-02  0.15282408E-02 -0.79476907E-02
  0.79619993E-02 -0.58560542E-03 -0.12757577E-02
  0.12263476E-01  0.25446938E-02 -0.41866527E-02
 -0.43234420E-02 -0.44343985E-02  0.38895992E-02
  0.40956272E-02 -0.11788417E-02  0.11309105E-03
  0.88136604E-03 -0.67408739E-02 -0.49098952E-02
  0.18957892E-02 -0.14718040E-02  0.23983865E-02
  0.28298519E-04 -0.52969590E-02  0.23902638E-02
  0.17887633E-02 -0.35143114E-02  0.27726760E-02
 -0.39088695E-02  0.61741167E-02 -0.26925394E-02
  0.59202286E-02  0.83865397E-02 -0.57041591E-03
 -0.16008096E-03 -0.15347811E-02  0.55772016E-02
  0.41895702E-03 -0.12924355E-02  0.40306169E-03
 -0.29066322E-02  0.28035160E-02 -0.43121888E-02
  0.60940710E-02 -0.10430347E-01  0.30306555E-02
  0.19071255E-02  0.36381363E-02 -0.11417458E-02
  0.31238510E-02 -0.28997060E-02  0.54844169E-02
 -0.46849936E-02 -0.19175654E-02 -0.11973620E-01
  0.12044762E-02 -0.66544229E-03 -0.70909958E-02
 -0.51152378E-02 -0.22432367E-02 -0.29394888E-03
 -0.28923667E-02 -0.28870622E-04  0.11351162E-01
  0.51833155E-02 -0.61090448E-02 -0.86657320E-02
 -0.11085068E-01 -0.66713007E-02  0.11799174E-02
  0.46180518E-02  0.63982344E-02  0.27279747E-02
 -0.91376899E-04  0.17890960E-01 -0.46360841E-02
 -0.60020890E-02  0.11688019E-01  0.79465145E-02
 -0.14385370E-02  0.79940838E-02  0.11796184E-02
  0.94095703E-02  0.10704371E-01  0.21499017E-02
 -0.89114339E-03  0.54291556E-02 -0.10035330E-01
 -0.57561575E-02  0.22322085E-02  0.95164611E-02
  0.10094868E-01  0.12324108E-02 -0.99403038E-02
  0.64495669E-02 -0.81265494E-02  0.17274759E-02
  0.80642540E-02  0.29797445E-02 -0.50134707E-02
 -0.14848041E-02 -0.44431221E-02 -0.94049902E-02
 -0.57432228E-02 -0.13467582E-01  0.45186315E-02
 -0.29545435E-03 -0.76347970E-02  0.31916438E-02
  0.38599700E-02  0.22930967E-02  0.77256471E-03
  0.13978797E-01 -0.26101027E-02 -0.23806820E-02
 -0.40257054E-02  0.13583411E-02  0.23671363E-02
  0.29424418E-02  0.38669850E-02  0.66438561E-03
 -0.61258421E-03  0.75608081E-02 -0.13943959E-02
 -0.32992819E-02  0.92859592E-03 -0.18965108E-02
 -0.85745216E-03 -0.20057283E-02 -0.87259626E-02
 -0.19700218E-02 -0.25207022E-02  0.19896886E-02
 -0.48916271E-03  0.98899774E-03  0.31489318E-04
  0.18959231E-02  0.26046808E-02  0.27190966E-02
  0.27998356E-03 -0.27940376E-02  0.56804477E-02
 -0.11971346E-03 -0.13750856E-02 -0.39404924E-02
  0.23520293E-02 -0.24485105E-02  0.36773207E-02
  0.37557237E-02 -0.50482335E-03 -0.59773733E-02
 -0.86299799E-03 -0.82613584E-03  0.15878872E-02
 -0.37865616E-02  0.74070573E-02 -0.13065437E-02
 -0.19747515E-02  0.83709644E-03 -0.71982853E-02
  0.57253064E-03 -0.34118092E-02 -0.38228418E-02
 -0.92437696E-02  0.15895680E-02  0.43950544E-02
  0.35485441E-02  0.10110197E-01 -0.74214083E-02
  0.45318969E-03  0.11220581E-01 -0.64549701E-02
  0.87894403E-02  0.49397130E-03 -0.27803443E-03
 -0.86084435E-02 -0.44079810E-02  0.55382703E-02
 -0.38814902E-02  0.36863585E-02  0.23707088E-02
  0.24677991E-03  0.66086484E-03  0.24742037E-02
 -0.75416713E-02  0.94055705E-03  0.71703151E-02
 -0.80167437E-03 -0.17431797E-02  0.53835869E-02
 -0.24940118E-03 -0.24445567E-02 -0.26568373E-03
 -0.12438559E-02 -0.86036655E-02 -0.43283687E-02
 -0.40029423E-02 -0.28994816E-02  0.30541137E-02
 -0.22320051E-02  0.49922685E-02 -0.72114321E-03
 -0.12268017E-02  0.42876356E-02  0.10216444E-02
  0.93363489E-02 -0.34459481E-02  0.28308737E-02
 -0.76879673E-02  0.28413898E-02  0.63262547E-02
 -0.17045811E-03 -0.57549566E-02  0.10898948E-01
  0.63930531E-02  0.39011666E-02 -0.12295142E-03
 -0.70984032E-02 -0.21574996E-02 -0.59950983E-02
 -0.39136227E-02  0.21860857E-02 -0.31535889E-02
  0.78108453E-02  0.26921365E-02  0.63029087E-02
 -0.68842709E-02  0.52990839E-02  0.54717917E-02
  0.12226205E-02  0.10842532E-02  0.79905524E-03
 -0.28770851E-03 -0.20571235E-02 -0.64930358E-02
 -0.50809968E-02  0.53586188E-02 -0.15577334E-02
  0.46319012E-02  0.42763575E-02  0.79384308E-02
 -0.43432269E-02  0.14610793E-02 -0.93536825E-02
  0.54728969E-02  0.31619970E-02  0.40311714E-02
  0.44142670E-02 -0.28264118E-02 -0.27271650E-02
 -0.43807431E-02 -0.12303903E-02  0.66868739E-02
 -0.12741925E-02 -0.44654901E-02  0.69944326E-02
  0.23176058E-02 -0.15394337E-02 -0.23341343E-02
 -0.56157214E-02 -0.24849742E-02 -0.20740790E-02
  0.10676372E-02 -0.19008373E-02  0.18633420E-02
 -0.19434391E-02 -0.20267405E-02 -0.54147038E-02
  0.72697055E-02 -0.17151067E-01  0.21439815E-02
  0.14955505E-02 -0.40555713E-02 -0.50270589E-02
  0.36911968E-02 -0.57315450E-02 -0.24198033E-02
 -0.11343242E-02 -0.78295425E-03 -0.21499289E-02
 -0.10154276E-01  0.96141170E-02  0.80950622E-02
 -0.17005218E-02 -0.18892341E-02  0.65543518E-02
 -0.32446806E-03 -0.40340133E-02 -0.25240754E-02
  0.14326239E-01 -0.58524411E-02  0.42458406E-02
 -0.26224019E-02  0.32436669E-02  0.58517290E-03
  0.26305549E-02 -0.73450053E-02  0.26029280E-02
  0.37921025E-02  0.83321282E-03 -0.42195919E-02
  0.80864638E-03  0.42596901E-03 -0.37453294E-02
 -0.11207886E-02  0.99785369E-03 -0.85243220E-02
  0.24806041E-02 -0.31154792E-02  0.87092454E-02
 -0.50414070E-02 -0.44349105E-02 -0.12177845E-02
 -0.23439013E-02  0.83607033E-02  0.12599401E-02
 -0.59593444E-02 -0.25428888E-02 -0.70300741E-02
 -0.38147373E-02 -0.37603136E-02  0.20974767E-02
  0.28655356E-02  0.80256187E-03  0.19000320E-02
  0.12301515E-02 -0.80955302E-02  0.40806088E-02
  0.25243683E-02 -0.40600808E-03 -0.92928736E-02
  0.19618381E-03  0.10871216E-01 -0.56549334E-03
 -0.84596410E-02 -0.40168547E-02 -0.22892912E-02
 -0.19363140E-02  0.43550605E-03 -0.24759018E-02
  0.29085603E-02  0.13885397E-03  0.79930865E-02
 -0.13444591E-03 -0.46503975E-02  0.19141234E-02
  0.45444418E-02 -0.40698536E-02 -0.17315135E-02
  0.25298695E-02 -0.58605243E-02 -0.69351867E-02
  0.12389633E-02 -0.51526755E-02 -0.64997121E-02
  0.93425169E-02 -0.15581796E-02 -0.21221588E-02
 -0.82069691E-02 -0.36810647E-02  0.62601410E-02
 -0.99513980E-02  0.61552861E-02  0.54791676E-03
 -0.83106982E-02 -0.26450982E-02  0.46321156E-02
  0.60005028E-02  0.92890765E-02  0.28863241E-02
  0.89334226E-02  0.27929271E-02 -0.84092386E-02
 -0.69350822E-02 -0.35084548E-02  0.65756714E-03
 -0.74419898E-02  0.90227414E-03  0.33850264E-02
  0.41769117E-03  0.97084025E-02 -0.10403708E-01
 -0.74046684E-02 -0.25340771E-02 -0.50224073E-02
 -0.19676628E-02  0.66731840E-02  0.22013759E-03
 -0.61807515E-02 -0.18717968E-02  0.49204276E-03
 -0.11994652E-02 -0.71395057E-02  0.20689659E-02
 -0.47273739E-02  0.29926819E-02  0.84635934E-02
  0.30778661E-02 -0.50788031E-02  0.24955703E-02
 -0.11921635E-02  0.29754283E-02  0.16166316E-02
  0.37146533E-02  0.23570207E-02 -0.57767863E-02
  0.37155538E-02 -0.27920042E-02  0.76980785E-02
  0.40062456E-02 -0.19906866E-02 -0.57395017E-02
 -0.36531472E-02  0.22917364E-02  0.29266617E-02
 -0.30002210E-02 -0.46112487E-03  0.66240948E-02
  0.11482062E-02 -0.44796174E-02  0.39873948E-03
  0.23188036E-02  0.31109997E-02  0.47153260E-02
 -0.12106715E-02 -0.42104223E-02 -0.29109092E-02
  0.13760291E-02  0.62371160E-02  0.11486248E-02
 -0.18926701E-02  0.74285968E-02 -0.24689415E-02
 -0.18123762E-02 -0.75306999E-02  0.13289875E-02
  0.98982803E-02  0.53241475E-02 -0.73661521E-03
  0.55881276E-02 -0.22515784E-02  0.42519091E-02
  0.43456986E-02  0.69288045E-02 -0.19755508E-02
  0.65263684E-02 -0.41253914E-02 -0.23996085E-03
 -0.68706719E-02 -0.75900093E-03  0.34840684E-02
  0.77577777E-02  0.11222400E-02  0.47435439E-02
 -0.35359798E-02 -0.11780473E-02  0.20938397E-02
  0.74241543E-02  0.34967093E-02 -0.18184603E-02
 -0.66965149E-02 -0.13435302E-03 -0.36176470E-03
  0.49799528E-03 -0.74740363E-02 -0.74826349E-02
 -0.45579467E-02 -0.39617927E-02  0.23571013E-02
 -0.37981258E-02  0.29467180E-02 -0.12199186E-02
 -0.29500261E-02  0.64323191E-03  0.61269030E-02
 
           1
   2.00000000000000     
  0.82035275E+00 -0.43544591E-02  0.00000000E+00  0.00000000E+00
  0.52028521E+00  0.72837109E+00  0.23344448E+00
  0.59114547E+00  0.92331048E+00  0.87878051E+00
  0.95326436E+00  0.47972892E+00  0.61190777E+00
  0.18886745E+00  0.25984840E+00  0.29914858E+00
  0.71237139E+00  0.24424620E+00  0.85072912E+00
  0.76034210E+00  0.73639617E+00  0.38548860E+00
  0.38116089E-01  0.22081173E+00  0.49705414E-02
  0.23642506E-01  0.46668924E+00  0.14833149E+00
  0.89200459E+00  0.25744513E+00  0.74892235E+00
  0.76622872E+00  0.53913139E+00  0.12145169E+00
  0.98196707E+00  0.43558361E+00  0.26636121E+00
  0.28086217E+00  0.25864283E+00  0.16513206E-01
  0.72871304E+00  0.29465644E+00  0.13630817E+00
  0.20574614E+00  0.72279426E+00  0.62494128E+00
  0.45448619E+00  0.99362792E+00  0.76534415E+00
  0.45041100E+00  0.76945000E+00  0.49591281E+00
  0.22011915E+00  0.26966998E+00  0.48272627E+00
  0.49009660E+00  0.74623262E+00  0.73571522E+00
  0.50437508E+00  0.97812691E+00  0.12027151E+00
  0.21849078E+00  0.27392257E+00  0.74192841E+00
  0.77326449E+00  0.24450061E+00  0.27088207E+00
  0.95724059E+00  0.79421581E+00  0.50797926E+00
  0.98634999E+00  0.49822242E+00  0.74591391E+00
  0.49769950E+00  0.46306387E+00  0.74215584E+00
  0.51161464E+00  0.98568533E+00  0.26346316E+00
  0.26704074E+00  0.73679578E+00  0.77104148E+00
  0.33408843E-01  0.74270223E+00  0.74198972E+00
  0.70938904E+00  0.15277677E-01  0.63100793E+00
  0.74217830E+00  0.73970809E+00  0.50963460E+00
  0.46880602E+00  0.47863125E+00  0.88846792E+00
  0.97098067E+00  0.20086906E-01  0.64943328E+00
  0.79759125E+00  0.75843210E+00  0.87249313E+00
  0.48065197E-02  0.89208040E+00  0.37123236E+00
  0.66137341E+00  0.45046383E+00  0.63148986E+00
  0.20680959E+00  0.46337571E+00  0.12144540E+00
  0.47941129E+00  0.99220541E+00  0.38408673E+00
  0.53087788E+00  0.91326367E+00  0.98052974E+00
  0.34597980E+00  0.20739382E+00  0.38262385E+00
  0.18602091E+00  0.36879209E-01  0.62542399E+00
  0.75268988E+00  0.70800788E+00  0.99627741E+00
  0.99900271E+00  0.93999448E+00  0.24464156E+00
  0.50738978E+00  0.19845006E+00  0.96006552E-02
  0.45957037E+00  0.25225602E+00  0.79407088E+00
  0.90266893E+00  0.52319676E+00  0.87713503E+00
  0.17909407E+00  0.59718874E-01  0.37489479E+00
  0.10494583E+00  0.43962882E+00  0.38032104E+00
  0.46541252E+00  0.45743759E+00  0.39892802E+00
  0.74390956E+00  0.75466594E+00  0.75285021E+00
  0.24000340E+00  0.28437412E-01  0.88274797E+00
  0.50569314E+00  0.49534434E+00  0.26281465E+00
  0.69913649E+00  0.78708065E+00  0.63106233E+00
  0.97774104E+00  0.74233493E-01  0.49866641E+00
  0.96060630E+00  0.25418005E+00  0.51493205E+00
  0.23251211E+00  0.23283354E+00  0.14791405E+00
  0.94318176E+00  0.51350390E+00  0.50224584E+00
  0.47634736E-02  0.65901032E+00  0.27835647E+00
  0.18921010E+00  0.41965362E+00  0.86849121E+00
  0.25791786E+00  0.66192708E+00  0.38886949E+00
  0.28040064E+00  0.74711173E+00  0.11999257E+00
  0.71815704E+00  0.50712195E+00  0.37229920E+00
  0.99652589E+00  0.93420390E+00  0.17115250E-01
  0.74120650E+00  0.75093133E+00  0.11665806E+00
  0.12652162E+00  0.73814769E+00  0.31590809E-02
  0.48852584E+00  0.28271139E-01  0.52839621E+00
  0.76241615E+00  0.26086968E-01  0.11302907E+00
  0.95714541E+00  0.93447508E+00  0.77465580E+00
  0.50207976E+00  0.42631412E+00  0.51806335E+00
  0.99811103E+00  0.40763316E-02  0.90448769E+00
  0.51832472E+00  0.24465821E+00  0.28283746E+00
  0.64150187E+00  0.28258375E+00  0.70767632E+00
  0.26591568E+00  0.96802756E+00  0.13060572E+00
  0.17814035E+00  0.71146674E+00  0.89098609E+00
  0.41639350E+00  0.47530673E+00  0.32786287E-01
  0.43634650E+00  0.22376697E-01  0.66117997E+00
  0.70177418E+00  0.53328594E+00  0.86962689E+00
  0.73277020E+00  0.22779864E+00  0.40034585E+00
  0.92651819E+00  0.49986166E+00  0.10334839E-01
  0.74612836E+00  0.98077018E+00  0.36308508E+00
  0.43404362E-04  0.10113390E+00  0.13869162E+00
  0.16873816E+00  0.28568667E+00  0.61612794E+00
  0.72825621E+00  0.75189769E+00  0.25309503E+00
  0.24085251E+00  0.71782414E+00  0.25585980E+00
  0.20082368E+00  0.78706769E+00  0.51136254E+00
  0.74832755E+00  0.23163992E+00  0.12643078E-01
  0.30909650E+00  0.47774401E+00  0.61546440E+00
  0.10467005E+00  0.10649747E+00  0.80929773E+00
  0.41339532E+00  0.69390533E+00  0.13377713E-01
  0.65868526E+00  0.22643849E+00  0.50604402E+00
  0.23910471E+00  0.97659624E+00  0.25644475E+00
  0.75030768E+00  0.51271290E+00  0.74443553E+00
  0.20700021E+00  0.55160517E-02  0.74151830E+00
  0.74987460E+00  0.48524215E+00  0.25224404E+00
  0.26279846E+00  0.99507800E+00  0.11354776E-01
  0.72228628E+00  0.50016616E+00  0.50081298E+00
  0.21779715E+00  0.99494106E-02  0.50150337E+00
  0.67374591E+00  0.50856357E+00  0.28946336E-02
  0.69704666E+00  0.11074174E-01  0.74969006E+00
  0.25663121E+00  0.46560400E+00  0.25618610E+00
  0.22530810E+00  0.52337868E+00  0.75102298E+00
  0.75030695E+00  0.98898380E+00  0.25257270E+00
  0.20386961E+00  0.52972213E+00  0.50000069E+00
  0.76436045E+00  0.97253653E+00  0.99010438E+00
  0.72252782E+00  0.98808815E+00  0.50478579E+00
  0.17200777E+00  0.47765405E+00  0.99859010E+00
  0.97806300E+00  0.23928726E+00  0.37082069E+00
  0.46003834E+00  0.70950965E+00  0.87207680E+00
  0.44024744E+00  0.25459175E+00  0.62095779E+00
  0.31429446E-01  0.74904706E+00  0.13935260E+00
  0.98782137E+00  0.25795671E+00  0.87645115E+00
  0.49273641E+00  0.73345335E+00  0.36143958E+00
  0.95666275E+00  0.76546344E+00  0.63032977E+00
  0.48781936E+00  0.24572713E+00  0.13944151E+00
  0.82830776E-01  0.37962060E+00  0.52452188E-01
  0.62846923E+00  0.88373321E+00  0.54839718E+00
  0.66441655E+00  0.55713830E-01  0.94066905E+00
  0.10218724E+00  0.61622021E+00  0.44369217E+00
  0.28973111E+00  0.39632020E+00  0.96040084E+00
  0.82249927E+00  0.88018787E+00  0.44396008E+00
  0.86898609E+00  0.87731899E-01  0.30698247E-01
  0.30420149E+00  0.64276319E+00  0.55024697E+00
  0.83991578E+00  0.83582488E-01  0.20507146E+00
  0.34667941E+00  0.61637229E+00  0.69893149E+00
  0.83169007E+00  0.87566183E+00  0.29724263E+00
  0.32118821E+00  0.41636003E+00  0.79765483E+00
  0.15731510E+00  0.54607812E+00  0.30853847E+00
  0.59944148E+00  0.12576661E+00  0.79233203E+00
  0.14594333E+00  0.37235056E+00  0.20853867E+00
  0.59350384E+00  0.92039196E+00  0.70364492E+00
  0.77899586E+00  0.56179394E+00  0.94700792E+00
  0.33141143E+00  0.96643308E-01  0.46184595E+00
  0.80595064E+00  0.38279077E+00  0.55087003E+00
  0.37203226E+00  0.89954102E+00  0.55808187E-01
  0.12437361E+00  0.13428754E+00  0.54792399E+00
  0.60613899E+00  0.60165023E+00  0.57820821E-01
  0.15523333E+00  0.90503404E+00  0.96117372E+00
  0.63918251E+00  0.38008670E+00  0.45120716E+00