Na88 Ge16 P8 S96                        
   1.00000000000000     
    13.3422163233000006    0.0000000000000000    0.0000000000000000
     0.0000000000000000   13.3422163233000006    0.0000000000000000
     0.0000000000000000    0.0000000000000000   26.6844326466999995
   Na   Ge   P    S 
    88    16     8    96
Direct
  0.9551112821527489  0.0065110957934039  0.1073470030288731
  0.4984379997422815  0.5435601337720873  0.7828729517789029
  0.2603802318958661  0.4948045105300187  0.8729495543038031
  0.9908426392782966  0.0190331427668338  0.3514770937857519
  0.7161962726944225  0.0350809630979325  0.8697644178905719
  0.0533638035262273  0.4904595025086352  0.3732349040174145
  0.9931559609722290  0.4664178788380430  0.1214290097864670
  0.2604272449468096  0.2460818279888602  0.2340296362192862
  0.7300133803046125  0.9992327168202974  0.6153824232314675
  0.7094017905885623  0.2313776045429004  0.7365207776507275
  0.7451500088151054  0.7526344087403466  0.3829459004181759
  0.2510201152075552  0.2320309465024696  0.8668460697567454
  0.7466299743118624  0.2427209219302040  0.2263114931190582
  0.2384028059951042  0.6153220569248083  0.6083928633711287
  0.9757456853704063  0.9838825372797411  0.8670325688845383
  0.4686219812185728  0.4816706662000795  0.3755217084717025
  0.0153756381590875  0.9705622892727515  0.6092132049418558
  0.0215151458651981  0.4774719968406929  0.6204928770697281
  0.4748913450018992  0.9894904872842865  0.1196310163010206
  0.9550210452607777  0.5083508631326391  0.8718719248234944
  0.5435431099330240  0.0330705036604493  0.3657402707431855
  0.2446231139224136  0.0209928402388308  0.3636714625958210
  0.7134791778650176  0.5038608466305718  0.8756962445336601
  0.7878254910147237  0.5209154540855294  0.6212389253016311
  0.2121430872116683  0.9088495579964935  0.1296817191447574
  0.2334950751297319  0.2578931941507569  0.6280289493288671
  0.7299835192276373  0.7566635044543991  0.1176403168936911
  0.8397652716573003  0.2493638364353293  0.4799169449943551
  0.5093015422176440  0.7340913994486338  0.4892726675114945
  0.5172830738557823  0.9849954375693195  0.9945845746247307
  0.0179809112145816  0.0120897500655008  0.4886950806563109
  0.6152511506806871  0.7545325959317959  0.7658330754504210
  0.9845184961953409  0.7361385844020912  0.2888554652976988
  0.4505211237086898  0.2102539214028677  0.7525803753600444
  0.0107381620922786  0.0168552499219288  0.9905373432523081
  0.4871724993903790  0.2521302340612163  0.5027510312783857
  0.4565070979700974  0.7624274153427442  0.9986846108077323
  0.7402343904816021  0.2601886988003110  0.3564044059822016
  0.1184141786393260  0.7848355424904310  0.7405585592764056
  0.4986772240616503  0.7268156827758330  0.2314078345560077
  0.0133805314513178  0.0046629589662226  0.2286921148428578
  0.4528264218539944  0.5275617193196449  0.9353045780478780
  0.4590251203052189  0.9824048170850531  0.7232822055305352
  0.9837740567193374  0.5141028478803864  0.2326531798241256
  0.2225372058841122  0.1999198940395310  0.0060976538852760
  0.7852374909960829  0.6816203132336102  0.5070286991149842
  0.2710174704790751  0.7710170567867002  0.4880358389271733
  0.7664499575192308  0.2808887807901413  0.9886579650445719
  0.9441153367294839  0.9977252216021683  0.7418333960557202
  0.4816717181816988  0.5157958149908197  0.2485744263647214
  0.0162039480912338  0.5070876684535985  0.7451640736231939
  0.5344650156038228  0.9914780615500277  0.2368496160155543
  0.1878353784026069  0.2609236813616910  0.4959765346691097
  0.7708905977659517  0.7602492809461104  0.0151635598432421
  0.7515577818658129  0.2759642214965775  0.6268724008049187
  0.2232213211413135  0.7003834865095273  0.0079789339112290
  0.9985834704145563  0.2740407437320199  0.9936546177744940
  0.4961201336955675  0.4891024000441169  0.5142925266191480
  0.5146787365299108  0.4867994930063177  0.0896625620702705
  0.9988069064430195  0.4826893243828326  0.5061124029615394
  0.4918736913795733  0.0455627103190048  0.8718397101581123
  0.0313043987661072  0.7404745612960353  0.4907581418622730
  0.0082685582373616  0.5954396598562655  0.0111234707289422
  0.5107363415529109  0.9946825888376674  0.4663964836009231
  0.4781871963398468  0.2731988664972689  0.2413757997353421
  0.7762629972684290  0.7638747215955884  0.8679343820378412
  0.2119390507454285  0.7520738820058583  0.2255659551699489
  0.9761155785833107  0.2483387236393893  0.7429822190139097
  0.7651331928860056  0.7609413227695507  0.2530291898191465
  0.2249693637856972  0.2261905236775687  0.7397809956854926
  0.9864828581498972  0.2544383868242157  0.2319433160536488
  0.3230449486856906  0.7122195880063572  0.7554589117413796
  0.2283590058272193  0.4878751942575107  0.1231027869117311
  0.5286835559926432  0.9383881941524094  0.6044233190222071
  0.6847673817043933  0.2644452596661589  0.8783529878504364
  0.2773437298274156  0.2965144655378647  0.3626060028203625
  0.1616351098324649  0.7344893391959126  0.8887092050391121
  0.7755927501111615  0.9525052815645163  0.3712923510797319
  0.7397922163590521  0.0883477730830865  0.1086078983016816
  0.5054434032732165  0.4991074275782967  0.6407838356106558
  0.5123836487520170  0.2551376237621351  0.9926372791979157
  0.2175622744212239  0.7510728662500744  0.3785616391235592
  0.7415575135655891  0.7551696983858437  0.6306969825542345
  0.2578218543006024  0.1855702131253547  0.1213319037614391
  0.2547908923597185  0.9643628986881650  0.6174993590443957
  0.7401674995802863  0.5297836282186635  0.1112684445561567
  0.2521035471919037  0.9426485033695751  0.8854654163372176
  0.7253816778338770  0.4980468055083908  0.3697182690773037
  0.2633853050532857  0.9893333204947878  0.2463218684144851
  0.7369587439683601  0.4913131734876571  0.7448264933914460
  0.2002498872951881  0.9860972991458848  0.7485387668477996
  0.7320185378584634  0.5187910768367692  0.2369378644795842
  0.2428694184114404  0.9457525468606152  0.0065082984035002
  0.7412639319108801  0.4600846872408374  0.5087882640611202
  0.2684593211458955  0.0034371203367650  0.4938460182494409
  0.7415133123146843  0.5479538069480150  0.9920592985222259
  0.7088019945652012  0.0176104195333001  0.7424326379791157
  0.2330588616610025  0.4939514043504008  0.2505418039831307
  0.2584453947203736  0.4770683113289440  0.7507442702163440
  0.7710533188926155  0.9984035742279428  0.2428095049960026
  0.2446302261590355  0.4999625831047576  0.4909188846886200
  0.7616883198838101  0.0228468465592754  0.9914307435558811
  0.7649139789772920  0.9565153755625101  0.4948772491572240
  0.2393932330056417  0.4341746453474286  0.9946716339067335
  0.9924983043329224  0.2529582092868139  0.3661029796780494
  0.4798404978139796  0.7663407393705303  0.8818600549456630
  0.5058489194861432  0.2361896793832188  0.6253398010614717
  0.9864084235261232  0.7320579329365611  0.1143406773580306
  0.9916131514558566  0.2524031908452016  0.8674441154770854
  0.4934642125163123  0.7547528088549889  0.3678053403196920
  0.0143691162884780  0.7327602316731517  0.6205883911740369
  0.5181227874501515  0.2649129988164755  0.1242089492318296
  0.1549701494398255  0.3537408148238375  0.0545017285500735
  0.6669393814823793  0.8429057490036502  0.5386729162899652
  0.6418206658656705  0.1261161210897260  0.9472906164978360
  0.1597185266498037  0.6199627444671236  0.4561547389650140
  0.3391647016417023  0.3623339620230732  0.9363433008697671
  0.8728213972571096  0.8479564779199934  0.4598523665431190
  0.8689422627660454  0.1200322401610100  0.0408772072738515
  0.3582153993807804  0.6050913285164817  0.5303958526175764
  0.8454234453630128  0.1003698084932283  0.1841100952393185
  0.3779021269403225  0.5494226288064793  0.7145668379245710
  0.8687773582218009  0.9023614499299332  0.2873276202237433
  0.3330981002067314  0.3632957641603465  0.8044237504921159
  0.1253354257095819  0.5901514332041993  0.2952630631742081
  0.6029689284636601  0.0925904773519579  0.7926019668176726
  0.1441472618781623  0.4003957393063469  0.2012627368274335
  0.6306899801174048  0.9241301800017766  0.6870345999554036
  0.8431169658607396  0.6262514385596499  0.9404205925839435
  0.3522693755276095  0.1249433275376364  0.4429536369128230
  0.8438400257026069  0.3740207081108411  0.5542249523777458
  0.3729968217599111  0.8760954836301497  0.0502931662748568
  0.1704850044048619  0.0730859403752516  0.5489682522564442
  0.6410662232970481  0.6253252993637549  0.0480109573302600
  0.1279210741272997  0.8639671611971139  0.9671063288071255
  0.6314136900811240  0.3433152764930301  0.4558019236785441
  0.6420880093307877  0.4091875205188254  0.2968618845662658
  0.1154728432126768  0.9203658471865303  0.8137961462555701
  0.1121067364928795  0.0681233925698351  0.6956247779883240
  0.6203698666065115  0.5960366128834136  0.1874517884648327
  0.8531938417621510  0.3999300632010410  0.6946568435465805
  0.3702654971775465  0.8846359405873498  0.2078868913273122
  0.3488055763948222  0.1047197871117220  0.2923774451166699
  0.8362926382995964  0.5820765368931422  0.7986722583615838
  0.1547289256768065  0.0519554165842393  0.0626959115663252
  0.6475056858525907  0.5739884303138548  0.5643189477762761
  0.6424053912542398  0.4216483500539758  0.9609802999774558
  0.1585950762475601  0.9049161407590613  0.4465771992075017
  0.3324810723155450  0.0531777934761280  0.9576050447041620
  0.8510339664500252  0.5354826409648756  0.4492021065161461
  0.8555998556928869  0.4557156814362614  0.0375709443148525
  0.3630528039027183  0.8995978253809622  0.5353531016192217
  0.1778175120113631  0.0909298611552470  0.1902480589091410
  0.6617606599667876  0.6047791992283180  0.6952850700734390
  0.1451129862326027  0.9053488178426323  0.2913138939620896
  0.6420669981674124  0.4079837596688476  0.7946678040476377
  0.8318872324849366  0.5966998143746770  0.2915732453097482
  0.2966980963652468  0.0744980982709313  0.8033539070728822
  0.8158823278665871  0.4144400853221546  0.1852178320865974
  0.2828790091760608  0.8798663615241838  0.7041624214996837
  0.8330191293613264  0.9112308887477033  0.9498489431938905
  0.3424359078862507  0.4016986027715101  0.4398982045342180
  0.8559385386485437  0.0554324598957369  0.5435207164360258
  0.3307733191182287  0.5419454472594841  0.0379518722373171
  0.1619286944241193  0.4238081374616516  0.5505027440246317
  0.6820472712873553  0.9536034738372292  0.0571240462874658
  0.1489406170173669  0.5397825272467377  0.9420156725624640
  0.6837642017381763  0.0656587643738245  0.4451223273219418
  0.3533117629158499  0.4166735696267156  0.2919052675652529
  0.8104763200069477  0.9185961185268732  0.7888096631919538
  0.8186523817856070  0.1012203220247467  0.6914896627713563
  0.3220252149800674  0.5825442355198840  0.1981450317670938
  0.1695361447119243  0.3928256257651244  0.6920829770239230
  0.6761767209148991  0.9167621574687415  0.1901563904409715
  0.6888612544427440  0.1014212310198998  0.2989371784613674
  0.1748948744256751  0.5963081849476174  0.7956213986291364
  0.0988665491859895  0.1854680935032880  0.3305269145673937
  0.5708941567662660  0.6355710016494119  0.8765233520187614
  0.5780759679319082  0.3124461853425571  0.6815857242026591
  0.0499208458639596  0.8194419531106818  0.1774931165453898
  0.4066110825920252  0.1316853553674351  0.6521234819649040
  0.8957666689473481  0.6237622080845775  0.1418178072243727
  0.9228675341993391  0.3486407742602902  0.3160022800540794
  0.4783314191161880  0.8306216378893798  0.8144083767819348
  0.0749545423812318  0.1676197186619406  0.9153524006442840
  0.5919922722575383  0.6450779531342490  0.3943595862346383
  0.1074621536805749  0.7967417986092485  0.5732844460421791
  0.6334806833062611  0.3227460290961802  0.0940347321196535
  0.9380086244965417  0.6307681868932028  0.5787940531254933
  0.4350974714828382  0.1782202903605051  0.0727225491012523
  0.8984339879806602  0.3467180619030146  0.9153629918928301
  0.4299790258206365  0.8464175808197708  0.4237067798787643
  0.9151714616952995  0.8163233590565855  0.6630386082476745
  0.4173974672929530  0.3623597514796952  0.1559207321565990
  0.9162973465754083  0.1555064984155425  0.8266389270930893
  0.3989718387105239  0.6974904820659085  0.3162720178351954
  0.0772392389688113  0.3426387626677915  0.8169138800237217
  0.5984110660510231  0.8515312137756373  0.3319530128084124
  0.0799068959094674  0.6289525675381636  0.6763833403998251
  0.5523875588267598  0.1568652411296297  0.1800696729467789
  0.4221039990107447  0.3283633946041457  0.5874225441815567
  0.9171240046277487  0.8175621432933340  0.0621047988469503
  0.8892383150709923  0.1564971334391233  0.3937339431607956
  0.3536788832537409  0.7057806161068604  0.9110968167854371
  0.0673355203837577  0.3137922469949362  0.4317419537286752
  0.5762088188898039  0.8619012931006851  0.9276711519862773
  0.6206176867818315  0.1582674499981400  0.5868298318426068
  0.1106257837454262  0.6554132215733695  0.0933108146082306
 
  0.35020807E-02  0.19788302E-02  0.55751859E-02
  0.13770759E-02 -0.43964657E-02  0.55423891E-02
 -0.31885222E-02  0.31583859E-02 -0.36472716E-02
  0.68916701E-02 -0.15617472E-02 -0.13530565E-02
  0.21541632E-02 -0.81708422E-02  0.12624352E-02
 -0.19394374E-02  0.11863393E-01  0.39777705E-03
 -0.51114285E-02  0.11833795E-02 -0.20521635E-02
  0.57265068E-02 -0.21536743E-02 -0.37662788E-02
 -0.10580723E-01 -0.45986320E-02  0.44833239E-02
 -0.34324625E-02 -0.54052416E-03 -0.22322995E-02
 -0.29805681E-04  0.53868685E-02 -0.37310984E-03
 -0.11087831E-01  0.32857798E-02  0.22640524E-02
 -0.89542446E-02 -0.56831410E-02  0.83454360E-02
 -0.11180071E-02  0.71241254E-02 -0.12468686E-02
 -0.13794707E-02 -0.38717180E-02 -0.72985727E-02
  0.39141027E-02 -0.17879401E-02 -0.56387241E-02
  0.36469088E-03 -0.49510901E-02  0.10252710E-01
 -0.43236202E-02 -0.24605169E-03  0.52102795E-02
 -0.44023472E-02  0.10896026E-01 -0.37315121E-02
  0.50078249E-02 -0.60896318E-02  0.21078869E-02
  0.12033166E-01  0.12957767E-01  0.45701008E-02
  0.56736512E-02  0.65344348E-02 -0.26227299E-02
  0.10182831E-01 -0.13678350E-02 -0.34333603E-02
 -0.70648676E-02 -0.56998016E-03 -0.52452488E-02
 -0.31832271E-02 -0.25168205E-02 -0.16306890E-02
 -0.89999100E-03 -0.13088836E-02  0.34338349E-02
 -0.49769634E-03  0.77764270E-02  0.82708843E-02
 -0.66889727E-03  0.32888445E-02 -0.14670392E-02
  0.49308647E-02 -0.95031341E-02 -0.89218615E-02
  0.84972695E-02  0.65531214E-02  0.59669659E-02
 -0.12171551E-02 -0.23776048E-02  0.76512922E-02
 -0.11250803E-01  0.14890185E-02  0.30756388E-02
 -0.35531355E-02 -0.46992559E-02 -0.88413079E-02
  0.23188709E-03 -0.33059413E-02  0.13211101E-02
 -0.27228267E-02  0.66180641E-02 -0.65037934E-02
  0.69897829E-02  0.35776005E-02 -0.11109843E-02
  0.15909656E-02 -0.46068909E-02  0.25789342E-02
 -0.14638491E-02 -0.51294923E-02 -0.50716924E-02
 -0.42541681E-02  0.17843545E-03 -0.50676812E-02
  0.52229864E-02  0.84432430E-02 -0.16809667E-02
 -0.17256198E-02  0.54921728E-02 -0.49485312E-02
 -0.26750289E-02  0.52277286E-02  0.75141321E-03
 -0.41196809E-02  0.83383811E-02  0.64734498E-02
 -0.56329196E-02 -0.96929314E-03 -0.36493902E-02
  0.51781793E-03 -0.69938332E-03  0.16574307E-03
  0.27012571E-02  0.17932842E-02 -0.15051684E-02
 -0.23216657E-02  0.11471501E-02 -0.69143837E-03
  0.52259947E-02 -0.87551495E-03 -0.18956646E-02
 -0.25539717E-02  0.14925803E-03 -0.65397260E-02
  0.60054149E-02  0.13204745E-01 -0.15650569E-02
 -0.15112388E-02  0.12574367E-01  0.50993082E-02
 -0.25477435E-02 -0.63791630E-02  0.68299430E-02
 -0.52392149E-02 -0.77558428E-02  0.21282516E-02
  0.37127983E-02 -0.54735605E-02  0.88702058E-02
 -0.11732025E-01 -0.11978819E-01  0.35654305E-02
 -0.13486465E-02  0.55116506E-02 -0.23608177E-02
  0.56181863E-03  0.37702099E-02  0.21941907E-02
  0.11434962E-01 -0.11735313E-01 -0.23798787E-02
 -0.55342702E-02 -0.27268690E-02  0.35435804E-02
  0.31060902E-02 -0.92976772E-02 -0.47676485E-02
  0.17413672E-02 -0.99663737E-02  0.41178130E-03
 -0.24543964E-02  0.19409897E-02  0.90615243E-03
  0.57728780E-02  0.57223647E-02 -0.12403851E-01
 -0.79586549E-03 -0.11886989E-01  0.90158724E-03
  0.97102168E-04 -0.55725478E-02  0.26318898E-02
 -0.13750797E-01 -0.68718583E-02  0.50696561E-02
 -0.36235448E-02  0.71187705E-03 -0.29192550E-03
 -0.76701679E-02  0.67914265E-02 -0.70017785E-02
 -0.69589422E-02  0.93070868E-03  0.11935640E-02
 -0.20581690E-02 -0.52628814E-03  0.93544302E-02
 -0.17911362E-02 -0.50324518E-02  0.46364338E-02
  0.15053795E-02  0.20234253E-02 -0.50570351E-02
 -0.58417851E-02  0.52334343E-02  0.25243880E-02
  0.52265569E-02 -0.18209778E-02  0.25210331E-02
  0.59702125E-03 -0.23876161E-02  0.14661417E-02
 -0.12954922E-02 -0.13465860E-02 -0.11238511E-01
 -0.32249971E-03  0.52896651E-02  0.68756227E-02
  0.11519411E-02  0.12775978E-01  0.85556987E-03
  0.12741190E-02 -0.54226435E-03 -0.14642442E-02
  0.91698108E-02  0.21098352E-02 -0.32664612E-02
  0.53269662E-02 -0.33377843E-02  0.41247676E-02
 -0.46519051E-02  0.12955053E-02 -0.15136338E-03
 -0.18505094E-02  0.29945870E-02 -0.46851652E-02
  0.72460399E-03  0.74277435E-02 -0.51660119E-03
  0.17286730E-01 -0.89980332E-02 -0.16531365E-02
  0.27215962E-02 -0.17364247E-01  0.41566124E-02
  0.10201360E-01 -0.43240841E-02 -0.96893921E-02
 -0.56729018E-02 -0.12488454E-02  0.40216980E-02
 -0.16709403E-02 -0.14530271E-02 -0.91770342E-02
 -0.14309390E-02 -0.85310614E-03  0.94596213E-03
  0.15802097E-02  0.50316382E-02 -0.60817377E-02
  0.59518487E-03  0.30904913E-02 -0.17208274E-02
  0.58815391E-02 -0.52098394E-02  0.30949720E-02
 -0.61140581E-03 -0.39701856E-02  0.59877812E-02
  0.23043759E-02 -0.56617406E-02 -0.70599339E-03
  0.24430320E-02 -0.16160450E-02  0.49176495E-03
 -0.10156472E-02  0.12374523E-03  0.14701838E-02
  0.12963188E-02  0.39274337E-03  0.89313119E-03
 -0.21297784E-02  0.15528320E-02  0.23455738E-02
  0.12529986E-02  0.16461115E-02  0.14596467E-02
 -0.33784830E-02 -0.12566333E-02 -0.70531398E-03
 -0.35348760E-03 -0.22137258E-02  0.63789510E-02
 -0.66887114E-03  0.13327386E-02 -0.37721282E-02
  0.80204150E-03 -0.27178453E-02 -0.25834215E-02
  0.57505554E-02 -0.29104800E-02  0.70129991E-02
 -0.30102547E-02 -0.54661344E-02  0.31075081E-02
  0.47099549E-02 -0.25834972E-02  0.45899795E-03
 -0.48743228E-02  0.67485227E-03 -0.27537080E-02
 -0.22688835E-02  0.11269524E-01  0.83207346E-02
  0.58794968E-03 -0.42081923E-02  0.31231403E-02
 -0.14178694E-02 -0.43620052E-03  0.11447864E-01
  0.86066375E-03  0.21642747E-02  0.47508943E-02
 -0.77909167E-02  0.16030591E-02  0.21889707E-02
  0.23888030E-02 -0.42413113E-02 -0.18573076E-03
 -0.37911086E-02  0.93725800E-03 -0.12123323E-03
 -0.33075474E-02 -0.45520012E-02  0.48511317E-02
 -0.40728809E-03 -0.48151735E-02  0.49593134E-02
  0.43910883E-02  0.19864194E-02 -0.17388888E-02
  0.34103318E-02  0.50364456E-02  0.34320299E-03
  0.91872698E-03 -0.72381959E-03 -0.31038150E-02
 -0.41781491E-02 -0.54305864E-03  0.58840664E-02
 -0.88012652E-04  0.60782967E-02  0.10367654E-02
  0.25830878E-02  0.22651752E-02 -0.60278586E-02
 -0.10546646E-03 -0.62754381E-02 -0.27000252E-02
 -0.63978510E-02  0.35941045E-02  0.54779877E-03
 -0.62542092E-02  0.70099652E-02 -0.70319329E-02
 -0.12667525E-02 -0.38232412E-02  0.28984480E-02
  0.29790388E-02  0.57036656E-02 -0.25232033E-03
 -0.65906029E-02  0.48828815E-04  0.27758689E-02
  0.16278095E-03 -0.86536544E-02 -0.66216008E-03
  0.85196157E-03 -0.26187092E-02 -0.54866588E-02
  0.11351225E-02  0.45935369E-02  0.13641032E-02
  0.46924645E-02  0.31299082E-03 -0.26026571E-02
 -0.30682855E-02  0.96224731E-02 -0.11183528E-01
 -0.61383119E-02 -0.63718834E-02 -0.24202745E-02
  0.72836673E-03  0.24843646E-03  0.13463757E-02
 -0.10193338E-01 -0.39042100E-02 -0.47985987E-03
  0.15349199E-02  0.39373891E-02 -0.12317974E-02
  0.69032979E-02 -0.13307121E-03  0.12970782E-02
 -0.14617129E-01  0.10402079E-02 -0.42844916E-03
  0.21221188E-02  0.77078524E-03 -0.42292650E-02
 -0.15588851E-02  0.32025753E-03  0.52744156E-02
  0.43279154E-02 -0.85887814E-03 -0.26089287E-02
  0.40708503E-02  0.53556299E-03 -0.85296698E-03
 -0.11449623E-03 -0.47083075E-02  0.16418026E-02
  0.86739866E-03 -0.63101200E-02  0.72879868E-03
  0.57963294E-02 -0.14190599E-03 -0.12364028E-02
  0.31223140E-02 -0.91559593E-02 -0.16346244E-02
 -0.72602333E-02 -0.46307492E-02  0.45018718E-02
  0.84878255E-03  0.53046616E-02 -0.97857015E-02
  0.65566948E-03 -0.11048175E-01 -0.68687937E-02
  0.26317494E-02  0.19027636E-02 -0.31348312E-02
  0.34370253E-02 -0.12704148E-02  0.75787106E-03
 -0.32356762E-02  0.37821002E-04  0.30302538E-02
  0.33453823E-02  0.15671384E-02  0.37604064E-02
 -0.46242037E-03  0.48695199E-02  0.15505631E-02
 -0.81484378E-03 -0.53662399E-02 -0.13892798E-02
 -0.25449019E-02  0.41967892E-02  0.87401492E-02
  0.17575971E-04 -0.12487274E-02 -0.22880351E-02
 -0.40558440E-02  0.27462805E-02  0.10941169E-02
 -0.38887964E-02 -0.72898832E-02 -0.30679893E-02
  0.56564540E-02 -0.11055287E-02  0.46728308E-02
 -0.70280509E-02  0.45673871E-03  0.28899799E-02
 -0.31674863E-02  0.47569495E-02  0.10267514E-01
 -0.39603702E-02 -0.14393079E-03  0.12897664E-02
  0.80616760E-02 -0.88447370E-03 -0.38251945E-02
 -0.33542943E-02  0.25637375E-02 -0.19789182E-02
 -0.27555457E-02 -0.63319562E-02 -0.60944568E-02
  0.38219320E-02  0.73879210E-02 -0.20077263E-02
  0.50006972E-02  0.10430341E-02  0.71989239E-03
 -0.48957858E-02  0.82495861E-02 -0.28710892E-02
 -0.60474862E-02  0.60101943E-02 -0.70723768E-02
  0.62216435E-03 -0.11462098E-02  0.86106343E-02
 -0.65594469E-02  0.29582477E-02 -0.59616073E-02
 -0.66840316E-02  0.19617741E-03  0.65113143E-02
  0.70749246E-04  0.27642746E-02  0.12888871E-02
 -0.49096264E-02 -0.68068640E-02  0.31962953E-02
  0.53528949E-02  0.54693835E-02  0.59909830E-02
  0.45520459E-02  0.12800316E-02 -0.11482167E-02
  0.93721497E-03 -0.37537177E-02 -0.20340193E-02
 -0.89108353E-04 -0.23776680E-02  0.12383497E-02
 -0.10208206E-01  0.28506293E-02  0.46268505E-02
  0.16811096E-02  0.15477721E-02  0.40750147E-02
 -0.14298284E-02 -0.41717908E-02  0.11492584E-02
  0.47478891E-02 -0.64038480E-04 -0.65215541E-02
  0.61334901E-02  0.58844339E-02  0.76726440E-03
  0.29408006E-02  0.70185543E-03 -0.75612662E-02
  0.62283948E-02  0.42465036E-02 -0.21621068E-02
  0.75899097E-02 -0.81637845E-03 -0.50179517E-02
  0.32826234E-02  0.74112683E-02 -0.74588761E-02
  0.61282752E-02  0.37200230E-02  0.87710670E-03
  0.43141484E-02 -0.33008439E-02  0.12850061E-02
 -0.17544785E-02 -0.56613165E-02  0.19032295E-02
 -0.47873700E-02  0.58094129E-02 -0.41415750E-02
  0.13800461E-02  0.52147731E-02 -0.81374179E-02
  0.74161427E-02 -0.25151127E-02 -0.11789102E-02
 -0.15212688E-02 -0.24053350E-03 -0.91974365E-03
  0.18838995E-02  0.25375620E-02 -0.60390763E-02
  0.46125938E-02 -0.24870968E-02  0.17578658E-02
 -0.86664549E-03 -0.19385394E-02 -0.68092189E-03
 -0.36797473E-03 -0.18352957E-02 -0.75686409E-02
  0.54251099E-02  0.75588426E-04  0.25004554E-02
  0.33225256E-02  0.33864500E-02 -0.64686119E-03
 -0.19044595E-02  0.55031384E-02 -0.20467435E-02
  0.14826778E-03 -0.82536900E-03  0.42202012E-02
  0.26947071E-02  0.53842515E-02  0.53288248E-02
  0.96712682E-03  0.53115623E-03  0.11865080E-02
  0.27674460E-02  0.17326567E-02  0.63463181E-02
 
           1
   2.00000000000000     
  0.70385919E+00 -0.15104007E-02  0.00000000E+00  0.00000000E+00
  0.95563624E+00  0.68077227E-02  0.10776486E+00
  0.49864442E+00  0.54290110E+00  0.78328835E+00
  0.25990227E+00  0.49527795E+00  0.87267619E+00
  0.99187570E+00  0.18799037E-01  0.35137568E+00
  0.71651918E+00  0.33856153E-01  0.86985904E+00
  0.53073082E-01  0.49223783E+00  0.37326472E+00
  0.99238976E+00  0.46659527E+00  0.12127520E+00
  0.26128565E+00  0.24575899E+00  0.23374735E+00
  0.72842733E+00  0.99854338E+00  0.61571845E+00
  0.70888726E+00  0.23129658E+00  0.73635347E+00
  0.74514554E+00  0.75344190E+00  0.38291794E+00
  0.24935805E+00  0.23252349E+00  0.86701576E+00
  0.74528773E+00  0.24186902E+00  0.22693698E+00
  0.23823522E+00  0.61638996E+00  0.60829941E+00
  0.97553890E+00  0.98330217E+00  0.86648554E+00
  0.46920871E+00  0.48140265E+00  0.37509909E+00
  0.15430305E-01  0.96982012E+00  0.60998165E+00
  0.20867035E-01  0.47743511E+00  0.62088339E+00
  0.47423143E+00  0.99112380E+00  0.11935134E+00
  0.95577172E+00  0.50743803E+00  0.87202991E+00
  0.54534688E+00  0.35012875E-01  0.36608280E+00
  0.24547359E+00  0.21972353E-01  0.36347489E+00
  0.71500559E+00  0.50365581E+00  0.87543891E+00
  0.78676647E+00  0.52083001E+00  0.62084579E+00
  0.21166592E+00  0.90847229E+00  0.12955950E+00
  0.23336017E+00  0.25769699E+00  0.62828632E+00
  0.72990891E+00  0.75782919E+00  0.11826022E+00
  0.83966500E+00  0.24985683E+00  0.47980699E+00
  0.51004068E+00  0.73266688E+00  0.48860397E+00
  0.51855682E+00  0.98597775E+00  0.99503180E+00
  0.17798459E-01  0.11733347E-01  0.48926855E+00
  0.61356465E+00  0.75475580E+00  0.76606359E+00
  0.98398588E+00  0.73543417E+00  0.28819281E+00
  0.45055588E+00  0.20975836E+00  0.75267939E+00
  0.10330010E-01  0.17847299E-01  0.99004988E+00
  0.48822027E+00  0.25266652E+00  0.50266776E+00
  0.45674558E+00  0.76173684E+00  0.99887790E+00
  0.74001496E+00  0.25941979E+00  0.35602428E+00
  0.11777648E+00  0.78486229E+00  0.74017874E+00
  0.49946015E+00  0.72808133E+00  0.23128185E+00
  0.13121861E-01  0.54862364E-02  0.22832122E+00
  0.45242543E+00  0.52834536E+00  0.93536090E+00
  0.45840758E+00  0.98365474E+00  0.72376739E+00
  0.98292968E+00  0.51395755E+00  0.23237966E+00
  0.22261483E+00  0.19981506E+00  0.61100763E-02
  0.78564241E+00  0.68188913E+00  0.50691589E+00
  0.27066945E+00  0.77118901E+00  0.48798402E+00
  0.76723333E+00  0.28075754E+00  0.98851588E+00
  0.94373250E+00  0.99774760E+00  0.74134324E+00
  0.48257193E+00  0.51777521E+00  0.24845713E+00
  0.15977413E-01  0.50897257E+00  0.74554627E+00
  0.53408311E+00  0.99052182E+00  0.23736152E+00
  0.18705002E+00  0.25976108E+00  0.49613605E+00
  0.77144715E+00  0.75942879E+00  0.15828382E-01
  0.74979915E+00  0.27416859E+00  0.62713963E+00
  0.22301916E+00  0.70120968E+00  0.78019905E-02
  0.99866769E+00  0.27460590E+00  0.99381907E+00
  0.49783424E+00  0.48734328E+00  0.51411415E+00
  0.51384915E+00  0.48639073E+00  0.89928154E-01
  0.99927251E+00  0.48129560E+00  0.50575507E+00
  0.49213472E+00  0.44068750E-01  0.87187057E+00
  0.30936484E-01  0.74076552E+00  0.49082606E+00
  0.91339134E-02  0.59629744E+00  0.10193801E-01
  0.51061704E+00  0.99290073E+00  0.46646406E+00
  0.47820175E+00  0.27236354E+00  0.24157306E+00
  0.77420175E+00  0.76284463E+00  0.86831435E+00
  0.21139588E+00  0.75218059E+00  0.22554408E+00
  0.97496582E+00  0.24935676E+00  0.74245744E+00
  0.76409005E+00  0.76108084E+00  0.25311865E+00
  0.22466084E+00  0.22611163E+00  0.74048211E+00
  0.98621437E+00  0.25368402E+00  0.23229082E+00
  0.32327061E+00  0.71252290E+00  0.75507989E+00
  0.22748332E+00  0.48865969E+00  0.12329199E+00
  0.52946702E+00  0.93811523E+00  0.60461227E+00
  0.68485688E+00  0.26408736E+00  0.87846288E+00
  0.27714954E+00  0.29631261E+00  0.36176368E+00
  0.16158677E+00  0.73528226E+00  0.88922453E+00
  0.77576543E+00  0.95442040E+00  0.37135648E+00
  0.73998321E+00  0.88266488E-01  0.10849815E+00
  0.50681796E+00  0.49942369E+00  0.64053901E+00
  0.51318216E+00  0.25463729E+00  0.99294643E+00
  0.21686495E+00  0.75126706E+00  0.37855029E+00
  0.74128012E+00  0.75561859E+00  0.63034583E+00
  0.25793047E+00  0.18668363E+00  0.12129318E+00
  0.25738218E+00  0.96301409E+00  0.61737546E+00
  0.74057547E+00  0.52718073E+00  0.11157998E+00
  0.25363273E+00  0.94200032E+00  0.88473920E+00
  0.72453131E+00  0.49785960E+00  0.37001970E+00
  0.26313483E+00  0.98911551E+00  0.24563405E+00
  0.73674425E+00  0.49118529E+00  0.74489739E+00
  0.20048676E+00  0.98685154E+00  0.74808294E+00
  0.73210776E+00  0.51925434E+00  0.23680889E+00
  0.24375106E+00  0.94497159E+00  0.67402668E-02
  0.74117228E+00  0.45948956E+00  0.50923705E+00
  0.26880475E+00  0.25884247E-02  0.49379310E+00
  0.74187952E+00  0.54771156E+00  0.99209616E+00
  0.70864975E+00  0.17628969E-01  0.74254283E+00
  0.23325318E+00  0.49401028E+00  0.25060874E+00
  0.25812614E+00  0.47730108E+00  0.75092007E+00
  0.77124114E+00  0.99865033E+00  0.24291891E+00
  0.24412379E+00  0.49977421E+00  0.49086602E+00
  0.76163533E+00  0.22515009E-01  0.99190885E+00
  0.76481372E+00  0.95671515E+00  0.49459453E+00
  0.23951346E+00  0.43376724E+00  0.99447801E+00
  0.99336031E+00  0.25252193E+00  0.36662860E+00
  0.47938926E+00  0.76552137E+00  0.88209296E+00
  0.50655494E+00  0.23580241E+00  0.62537420E+00
  0.98567776E+00  0.73215909E+00  0.11413429E+00
  0.99127305E+00  0.25409249E+00  0.86806776E+00
  0.49355235E+00  0.75412200E+00  0.36803942E+00
  0.14156577E-01  0.73269485E+00  0.62144641E+00
  0.51825180E+00  0.26523742E+00  0.12456503E+00
  0.15380229E+00  0.35398111E+00  0.54665792E-01
  0.66729746E+00  0.84226998E+00  0.53865900E+00
  0.64125238E+00  0.12625662E+00  0.94728153E+00
  0.15922272E+00  0.61928040E+00  0.45651833E+00
  0.33910365E+00  0.36161217E+00  0.93671500E+00
  0.87347962E+00  0.84825424E+00  0.45972204E+00
  0.86945347E+00  0.12078720E+00  0.40902930E-01
  0.35835312E+00  0.60498283E+00  0.53016322E+00
  0.84479714E+00  0.10028840E+00  0.18455111E+00
  0.37788893E+00  0.55033377E+00  0.71464454E+00
  0.86916456E+00  0.90270100E+00  0.28687583E+00
  0.33308229E+00  0.36235508E+00  0.80422138E+00
  0.12437639E+00  0.59069019E+00  0.29530412E+00
  0.60203142E+00  0.93641272E-01  0.79207492E+00
  0.14395738E+00  0.39982263E+00  0.20147998E+00
  0.63113654E+00  0.92498516E+00  0.68701569E+00
  0.84212903E+00  0.62625876E+00  0.94062864E+00
  0.35229378E+00  0.12364614E+00  0.44290401E+00
  0.84396773E+00  0.37362816E+00  0.55381373E+00
  0.37316698E+00  0.87678406E+00  0.50395406E-01
  0.17118841E+00  0.73132858E-01  0.54877318E+00
  0.64060629E+00  0.62676771E+00  0.47172751E-01
  0.12700094E+00  0.86301202E+00  0.96692493E+00
  0.63152287E+00  0.34335252E+00  0.45590283E+00