Na88 Sn16 P8 Se96                       
   1.00000000000000     
    14.0793397336999995    0.0000000000000000    0.0000000000000000
     0.0000000000000000   14.0793397336999995    0.0000000000000000
     0.0000000000000000    0.0000000000000000   28.1586794673000007
   Na   Sn   P    Se
    88    16     8    96
Direct
   0.01426842  0.99904635  0.14006998
   0.61946434  0.04305824  0.62065566
   0.26962549  0.00128869  0.86797919
   0.24410042  0.05812086  0.37488159
   0.04589549  0.97086855  0.89883891
   0.01106170  0.25424304  0.51713321
   0.77638064  0.20828223  0.26168392
   0.25912572  0.82214877  0.25460667
   0.77084421  0.78919998  0.63829706
   0.74360114  0.22783572  0.10686915
   0.53384154  0.00757714  0.37303275
   0.16443390  0.23304310  0.78932553
   0.78077670  0.94359978  0.11448384
   0.25106234  0.73814064  0.87887061
   0.95343824  0.03187090  0.80091336
   0.27742151  0.48145103  0.13427187
   0.80004149  0.01100350  0.35486072
   0.00436984  0.48498303  0.61529064
   0.51672215  0.48411336  0.99390516
   0.96129983  0.00039061  0.62489092
   0.50490775  0.57202579  0.75434519
   0.74731868  0.25749097  0.59670078
   0.82013335  0.47374909  0.86541547
   0.98739737  0.48010936  0.48049599
   0.27108359  0.97805109  0.11210510
   0.23150729  0.74421772  0.75339518
   0.48973370  0.43669201  0.24566411
   0.50636312  0.33780613  0.48579818
   0.49829879  0.75279662  0.49921288
   0.00321767  0.69807285  0.23524824
   0.98571235  0.71463711  0.47035436
   0.73697973  0.69469214  0.87624242
   0.69127485  0.45025496  0.12370665
   0.26384371  0.74239574  0.62759462
   0.97974875  0.79807039  0.97866600
   0.25486903  0.51407799  0.62240913
   0.47919367  0.49223646  0.10579960
   0.52558496  0.21857730  0.25064269
   0.99656027  0.53874787  0.85963808
   0.21974719  0.49509891  0.37982196
   0.24373834  0.77007449  0.38048835
   0.53070221  0.27288815  0.75543923
   0.70693233  0.97766314  0.85145166
   0.99757264  0.43327118  0.12338704
   0.28457492  0.74081518  0.12695542
   0.52493617  0.99138473  0.49631779
   0.72323385  0.74304223  0.47930241
   0.20891256  0.27282759  0.97182910
   0.99975253  0.04343949  0.01428034
   0.98477515  0.21241559  0.21150243
   0.99248066  0.77773303  0.77271081
   0.51968549  0.96730585  0.13889743
   0.27146644  0.26891115  0.64255037
   0.51927314  0.77555785  0.99009101
   0.78322545  0.25952962  0.73778221
   0.46902124  0.00470665  0.87195253
   0.26316768  0.23678203  0.10081469
   0.49868949  0.55001477  0.61514313
   0.46367247  0.22472502  0.98960853
   0.26042159  0.27499979  0.49633817
   0.49325996  0.00497270  0.99766261
   0.21141063  0.76319922  0.50332205
   0.02583068  0.51728624  0.00226310
   0.33892860  0.00871640  0.62787032
   0.00625254  0.05521669  0.26635641
   0.00105777  0.98823413  0.49996003
   0.01426143  0.41733547  0.29078306
   0.99885819  0.24799981  0.69901326
   0.78790097  0.46122410  0.36344097
   0.68152255  0.18757889  0.86365272
   0.26910895  0.27959538  0.24024160
   0.53451702  0.43115867  0.87161837
   0.53324067  0.74569688  0.24677018
   0.78954546  0.54025435  0.60281198
   0.75706737  0.77687259  0.98164386
   0.24727246  0.26643742  0.36794996
   0.23734053  0.46888533  0.87568114
   0.79568123  0.78698010  0.36202062
   0.76927490  0.69369409  0.10323349
   0.61556079  0.74855597  0.74069936
   0.83789092  0.24117011  0.97430873
   0.77094871  0.23871598  0.46071222
   0.46396405  0.01004310  0.74492927
   0.25012359  0.73048118  0.00754051
   0.02668937  0.55692624  0.74337177
   0.78233674  0.70431033  0.21605472
   0.02320073  0.01554614  0.37463609
   0.47950264  0.52927694  0.35386091
   0.26179890  0.06116167  0.24343309
   0.73728756  0.50113173  0.75088948
   0.22224563  0.01293032  0.74216835
   0.74379527  0.46285356  0.24193095
   0.25577045  0.98357414  0.98792703
   0.72141727  0.50341255  0.48533637
   0.26392762  0.01226846  0.48303819
   0.77433328  0.52339873  0.99758923
   0.73675974  0.00131525  0.72564590
   0.22821895  0.53005704  0.26399319
   0.27779579  0.48739325  0.74608542
   0.74882826  0.95635948  0.23953006
   0.26225716  0.51170156  0.49684792
   0.71615895  0.00570948  0.99185131
   0.79122241  0.96761663  0.49169653
   0.25542020  0.50368437  0.00457968
   0.03317593  0.23912399  0.36402242
   0.50415468  0.75708953  0.87556881
   0.50862465  0.26130040  0.62147248
   0.01118457  0.74824326  0.11181763
   0.98841021  0.24822046  0.87563544
   0.51220586  0.76108199  0.36491238
   0.00871469  0.73761721  0.61631437
   0.50841807  0.23956220  0.11457267
   0.16125177  0.38781367  0.05787590
   0.65181681  0.88054047  0.53935023
   0.60948279  0.14268121  0.95530960
   0.15415840  0.61797546  0.44495482
   0.35410797  0.38154727  0.95264399
   0.88581519  0.86352256  0.43970060
   0.82157439  0.10614222  0.04891209
   0.34153504  0.64484493  0.54811116
   0.85642487  0.07790820  0.19854764
   0.36206690  0.60459161  0.69561344
   0.89188922  0.87964384  0.27935038
   0.37098045  0.39109809  0.81166517
   0.14659670  0.64062981  0.31158550
   0.62268671  0.08960568  0.79346565
   0.14243426  0.41945186  0.20136171
   0.59347459  0.91818513  0.69175940
   0.87885426  0.63310390  0.93139728
   0.39657032  0.13883697  0.44774071
   0.83848202  0.37121411  0.52596113
   0.36991492  0.87267602  0.03910545
   0.16426306  0.11401966  0.53786893
   0.63087276  0.62743293  0.04252882
   0.15701915  0.86351076  0.94928235
   0.61902351  0.40973589  0.42639215
   0.63568518  0.37056345  0.29549075
   0.12022439  0.90133663  0.80633360
   0.10586543  0.10530449  0.68689977
   0.61368274  0.55656940  0.18846216
   0.85563134  0.41433662  0.69209163
   0.35908207  0.94057389  0.20108956
   0.37201466  0.14893166  0.30012131
   0.83785254  0.60322134  0.79773331
   0.16902334  0.09210774  0.04998299
   0.64284064  0.61705624  0.53626057
   0.69239590  0.41362975  0.93952631
   0.14345020  0.92292707  0.43935522
   0.35318508  0.08917961  0.93579421
   0.85224905  0.59647617  0.44697686
   0.84792587  0.43371443  0.06193367
   0.36418808  0.89609441  0.53513876
   0.15004150  0.13449761  0.17355850
   0.65509345  0.59710182  0.68162361
   0.14913315  0.96443960  0.29373833
   0.67553993  0.39727922  0.81523743
   0.86442214  0.56399738  0.27815339
   0.32772960  0.12672936  0.79476587
   0.83314786  0.33915634  0.18352277
   0.32524805  0.87747986  0.69523549
   0.85186378  0.94162149  0.93878620
   0.34928489  0.41023508  0.44557794
   0.87145165  0.08495361  0.54604620
   0.35341072  0.60560362  0.05819611
   0.14580957  0.43062348  0.54778130
   0.62980117  0.89910948  0.05358747
   0.14841023  0.59689688  0.95130612
   0.67860572  0.05883783  0.43934545
   0.33003767  0.41407266  0.30192915
   0.81038225  0.85780932  0.77085456
   0.84091137  0.09897382  0.67542142
   0.34877614  0.61674771  0.20323789
   0.16933357  0.40543096  0.69280907
   0.66089594  0.84217547  0.18472285
   0.65985521  0.07466925  0.29201904
   0.17964381  0.58784580  0.81720087
   0.11024010  0.21841304  0.29965679
   0.39428018  0.84053436  0.83906476
   0.61974704  0.33950981  0.65718216
   0.08117303  0.67495366  0.05198057
   0.56386032  0.19942116  0.55928064
   0.09285165  0.82771838  0.16431090
   0.88052709  0.20035314  0.36050132
   0.43441798  0.66920681  0.92683932
   0.01196904  0.35953416  0.93337719
   0.40140331  0.71194869  0.32281793
   0.10536503  0.63211770  0.65823597
   0.57845066  0.34962806  0.06605579
   0.09856660  0.85878665  0.58370236
   0.42077927  0.13057474  0.07452076
   0.96520276  0.32872562  0.80982471
   0.44471807  0.86699581  0.42362081
   0.93616617  0.80682595  0.68014379
   0.41001703  0.32976008  0.15726827
   0.88722054  0.11307581  0.89132635
   0.61959955  0.85405789  0.32888732
   0.11921392  0.15687187  0.89016521
   0.58173819  0.64054885  0.41054714
   0.93795863  0.66360641  0.55850011
   0.60502061  0.15857569  0.15889166
   0.42525641  0.17795403  0.68403096
   0.90839522  0.84834116  0.07049600
   0.09461144  0.15666680  0.43071401
   0.59453870  0.67240286  0.82593083
   0.03136964  0.39292696  0.39056757
   0.60525181  0.86563154  0.91545108
   0.39848941  0.36864829  0.60482950
   0.93599175  0.62306132  0.14889304
