Na88 Sn16 P8 S96                        
   1.00000000000000     
    13.4813327813000008    0.0000000000000000    0.0000000000000000
     0.0000000000000000   13.4813327813000008    0.0000000000000000
     0.0000000000000000    0.0000000000000000   26.9626655626000016
   Na   Sn   P    S 
    88    16     8    96
Direct
  0.2328627562268433  0.7727910688526850  0.0015487508649339
  0.7372149825569950  0.4585288073134339  0.6228043153419666
  0.5554016375521070  0.4666241356725948  0.8717690885293261
  0.9768114709266802  0.5001216825310149  0.4953138975950914
  0.2336834555230038  0.2784565007135070  0.9984166366900916
  0.9877898332936720  0.2728221007081493  0.2411891045276501
  0.9818979920374701  0.9373699837210401  0.0137223635332626
  0.0511944100916208  0.0387598265283149  0.3322908516092106
  0.9768050816633925  0.9827489323472227  0.6354360355833274
  0.7699424976547148  0.4875695035602848  0.8895666862224052
  0.7990230915529419  0.7622579245361129  0.3711333080691427
  0.5015803729419782  0.2531034337557887  0.9993173969826182
  0.2659292245166977  0.0230762828173871  0.1124822388023170
  0.2607787924184545  0.4645174967718018  0.6278748624512602
  0.3098539893783813  0.9489586061387385  0.8734028329992697
  0.9871666661978676  0.5084298198522170  0.3819422258087536
  0.0172518480419674  0.2781579415633212  0.7512605857992568
  0.9927614488575046  0.5184192701378365  0.7313563826209893
  0.5173068732501304  0.9351802630126949  0.1327800851678745
  0.2796463856656186  0.2264332216579459  0.8635518022290269
  0.2513678528668160  0.0524825696181259  0.3682361910122505
  0.8355153515202893  0.0112186187868183  0.3780868686993029
  0.7592103994268163  0.7377539190901606  0.8655767286250321
  0.7509864422062373  0.7246334562642819  0.4905401698658374
  0.4632205088754570  0.7729990164893248  0.0076635976932317
  0.2372016368794694  0.2608123778217835  0.5058200053316038
  0.6898529855162358  0.4807163960313016  0.1327243255967016
  0.7086635571738453  0.5434883932386267  0.3767373614967421
  0.2629867784044643  0.7099825861875086  0.6262872017478891
  0.7338531167267627  0.7117649169035694  0.0122196054331197
  0.9936713958699920  0.7295431517053392  0.5048286660426838
  0.7395873664362822  0.2567411830840883  0.7405528416728475
  0.0180684450124850  0.7658851310428274  0.2904668749652842
  0.5041792016430945  0.4809342860224937  0.7529277912451363
  0.0339952032683665  0.9728936540725460  0.8584100317805705
  0.5238712463459089  0.5034232808819346  0.6456886920423933
  0.5621263256827926  0.0312153445588437  0.3638532226005223
  0.7448825567686380  0.2880129166923200  0.2329338567364375
  0.5163702413271234  0.9807449380162493  0.7470508120300313
  0.5349358082504154  0.1958393068502253  0.2662478361355641
  0.0403167826118834  0.9170485751305405  0.2202707273471224
  0.0219221118145194  0.7537044298570098  0.7530876001856410
  0.5280097469176510  0.9853756364121155  0.8701112719288158
  0.9856673551083931  0.4898054129285871  0.1316147538243715
  0.2278733176294425  0.2486839446441926  0.1228454423085224
  0.4776880433948209  0.4729294188354670  0.5255505707216142
  0.8014228178452509  0.2102850989564009  0.6204911129399743
  0.7340475609523801  0.2381369234804510  0.0947618848851079
  0.7644278953447960  0.2375075399563552  0.8888396190316864
  0.2479765213551604  0.7441978288453284  0.3842287154934869
  0.2484549361337546  0.2092612930292934  0.7286471599476387
  0.4921649237580250  0.7937734409839745  0.2500649864432225
  0.2245538972744247  0.4407772891625011  0.3617926421209723
  0.7474582291228491  0.7250078687595747  0.1296276052734913
  0.5202750730048854  0.2336619074603224  0.4861938158664280
  0.9704596563122218  0.2369054484861130  0.9943373247819342
  0.0151386338392262  0.0500346444146711  0.1023626186460586
  0.4981708847399025  0.7409060349023077  0.5376809421976195
  0.2807904622654261  0.4860890305206522  0.8756406032674194
  0.0204700243052007  0.5185010962238058  0.2415182792702557
  0.5030528685297507  0.9962569150093553  0.0007889300394515
  0.0225721596855049  0.2521641672972083  0.5133554432771682
  0.0486327342793714  0.5811788904567453  0.0133153283330160
  0.5294934661030374  0.9566496224160863  0.4681989777707334
  0.3033395367236747  0.2247208181448293  0.2522533861592922
  0.4777573089987389  0.2267771477774432  0.7675614658027980
  0.4648708782425897  0.5661261506822095  0.1147343144277628
  0.7346511158033396  0.7617936450512094  0.6292241133142413
  0.5056139682237318  0.5358943061476820  0.2605463588219768
  0.3464326734851129  0.1149489570313643  0.5952227921835099
  0.7514692831010805  0.9922162424737008  0.1389595661410054
  0.9720299098702225  0.4640835501487833  0.6177650563933436
  0.2489911752647038  0.4784550189583747  0.1234293683446332
  0.5396457906589264  0.9573935561902363  0.6053116286719004
  0.7959786558622759  0.9682907054895539  0.8763950105839743
  0.2623292372513858  0.7583178933815499  0.4746907003683312
  0.3847221213586416  0.7471192068458083  0.7425261303953329
  0.7904772542060481  0.2341067866486651  0.4196749136414964
  0.7380159763733209  0.7900976615611991  0.2459152795938847
  0.2189270010931754  0.9332948738712286  0.6102001025345231
  0.0279720111580798  0.4915681488857593  0.8976966093841512
  0.0321011922123900  0.9699949885795452  0.5012027630260139
  0.7397333886802944  0.7564294571109961  0.7483333645976693
  0.2299253009581393  0.7473960012644852  0.1296707236837819
  0.0389758059317989  0.9928749610125681  0.7653653625007830
  0.4877381751545407  0.5117434025188353  0.9869236825115320
  0.2326090927747042  0.6929240903390840  0.8496849943234289
  0.4989669138358108  0.4677855516252082  0.3734373505561128
  0.2756291981592706  0.9795839556422955  0.2358406493566754
  0.7717113970806924  0.5061949030763799  0.7522008241583173
  0.2644544536023564  0.9549934341967619  0.7232136404326724
  0.7608894239414901  0.5187272552842501  0.2554356338560826
  0.2325125205553031  0.0250892607063295  0.9850119130621764
  0.7473043496998314  0.4703743306661483  0.4907716547045574
  0.2745554844807939  0.0205690059976019  0.4812546889586309
  0.7607890764227938  0.4619279459031047  0.0069181277281281
  0.7779024197355973  0.0004349935460605  0.7496095498935959
  0.2567584110564101  0.5054893237505506  0.2471807564512173
  0.2482655922068023  0.4627506883881414  0.7536685830517056
  0.7826438738577078  0.0527258931204574  0.2640883232790118
  0.2369815089514581  0.5126186674035216  0.4872990112860662
  0.7469421353986413  0.9778574549879164  0.9911603341381192
  0.7816309517043160  0.9902772166390676  0.5007181597017002
  0.2557162077125381  0.4975795656306018  0.9920754785873357
  0.0065442788180962  0.2645165043041918  0.3832271385184841
  0.5134619159965029  0.7131063151747646  0.8721907459856154
  0.5163719120665548  0.2378053158390600  0.6264927043203871
  0.9965491224354244  0.7562688968761355  0.1211836206279287
  0.0083955223448883  0.2331759857835871  0.8750724037466744
  0.5206951050785138  0.7627189165841080  0.3681851119441735
  0.0108147557108892  0.7184055074613639  0.6281104615734626
  0.4888326163332379  0.2387502160787386  0.1271406789112497
  0.1424484394065334  0.4320847818922313  0.0433242460727089
  0.6755080608602644  0.8611302032301007  0.5434493856556378
  0.6532730447445555  0.0755525068639185  0.9369933248650458
  0.1180679398189058  0.6282589572822722  0.4486693837706625
  0.3637749468319809  0.3863314345000199  0.9480338440530904
  0.8941651481209479  0.8843942472820114  0.4592326936646945
  0.8450844022276691  0.0946587276493014  0.0457821424502036
  0.3531907169843121  0.6130253941701228  0.5535752921849348
  0.8695251352611453  0.1455524564803074  0.2013790859569591
  0.3453003063748846  0.5693248764276341  0.7023826366162936
  0.8990848896699507  0.9332534248611081  0.2976237228591296
  0.3632471655744718  0.3623469290897148  0.8015219454358778
  0.1490330330309718  0.6045974187167140  0.3011091747355496
  0.6770575941908008  0.0839787095699314  0.8119145132080025
  0.1509049108777113  0.3837988959113210  0.2002654126431933
  0.6796197636786176  0.9304392407303235  0.6836601759505287
  0.8801673881055633  0.5585534007098132  0.9604403093183654
  0.3709532536094379  0.1277364300197625  0.4273535613148263
  0.8468912825230035  0.3648099742541533  0.5423048510643387
  0.3426521100777872  0.9092595545529647  0.0369176221652052
  0.1813379399628537  0.0992741285028703  0.5411035993331953
  0.6414376008492317  0.5695557510426338  0.0497612227912292
  0.1254161770820456  0.9230502948858251  0.9402029560713394
  0.6386791051018638  0.3745798537962616  0.4471834060271929
  0.6657167305553997  0.4150454139307946  0.3023458273931082
  0.2137448042374314  0.8471663955208615  0.7897868125267578
  0.1441350424001905  0.0493055465496128  0.6784681621123773
  0.6527452042156453  0.6082553389806873  0.1989771756912344
  0.8647284440449999  0.3857837364422806  0.6997040947952711
  0.3720028725009094  0.8492349004396469  0.1853989372889766
  0.3940859504675798  0.0559067042178293  0.2837493677243616
  0.8670075976256194  0.6076640342741244  0.8040998707603284
  0.1675912309781077  0.1357237060462091  0.0510109511565011
  0.6431645447597160  0.5679417426336695  0.5539605430564066
  0.6592389802723890  0.3554130514676911  0.9536258389425679
  0.1706362527014116  0.9106631408484251  0.4317092015786306
  0.3776094498679627  0.1190435268328860  0.9337903297977505
  0.8438734694991411  0.5794017562563032  0.4414542947120680
  0.8532940055650878  0.3869135959582723  0.0686201714308753
  0.3508462762530494  0.9085918395924233  0.5422472240165933
  0.1380644473531708  0.0749290230808879  0.1965334768206653
  0.6639531776813794  0.5957924737051147  0.6969034003706704
  0.1757816944646804  0.8989004776779943  0.2964419139520817
  0.6565368543437538  0.3975345150591465  0.7942313316135752
  0.8466085883997890  0.6188824078536743  0.3125706308142912
  0.3521390819681762  0.0639424789062776  0.7848233454020724
  0.8518970088071524  0.4230776212416184  0.1992122020321140
  0.3921503746515405  0.8782558337271374  0.6736212440898833
  0.8329166751610111  0.8431180408100477  0.9472932762601249
  0.3470911527612411  0.4224368108204618  0.4362706475968144
  0.8836725184236537  0.1004655762993420  0.5538735931026819
  0.3660693482363462  0.6294695491561096  0.0280013509327809
  0.1651847573549707  0.4231885170336432  0.5525006145012015
  0.6476852247726017  0.8793369577988541  0.0564425659261852
  0.1751278106941697  0.6153823225565592  0.9378484185915388
  0.6821459456202774  0.0892950301959659  0.4451925401991638
  0.3764159171406261  0.4080928066329833  0.2875954955595094
  0.8718090433296716  0.8831991508462150  0.8024086034297537
  0.8992165378561014  0.1179907928709148  0.7137372175035515
  0.3352117491789000  0.6039150648755430  0.1887671926603293
  0.1600498419558267  0.3813447576670693  0.6948152243993927
  0.6446950773491360  0.9509296847682255  0.2162493994402291
  0.7199105281607081  0.1548435295295181  0.3278998605583645
  0.1483126949218177  0.5335362105228747  0.8125412520214309
  0.0623296535271712  0.3504708948083243  0.4342795826181725
  0.6104762696936050  0.6445367955509138  0.9126666500621160
  0.6228777045677774  0.3188624529861797  0.6632103574185176
  0.0982202896740383  0.8465805739545677  0.0825959007007214
  0.4387191537909354  0.1590491166088284  0.6833345539176660
  0.0697821971870832  0.6734244427021134  0.1758650809102062
  0.1185333697296779  0.2211628759442481  0.3332120200784423
  0.5856928919639242  0.7925606209087482  0.8189483616738736
  0.0895282693574703  0.3124164757835953  0.9356149329989862
  0.5810666596305345  0.6930725010342098  0.4315393647860079
  0.0868926870689814  0.8050480857335537  0.5803999319302944
  0.4118227607871243  0.3617937590863830  0.0956651198059398
  0.9333141389658076  0.6291855037871499  0.5831126100087731
  0.3966388594133994  0.1500517545559265  0.1631719944513671
  0.0950847138749236  0.1648931827623626  0.8198565436483677
  0.4320006866150782  0.8846233006660840  0.3816675767535410
  0.9013508545984338  0.8053619597141637  0.6675100023856559
  0.5783813107621272  0.3102854028733261  0.1805227378211628
  0.9104803234875659  0.3262586598089134  0.8416722583182608
  0.4405891077922870  0.6611632955386113  0.3245503737150816
  0.9453285599490301  0.1177497838561654  0.9199898923007948
  0.6302613548569436  0.8337387315769129  0.3284912711818295
  0.1014253417838496  0.6487418885488268  0.6752258935861858
  0.5633966359202210  0.1454394015848693  0.0767716231200478
  0.4007971272310099  0.3194953492037965  0.5941260744334548
  0.8910295765106336  0.8472866154444393  0.1537189590853688
  0.9721867117874824  0.1358073814883417  0.4173289204456584
  0.4197421856681506  0.6117056709338328  0.8382377575097141
  0.9008637513327751  0.3479749866028249  0.3534251822521222
  0.4242675084531942  0.8010391130127388  0.9096664418650596
  0.5731292150275727  0.1514903442726714  0.5697591743112954
  0.9174292314002045  0.6676213408131114  0.0776282783507744
 
  0.63001057E-02  0.19674818E-02 -0.94253832E-02
  0.28934965E-02  0.46703734E-02  0.80310540E-02
 -0.15889772E-02  0.58229720E-02  0.90000687E-02
  0.61738673E-02  0.31650520E-02 -0.39939904E-02
 -0.26546832E-02  0.83363193E-02  0.29419711E-02
  0.79963178E-02  0.15134334E-02  0.19208193E-02
  0.40612308E-02  0.29003385E-02 -0.77075211E-03
  0.33285484E-03  0.11586976E-01 -0.21273655E-02
  0.10009203E-02  0.14655874E-02 -0.38808509E-02
 -0.34079980E-02  0.31215106E-02 -0.25882567E-02
  0.35838240E-02 -0.30342050E-02 -0.16939871E-02
  0.23993941E-02 -0.58036101E-02 -0.29261733E-02
  0.24685162E-02 -0.36969323E-04 -0.19195555E-02
  0.25134986E-02 -0.12015239E-01  0.21398796E-02
  0.39588191E-02 -0.27682629E-02 -0.34677785E-02
  0.30263855E-02  0.65210956E-02 -0.72588023E-03
  0.66323567E-02  0.70839510E-02  0.14979167E-02
  0.60934277E-02  0.27612440E-02 -0.60255467E-02
  0.43095289E-02 -0.61552112E-03 -0.64128862E-02
 -0.43764310E-02  0.20947215E-02 -0.39778971E-03
 -0.41190754E-02 -0.25679456E-02 -0.93174521E-03
  0.18784429E-02  0.48809834E-02 -0.40212887E-03
 -0.80735584E-02 -0.78602833E-02 -0.27235451E-02
  0.27269349E-02 -0.74593650E-02  0.46159690E-02
  0.53421403E-02  0.28307193E-02 -0.21089366E-02
 -0.18761496E-02  0.57235272E-02 -0.53264592E-02
  0.10073328E-01 -0.38287304E-02 -0.60446309E-02
 -0.54151022E-02 -0.36442768E-02 -0.47341479E-02
 -0.28948526E-02 -0.18930480E-02 -0.63144583E-02
  0.24194740E-02  0.42338070E-02  0.62277955E-02
  0.37616998E-02 -0.93706050E-02 -0.36714339E-02
  0.26265434E-02 -0.41283490E-02 -0.24510160E-02
  0.40272908E-02 -0.58126187E-02 -0.33854977E-02
  0.30780600E-02  0.48016259E-02  0.74795240E-02
 -0.53205680E-02  0.27624064E-02 -0.40765433E-02
  0.15837226E-02  0.87798772E-03 -0.72647067E-02
 -0.32818786E-02 -0.87173089E-03 -0.45580869E-02
 -0.38174695E-02 -0.26431363E-02  0.83569425E-02
  0.28637640E-02  0.24106821E-02 -0.70153920E-02
 -0.10310188E-01 -0.13330883E-01  0.16722866E-02
  0.25526508E-02 -0.83958821E-02  0.49091525E-03
 -0.34215247E-02  0.38669696E-03  0.40292670E-03
 -0.44562332E-02  0.13200472E-01 -0.10604234E-02
  0.10830422E-01 -0.38270558E-02  0.31846851E-02
 -0.10850596E-01 -0.35870349E-02 -0.37586490E-02
  0.17611599E-02  0.90017420E-04 -0.94624542E-02
 -0.38942292E-02  0.22412582E-02  0.41473003E-02
  0.32383582E-02 -0.87439773E-03  0.42574013E-02
  0.61039903E-02 -0.71504225E-03 -0.84755781E-02
 -0.82406281E-03 -0.22934841E-02  0.44392283E-02
 -0.59879720E-02  0.95110427E-02  0.91046764E-03
 -0.11177667E-01 -0.57174256E-03  0.63627831E-02
  0.22017634E-02 -0.63215235E-03  0.68465299E-02
 -0.23862060E-02 -0.14008164E-01 -0.68802628E-03
  0.57918938E-02 -0.21737777E-02 -0.20184227E-02
 -0.13253605E-02 -0.10927638E-01 -0.10495744E-02
  0.40188516E-02  0.39074210E-02  0.45303017E-02
  0.16008946E-03  0.57739597E-03 -0.59539243E-02
  0.34164968E-02 -0.10112144E-01  0.31193494E-02
 -0.55118979E-02  0.22689246E-02 -0.55438784E-02
 -0.15183659E-02  0.47786799E-02 -0.40762666E-02
  0.44545064E-02  0.96749122E-02  0.61522431E-02
 -0.14666788E-03  0.65153403E-02 -0.83743479E-02
  0.10451999E-02  0.66505702E-02  0.76487736E-02
 -0.57795801E-02 -0.35342603E-02  0.69335205E-02
  0.29040610E-03 -0.59325456E-02  0.91058703E-03
  0.37358063E-05  0.27398350E-02 -0.18095044E-02
 -0.49145342E-02 -0.84760591E-02  0.50932101E-02
  0.57945466E-02  0.70254007E-02 -0.56616149E-02
 -0.31595023E-02 -0.23162193E-02 -0.28815120E-03
 -0.29419821E-02 -0.27839018E-02  0.41377692E-02
 -0.50835601E-02 -0.49727864E-02 -0.70555669E-03
 -0.27796596E-02  0.12977584E-01 -0.53952769E-02
 -0.30344272E-02  0.18610471E-02  0.10553577E-01
  0.26204605E-02 -0.35511798E-02 -0.49672029E-02
 -0.18858151E-02 -0.32113912E-02  0.37647441E-03
  0.29645109E-02  0.46815951E-02 -0.20252702E-02
  0.13404535E-02 -0.12853988E-01  0.36467531E-02
 -0.32820969E-03 -0.20395657E-02  0.36436738E-02
  0.16185822E-02 -0.19592792E-02  0.15228311E-03
 -0.26814452E-02 -0.20161461E-02 -0.32224482E-02
  0.66601514E-02 -0.39415568E-02 -0.12397148E-02
  0.91856445E-02 -0.54789460E-02 -0.14768935E-01
  0.63815030E-02  0.16732125E-02 -0.21352243E-02
 -0.54181717E-04 -0.81833055E-02 -0.60040171E-03
  0.45997603E-02  0.17777130E-02  0.24932301E-02
  0.11886819E-02  0.26624064E-02 -0.15118698E-02
 -0.30524550E-02  0.18715131E-02  0.38319541E-02
  0.26437304E-03  0.35229407E-02  0.20264669E-02
 -0.23453448E-03  0.12484794E-02 -0.26482112E-02
 -0.20978753E-02 -0.25171588E-02  0.27313416E-02
 -0.10552134E-03 -0.39908676E-03  0.46278512E-02
 -0.30153161E-02  0.12081679E-02 -0.19754119E-02
  0.61454174E-02  0.30128626E-02 -0.99133476E-03
 -0.29226044E-02 -0.38731415E-02 -0.28617129E-02
  0.10295010E-02  0.42893289E-02  0.92771122E-03
  0.32779640E-03 -0.19927524E-02  0.25048141E-02
  0.14098166E-02 -0.38675585E-02 -0.18579179E-04
 -0.22360508E-02 -0.30825419E-03  0.23552639E-02
 -0.25960810E-02 -0.33296628E-02 -0.14373416E-02
 -0.33109084E-02  0.76563484E-03 -0.13924539E-02
  0.34324057E-02 -0.20302172E-03  0.31690375E-03
 -0.18763954E-02 -0.98522878E-03  0.10905726E-02
 -0.10129693E-02 -0.10582507E-02  0.34086918E-03
 -0.11586290E-03  0.53685308E-02  0.85737229E-03
 -0.50307109E-02  0.33562694E-02 -0.79500239E-02
 -0.26514406E-02  0.64055116E-02  0.55395011E-02
  0.50166443E-02 -0.13881452E-01 -0.91982094E-02
 -0.19055353E-02 -0.21367644E-02 -0.21450796E-02
 -0.54082880E-04  0.74352373E-02  0.74107594E-02
 -0.39021782E-03 -0.21827509E-02  0.41462511E-02
  0.66155136E-02  0.28221253E-02 -0.23972949E-02
 -0.96015847E-02  0.48142923E-02 -0.18655202E-03
 -0.29028034E-03  0.32578364E-02 -0.51005180E-03
 -0.89775363E-03 -0.75518565E-02 -0.14209571E-03
  0.18200594E-02 -0.37872302E-03  0.24556556E-02
  0.36239625E-02  0.10991267E-02  0.84102907E-02
 -0.78951000E-03 -0.12242665E-02  0.11483969E-02
  0.10732562E-01  0.17651024E-03 -0.13703876E-02
 -0.10665239E-02 -0.59615760E-02  0.10812328E-02
 -0.44318263E-02  0.53288515E-02  0.12945234E-02
  0.40265186E-02 -0.11096338E-02 -0.38009461E-02
  0.19391621E-02  0.23419304E-02  0.17657938E-02
  0.41794798E-02 -0.10355688E-01  0.40698367E-02
 -0.67954892E-02  0.69740033E-02  0.41104491E-02
  0.54584654E-02  0.75523902E-03  0.10838755E-02
 -0.98615987E-02 -0.41456674E-02 -0.19035016E-02
 -0.54020185E-02 -0.95944891E-03  0.17769412E-02
 -0.65386734E-02  0.40023136E-02  0.56021604E-02
 -0.32492855E-02 -0.39024870E-02  0.31291500E-02
 -0.21449810E-02 -0.37765171E-02 -0.47310566E-02
 -0.14264839E-02 -0.27948666E-02 -0.36125961E-04
 -0.39227979E-02 -0.58429747E-02 -0.10759250E-01
 -0.38834471E-02  0.11703011E-02  0.59947340E-02
 -0.16626403E-02 -0.96202507E-02 -0.55234177E-02
 -0.11680569E-01 -0.10169317E-02 -0.50483012E-02
 -0.81114411E-03 -0.70217322E-03  0.10850951E-02
  0.10867163E-02  0.42970587E-02 -0.25178821E-02
 -0.34292064E-02 -0.58234970E-02 -0.24499717E-02
 -0.33494114E-02 -0.38683636E-02  0.22634723E-02
 -0.65486789E-02  0.35183906E-02 -0.37249262E-02
 -0.64355208E-03 -0.85826159E-03 -0.76336967E-02
 -0.67016980E-03  0.53157118E-02  0.57587888E-03
  0.35634306E-02 -0.34021031E-02  0.84744323E-02
 -0.21743475E-02  0.20337975E-02 -0.31393542E-02
 -0.17609853E-02  0.52442658E-02 -0.36038312E-02
  0.11313533E-02 -0.58490545E-02 -0.15484432E-03
  0.14799928E-02 -0.56162610E-02  0.37354430E-02
 -0.38938748E-02  0.67861373E-02 -0.24864738E-02
 -0.61421800E-02  0.32604606E-02  0.58152509E-03
  0.46064382E-02  0.50761568E-03  0.14731236E-04
  0.88334873E-02  0.58113403E-02  0.72995237E-02
 -0.44132119E-02  0.66029955E-02 -0.25981497E-02
  0.33096221E-02 -0.33378303E-02 -0.84828188E-02
  0.17262372E-02 -0.11431718E-03  0.10365648E-01
 -0.33864672E-02  0.33718703E-02  0.35560536E-02
  0.31407048E-02  0.40614097E-02 -0.83631881E-03
 -0.10135340E-02  0.60115478E-02  0.32578212E-02
 -0.48777270E-04  0.80649176E-03 -0.37338779E-02
 -0.97909299E-02  0.23782438E-03  0.31517178E-02
  0.48813832E-02  0.64404031E-02 -0.24251076E-02
  0.30492307E-02 -0.40272539E-02 -0.38485657E-02
 -0.40031349E-02  0.37656479E-02  0.79730967E-03
 -0.55723689E-03  0.30832998E-02  0.21045497E-02
 -0.51799092E-02 -0.70709583E-02  0.23045588E-02
  0.20103165E-03 -0.74628609E-02  0.25644157E-02
  0.58714556E-03 -0.37954397E-02  0.19717347E-02
 -0.25127967E-02  0.24101152E-03 -0.34799414E-02
  0.16249684E-02  0.14192235E-02 -0.41988783E-03
  0.25481619E-02  0.38578335E-02 -0.62335336E-03
  0.18471932E-02  0.10387430E-02  0.25036305E-02
  0.12201455E-01  0.12366255E-02 -0.19228711E-02
  0.54092352E-02 -0.39550543E-03 -0.59708305E-02
  0.11691759E-01  0.13255066E-02  0.25563262E-02
  0.82163956E-02  0.38566403E-03  0.45811717E-02
  0.35823799E-02 -0.14739001E-02 -0.72255157E-02
  0.51262165E-02  0.40935325E-02 -0.24001074E-02
  0.26938727E-02 -0.87015882E-03  0.48536101E-02
 -0.67069441E-02  0.48834541E-02 -0.98484648E-02
 -0.37723105E-02  0.70352198E-02  0.29512053E-02
 -0.10320205E-02  0.64943316E-02 -0.29324527E-02
 -0.83049388E-02  0.19246159E-02  0.39272700E-02
  0.39377888E-02 -0.16608769E-02  0.33692630E-03
 -0.42854291E-02  0.11042518E-02 -0.56297971E-02
  0.46927761E-02 -0.52408747E-02 -0.56069065E-02
 -0.53644010E-02 -0.66350051E-03 -0.26672007E-02
  0.41646114E-03  0.11827490E-02 -0.58221775E-02
 -0.57730986E-04 -0.19515834E-02 -0.43678643E-02
 -0.75983073E-02  0.54494382E-02  0.68893682E-02
 -0.12836831E-02 -0.11010411E-02 -0.46315309E-03
 -0.61239879E-02 -0.22875968E-02 -0.53617380E-02
  0.93366767E-03  0.18810151E-02  0.17969601E-02
  0.15818150E-02  0.70549287E-02  0.72801893E-02
  0.42910445E-02  0.51170010E-02  0.10650235E-01
 -0.26145980E-04  0.47187640E-02  0.27825949E-02
  0.15885219E-02  0.23064343E-02  0.32837711E-02
 -0.24316093E-02 -0.51498388E-02 -0.20657053E-02
  0.91988296E-02 -0.86177958E-02 -0.97985738E-03
  0.11333743E-02 -0.15582613E-02  0.18938801E-02
  0.60099989E-02  0.13471156E-02  0.65114028E-02
  0.66610788E-02  0.34580784E-02 -0.31820312E-02
  0.31939317E-02  0.66736401E-02 -0.14860861E-02
  0.41784849E-02 -0.42017216E-02  0.83754312E-03
  0.19040769E-03 -0.45292256E-02 -0.82303266E-02
  0.17471644E-02  0.70437355E-02  0.83331431E-03
  0.12691369E-02  0.68475912E-03  0.97173458E-02
 -0.49406361E-02  0.34699772E-02  0.71442923E-02
 -0.12964526E-03 -0.61686705E-02  0.65869357E-02
 
           1
   2.00000000000000     
  0.10940727E+01  0.60969630E-03  0.00000000E+00  0.00000000E+00
  0.23379740E+00  0.77308295E+00  0.84960759E-03
  0.73764424E+00  0.45922167E+00  0.62340003E+00
  0.55516591E+00  0.46748799E+00  0.87243668E+00
  0.97772738E+00  0.50059123E+00  0.49501764E+00
  0.23328962E+00  0.27969322E+00  0.99863486E+00
  0.98897611E+00  0.27304662E+00  0.24133158E+00
  0.98250049E+00  0.93780026E+00  0.13665192E-01
  0.51243790E-01  0.40478792E-01  0.33213305E+00
  0.97695357E+00  0.98296636E+00  0.63514817E+00
  0.76943691E+00  0.48803259E+00  0.88937470E+00
  0.79955476E+00  0.76180779E+00  0.37100765E+00
  0.50193633E+00  0.25224245E+00  0.99910034E+00
  0.26629544E+00  0.23070798E-01  0.11233985E+00
  0.26115168E+00  0.46273500E+00  0.62803359E+00
  0.31044129E+00  0.94854793E+00  0.87314560E+00
  0.98761564E+00  0.50939725E+00  0.38188838E+00
  0.18235780E-01  0.27920887E+00  0.75137170E+00
  0.99366543E+00  0.51882891E+00  0.73090943E+00
  0.51794621E+00  0.93508895E+00  0.13230440E+00
  0.27899713E+00  0.22674398E+00  0.86352230E+00
  0.25075677E+00  0.52101606E-01  0.36816708E+00
  0.83579402E+00  0.11942729E-01  0.37805704E+00
  0.75801266E+00  0.73658782E+00  0.86537471E+00
  0.75139099E+00  0.72352683E+00  0.49088257E+00
  0.46401303E+00  0.77341896E+00  0.75071639E-02
  0.23692330E+00  0.26166148E+00  0.50542491E+00
  0.69134740E+00  0.48014839E+00  0.13227596E+00
  0.70786021E+00  0.54294775E+00  0.37638620E+00
  0.26255732E+00  0.70970175E+00  0.62581882E+00
  0.73421205E+00  0.71239302E+00  0.12681562E-01
  0.99422946E+00  0.72815299E+00  0.50455633E+00
  0.73997702E+00  0.25612873E+00  0.74037103E+00
  0.18665907E-01  0.76502281E+00  0.29021575E+00
  0.50463584E+00  0.48164662E+00  0.75348260E+00
  0.33205880E-01  0.97330347E+00  0.85810765E+00
  0.52410620E+00  0.50355353E+00  0.64514982E+00
  0.56163945E+00  0.31086020E-01  0.36351512E+00
  0.74431622E+00  0.28762080E+00  0.23355375E+00
  0.51679509E+00  0.98110257E+00  0.74653043E+00
  0.53340626E+00  0.19386163E+00  0.26637188E+00
  0.40695477E-01  0.91580302E+00  0.22030714E+00
  0.21414517E-01  0.75376180E+00  0.75311749E+00
  0.52734865E+00  0.98733397E+00  0.87003261E+00
  0.98727408E+00  0.48923766E+00  0.13185098E+00
  0.22626360E+00  0.24815180E+00  0.12256664E+00
  0.47794932E+00  0.47294277E+00  0.52484868E+00
  0.80084510E+00  0.21061760E+00  0.62079875E+00
  0.73452798E+00  0.23800720E+00  0.95077685E-01
  0.76533344E+00  0.23740146E+00  0.88821093E+00
  0.24785427E+00  0.74385758E+00  0.38455800E+00
  0.24756660E+00  0.21067229E+00  0.72871470E+00
  0.49050668E+00  0.79368862E+00  0.25053696E+00
  0.22488054E+00  0.44068351E+00  0.36230049E+00
  0.74710423E+00  0.72292971E+00  0.12957657E+00
  0.52113432E+00  0.23333942E+00  0.48604410E+00
  0.97026303E+00  0.23528430E+00  0.99425947E+00
  0.15734844E-01  0.50614323E-01  0.10269866E+00
  0.49819463E+00  0.74099169E+00  0.53723930E+00
  0.28129731E+00  0.48458886E+00  0.87587199E+00
  0.19652316E-01  0.51883770E+00  0.24110705E+00
  0.50282761E+00  0.99696585E+00  0.48656627E-03
  0.23233000E-01  0.25359947E+00  0.51381180E+00
  0.48610976E-01  0.58214546E+00  0.12694147E-01
  0.52964852E+00  0.95763626E+00  0.46876634E+00
  0.30248212E+00  0.22419650E+00  0.25276769E+00
  0.47780039E+00  0.22589704E+00  0.76762901E+00
  0.46487143E+00  0.56653261E+00  0.11460009E+00
  0.73392203E+00  0.76053619E+00  0.62960191E+00
  0.50647361E+00  0.53693655E+00  0.26012640E+00
  0.34596395E+00  0.11460534E+00  0.59520142E+00
  0.75103283E+00  0.99180324E+00  0.13926649E+00
  0.97127575E+00  0.46334582E+00  0.61771272E+00
  0.24857880E+00  0.48038029E+00  0.12302916E+00
  0.53919562E+00  0.95766965E+00  0.60609446E+00
  0.79636741E+00  0.96776388E+00  0.87602656E+00
  0.26204947E+00  0.75784147E+00  0.47471863E+00
  0.38516192E+00  0.74781374E+00  0.74237590E+00
  0.79067611E+00  0.23219986E+00  0.41994542E+00
  0.73796729E+00  0.78979509E+00  0.24618556E+00
  0.21916712E+00  0.93300421E+00  0.61021140E+00
  0.27574210E-01  0.49126905E+00  0.89745758E+00
  0.33089248E-01  0.96941025E+00  0.50111081E+00
  0.74109611E+00  0.75561664E+00  0.74723785E+00
  0.23087202E+00  0.74764423E+00  0.12951234E+00
  0.38967768E-01  0.99166094E+00  0.76532083E+00
  0.48842056E+00  0.51200713E+00  0.98710862E+00
  0.23278544E+00  0.69331907E+00  0.84957285E+00
  0.49851407E+00  0.46806320E+00  0.37372159E+00
  0.27566842E+00  0.98010660E+00  0.23599097E+00
  0.77167660E+00  0.50638012E+00  0.75200439E+00
  0.26414323E+00  0.95462001E+00  0.72341624E+00
  0.76087377E+00  0.51866805E+00  0.25577891E+00
  0.23206519E+00  0.25268496E-01  0.98486538E+00
  0.74821604E+00  0.47082130E+00  0.49069812E+00
  0.27412191E+00  0.19994413E-01  0.48104242E+00
  0.76094181E+00  0.46256428E+00  0.69869422E-02
  0.77795105E+00  0.13936219E-03  0.74979535E+00
  0.25696756E+00  0.50491556E+00  0.24717938E+00
  0.24793387E+00  0.46270496E+00  0.75384329E+00
  0.78225874E+00  0.52231927E-01  0.26398171E+00
  0.23649032E+00  0.51273225E+00  0.48719572E+00
  0.74745134E+00  0.97782734E+00  0.99118384E+00
  0.78135258E+00  0.99013105E+00  0.50079905E+00
  0.25556593E+00  0.49742257E+00  0.99210076E+00
  0.65270902E-02  0.26531294E+00  0.38329074E+00
  0.51271559E+00  0.71360423E+00  0.87160104E+00
  0.51597856E+00  0.23875559E+00  0.62690361E+00
  0.99729336E+00  0.75420954E+00  0.12050133E+00
  0.81128299E-02  0.23285899E+00  0.87491329E+00
  0.52068708E+00  0.76382196E+00  0.36873482E+00
  0.10756866E-01  0.71808169E+00  0.62841802E+00
  0.48981405E+00  0.23916889E+00  0.12696286E+00
  0.14102401E+00  0.43279900E+00  0.43310408E-01
  0.67546500E+00  0.86161351E+00  0.54341155E+00
  0.65313986E+00  0.74432164E-01  0.93698278E+00
  0.11833795E+00  0.62820277E+00  0.44885154E+00
  0.36431257E+00  0.38649449E+00  0.94865769E+00
  0.89404802E+00  0.88421262E+00  0.45931788E+00
  0.84667661E+00  0.94684914E-01  0.45680492E-01
  0.35303249E+00  0.61214097E+00  0.55365549E+00
  0.86886766E+00  0.14634301E+00  0.20147511E+00
  0.34589765E+00  0.56916026E+00  0.70210070E+00
  0.89937257E+00  0.93360086E+00  0.29775470E+00
  0.36386721E+00  0.36081063E+00  0.80182383E+00
  0.14802490E+00  0.60563204E+00  0.30141407E+00
  0.67786738E+00  0.84090752E-01  0.81199491E+00
  0.14944191E+00  0.38318387E+00  0.20012422E+00
  0.67881836E+00  0.93029690E+00  0.68379198E+00
  0.87919735E+00  0.55914716E+00  0.96085586E+00
  0.37047121E+00  0.12715748E+00  0.42758567E+00
  0.84657307E+00  0.36424972E+00  0.54195392E+00
  0.34244049E+00  0.90884493E+00  0.36914942E-01
  0.18075598E+00  0.98407304E-01  0.54030551E+00
  0.64086148E+00  0.56972937E+00  0.50205892E-01
  0.12516952E+00  0.92162310E+00  0.93979325E+00
  0.63694625E+00  0.37442899E+00  0.44680894E+00