Na88 Ge16 P8 S96                        
   1.00000000000000     
    13.3422163233000006    0.0000000000000000    0.0000000000000000
     0.0000000000000000   13.3422163233000006    0.0000000000000000
     0.0000000000000000    0.0000000000000000   26.6844326466999995
   Na   Ge   P    S 
    88    16     8    96
Direct
  0.2505532711246039  0.9721443227390291  0.1101684355680392
  0.5027729501187669  0.4509786793405068  0.8977452559056467
  0.7367505337024349  0.7509489546563584  0.8258831655944449
  0.7755513192874149  0.2579705401841552  0.2616733709189636
  0.7447080583820364  0.0422237430140879  0.8837848122707528
  0.7803015390913453  0.7348347957647164  0.3807804713291310
  0.0241202348650069  0.4047898657081160  0.9806239234998699
  0.9629288775340782  0.5395746802604712  0.2249964527137119
  0.6588500155372617  0.2618226817083019  0.7077238345778238
  0.7978841177779508  0.2034042835516666  0.7993317529428384
  0.9918593128952660  0.5372571798238487  0.3659478271343726
  0.3092753515917014  0.4457978232042921  0.8742904549945597
  0.7978555805596491  0.2716852162629518  0.1312158987120554
  0.2336410275517269  0.7237520541906878  0.5831740835624796
  0.9764610469029096  0.9974359142383650  0.7810535635127288
  0.4721994000986522  0.6171808395355134  0.2722523284447746
  0.9822643540086724  0.9876934496282086  0.4940531311373071
  0.2449101057858578  0.4635503721532191  0.6381517366073586
  0.5439884345395442  0.0069447988839337  0.1359763766479435
  0.0031116394715682  0.5067350977613478  0.7279930706839615
  0.2617960320925006  0.2191972294183815  0.3636558177894293
  0.0036877132826519  0.9564789357246616  0.3894062678267357
  0.0032540652592855  0.5002551244909796  0.8542902385416925
  0.5064616060345828  0.4695781196041727  0.6236166691488209
  0.2815654529311263  0.7549477589050424  0.1149262674800661
  0.0086191998896134  0.4380586502810162  0.6205096525208714
  0.7870262043495910  0.7619076299198982  0.0283520652039349
  0.7283275292991780  0.2397751643557373  0.5393399637733942
  0.6901160337454143  0.7011039623515993  0.4708613376085951
  0.4931493828134447  0.2475935630428754  0.0103994394206744
  0.9749319530398570  0.1950506487415927  0.5230219839709803
  0.5225001104647283  0.7018758826238461  0.7132474197788369
  0.2372485497152679  0.7608514611769309  0.2426103626848109
  0.5211670885769085  0.4891043280564850  0.7617015380222147
  0.0221822698278823  0.9842799992139342  0.0940669762408456
  0.4476585297728533  0.9412720571085027  0.6141410493329366
  0.4875770737049465  0.9700939308796491  0.0033354276627309
  0.4927670839868706  0.9516319033714006  0.4905389841246076
  0.6857855054507224  0.9978144394638977  0.6333388110040271
  0.7898249892044119  0.7632308574180079  0.2051489029687173
  0.0067826067046306  0.0075197409457171  0.2525676797922456
  0.5513121488273169  0.7375426739829843  0.0219686689680046
  0.4649729335679357  0.9933661205189604  0.8724852599390086
  0.0537226875616125  0.5577195949520254  0.0921632373282713
  0.1783462065770803  0.2251118772102866  0.7826581470811558
  0.7333794909577391  0.4978668767582980  0.3697380092516717
  0.3370141687099052  0.6968998868661158  0.4883925855000854
  0.6700383423796129  0.6341898156273915  0.9393634196981974
  0.9635001633870967  0.9631692303733971  0.6282316092956548
  0.6382113128794882  0.8569446009228224  0.3116185787237981
  0.7486693561715007  0.7341753126645708  0.5925392843235486
  0.2947262148067461  0.9321811467942200  0.3686603471128873
  0.2196349030078181  0.2295446693613359  0.4903519358569848
  0.7600996788954292  0.5188619629382196  0.1156062475871531
  0.7558543154900766  0.4511829134652388  0.5983758161707717
  0.2124437589111045  0.7535307927885997  0.0030145003602586
  0.2577054119735672  0.2354847043871418  0.9897764448937406
  0.4538267555924186  0.1741892324564588  0.4757965089426486
  0.5079563775702699  0.4365110729922286  0.1963336755061217
  0.0076800666124023  0.5031006415846615  0.4959441195236371
  0.9882984055230095  0.0283322988842258  0.9674473771899045
  0.0018718554162118  0.7940500739119483  0.2538371259131261
  0.0120237543253165  0.7454893079653444  0.9756685077870761
  0.4898057452707644  0.4650397518260309  0.4845025286649663
  0.2843937531174844  0.2533243091866240  0.2284676776716378
  0.9954609126015685  0.7319090262779849  0.7501132430029404
  0.4980076810473625  0.0039541395919022  0.2544844001409708
  0.9536541744476302  0.2278909742722653  0.6777588378608789
  0.0734559505080144  0.2862816074433063  0.2840405905140357
  0.4676036791206096  0.2124750893716765  0.7669204023290738
  0.5135912048135143  0.2353658996403674  0.2968631434198633
  0.2542308903728250  0.7237297482308707  0.7581718657547468
  0.2689567845281399  0.4627156228962797  0.1375836487357852
  0.4775763007291672  0.9472949659965146  0.7438208726644014
  0.7686396202935045  0.4207116621943808  0.8789812996808342
  0.3287774936715229  0.5143675630657346  0.3879202879256037
  0.2523747123842561  0.7181870803016595  0.9008389633225161
  0.7550831397449599  0.0053805334601570  0.4060690742588459
  0.7672922140609345  0.9931949518233993  0.1366908840363602
  0.2174939226107096  0.2069152069177908  0.6450098128431186
  0.7639173627817949  0.2466805319085459  0.0029595208631922
  0.1823292011329835  0.7182941958063286  0.3608914999542086
  0.9969035199739816  0.7379812287385535  0.4971749010631286
  0.2236913774414666  0.2540436341095714  0.1198068608023282
  0.2063619902112511  0.9567799639308003  0.6327113451240248
  0.4910400200449315  0.4981847690114101  0.0412192731624379
  0.2250529200301123  0.0268217787540801  0.8625356389007985
  0.7557418554344933  0.2261968300966855  0.4128646968667959
  0.2701388256239228  0.9977586656950137  0.2354444737714158
  0.7592816109662143  0.4855875691786493  0.7384905488464404
  0.2371170341203544  0.9662583764141326  0.7471845142688152
  0.7205393383758846  0.5224207185891319  0.2343869355931509
  0.2623676530095240  0.9897425800192334  0.9857913187808298
  0.7659802003407066  0.4594167666626280  0.4990560418707127
  0.2354501358303132  0.9871695756119178  0.4911271062008020
  0.7946117784413843  0.4970858412498220  0.9978646209395408
  0.7304068386180835  0.9939291855554565  0.7490073334960700
  0.2195774945157092  0.5123309552944207  0.2574073305639026
  0.2785619721276248  0.4868726907597385  0.7598981321856444
  0.7592567332613620  0.0314807193137250  0.2561976492611828
  0.2455963468830894  0.4544476521145161  0.5102231427874137
  0.7552437695378811  0.0004816451891510  0.0152961287677281
  0.7410451076074794  0.9751808033638426  0.5156011579266293
  0.2513707443837325  0.4854207293486281  0.0077809222179461
  0.9922491549860960  0.2319360862639509  0.3841911884190579
  0.4888141017626934  0.7273925024484196  0.8820305514093508
  0.4701093024527020  0.1931028299723770  0.6287015423426021
  0.0056294659990494  0.7765352566113080  0.1201914377857544
  0.0061338396074047  0.2386079826606233  0.8618555325238342
  0.5065458212301220  0.7351682074677188  0.3822301482350290
  0.9886291127882529  0.7020118554714059  0.6301206981491067
  0.4867311884288878  0.2055608627917500  0.1229806413571038
  0.1853486482025068  0.3911967016773351  0.0617839604670988
  0.6233936384981114  0.8819321042963386  0.5553673703553215
  0.6491998687093273  0.0944952086260767  0.9676434823362448
  0.1682251042703844  0.5822461666679704  0.4609403603012431
  0.3578627824061614  0.3927465801273551  0.9663835719974128
  0.8275599289547813  0.8619326386782260  0.4679178656069592
  0.8509988729048323  0.0982073705357860  0.0608399229029825
  0.3549749777904805  0.5415296517041781  0.5489480233531088
  0.8729995300030708  0.1147920085017304  0.2036064438657444
  0.3830164397416441  0.5657515877072061  0.7059880783335317
  0.8397954057864802  0.8865389511412375  0.2960829991295566
  0.3737563417299393  0.3762106928903731  0.7988658202366462
  0.1008972154837031  0.6189426948824778  0.2967864652264102
  0.6174506172796234  0.1019949514728074  0.7986743657643773
  0.1225692171504517  0.4174105287843194  0.2081689232648536
  0.6441221880796537  0.8610203305562836  0.7054080069540644
  0.9012030368521073  0.5959437581589567  0.9482719029388555
  0.3124875993299584  0.0766418292182593  0.4350755393377279
  0.8937441898616231  0.3726152541525903  0.5314496517179738
  0.3390037223244347  0.8663771805843770  0.0362470538447293
  0.1332932588465824  0.0657561371699947  0.5432155495275079
  0.6863488514585530  0.5947867668559207  0.0414041084385228
  0.1655086392388614  0.8925464109709838  0.9367691345933650
  0.6568448305547974  0.3853639192305417  0.4432028512810756
  0.6180642109801552  0.4279919011489957  0.2805084643453160
  0.1388238176097462  0.8846383189227982  0.8007746838603099
  0.1283493394437686  0.0654744119791715  0.7001940586209275
  0.6467891379332845  0.6115369434100734  0.1809688795815786
  0.8595559535167381  0.4067590237229254  0.6765126249154146
  0.3750148707394157  0.8884891874448956  0.1992179946330885
  0.3669760632095346  0.1040290456310054  0.2971830609923802
  0.8650035716425931  0.5984129395298168  0.7869457825732162
  0.1587565915066678  0.0765423119963382  0.0390027571698704
  0.6274359709588219  0.5423936825381328  0.5389401023689253
  0.6709827968144277  0.4132691174875283  0.9599200758688683
  0.1284637874165097  0.8643652693406637  0.4435140502583279
  0.3446882246750348  0.0931823538742095  0.9378747819134784
  0.8381028639172480  0.5747378251218725  0.4498778368690041
  0.8879784737841000  0.4032721329403534  0.0529892277359464
  0.3203727089063848  0.8735264318937774  0.5418243346357756
  0.1796821887543592  0.0966371900744549  0.1940188164289264
  0.6338557856638981  0.5254043689860890  0.6877358865990129
  0.1614875058109334  0.9198010674237507  0.2927630000464154
  0.6824184275451227  0.3899928887824563  0.7959917052105755
  0.8141272044553550  0.6052502097072247  0.2910232476150036
  0.3237824214124361  0.0840624479339676  0.7926613218344107
  0.8107910513935546  0.4092691073185986  0.2000356046926407
  0.3351380842269869  0.8531475267455598  0.6946578207289665
  0.8408877648200414  0.9033215602383634  0.9593912078857774
  0.3533430376753056  0.3414061368482838  0.4612561002542265
  0.8421760266380379  0.0569142982856557  0.5611080216474494
  0.3396696223289598  0.5847260438267372  0.0546239231153689
  0.1485627805338260  0.3561262757811252  0.5572704321528370
  0.6504531538721000  0.8956518663388883  0.0493059340538427
  0.1564022271981422  0.5554566493961750  0.9554712763925575
  0.6583880854943720  0.1002877021019134  0.4673168716726139
  0.3106540646419165  0.4074628913221763  0.3037593779537284
  0.8044406110991789  0.9120040329866156  0.8090594976820662
  0.8337766968516053  0.0839780277670751  0.7001920728578386
  0.3426532805936516  0.5744566895844364  0.2082767056831588
  0.1505168019321494  0.3816995199023979  0.7261650877677883
  0.6514900269033660  0.9289454828262941  0.2134413980876407
  0.6927461284698425  0.1106497410892470  0.3176534955804894
  0.1911829405977193  0.5846062316133172  0.8090409576767411
  0.0867649389232595  0.1329407142691367  0.3476462531284849
  0.5725386644366114  0.8245034905500723  0.9240755400411876
  0.5782669762690146  0.2843480193153304  0.6030915811531758
  0.0986110547120987  0.6905471903057701  0.1703812408728230
  0.4065983835754243  0.3149986927177656  0.6716406621909271
  0.9398889507271998  0.8746213558112018  0.1742490748528299
  0.9090092074854453  0.3389789244751262  0.3454557858992575
  0.5674149673348763  0.6172331220768255  0.8487660438551630
  0.8806309874744209  0.2672764816508739  0.9171859644627969
  0.4753458547796278  0.6425136955515344  0.4406308864077791
  0.0582710325981341  0.8068442572621382  0.5887690352387344
  0.3785348327904985  0.1188080381655268  0.0910360914908246
  0.9180022132615500  0.6155988588482237  0.5722889885079613
  0.4482914920469470  0.3632496279189785  0.1055352247084509
  0.0153380393135029  0.0880109388126691  0.8650174566846365
  0.3764066569490160  0.7778775638397193  0.3403831626872322
  0.9004510338347017  0.7915807552711862  0.6752613940443827
  0.6282788927258103  0.1693449527054739  0.1013193467861937
  0.1294800039769834  0.3210679149400572  0.8752566101109566
  0.5966009454115495  0.6544845110988695  0.3367888466693946
  0.9819835342474424  0.2588137864995004  0.7879016069243407
  0.5676577543025122  0.8645410743994412  0.4066821061192639
  0.1051057524724760  0.6326911289496255  0.6700462453658484
  0.4776366439748526  0.1751272359805050  0.1943235419032746
  0.3598876327543629  0.1269605983188191  0.5850519737157069
  0.1060501695611561  0.8351003523254731  0.0733616359307867
  0.9124043667575957  0.1213968260517281  0.4270778930176346
  0.4084700777366084  0.6298429809525952  0.9265764530704701
  0.0912912781945336  0.3189375251916820  0.4290555452283092
  0.4070815361783850  0.8157518558631084  0.8328443015340219
  0.5367170388469027  0.0934492544849281  0.6728963701345844
  0.9047924666169737  0.6866269189035028  0.0944484555409188
 
  0.90574345E-02  0.62982580E-02  0.44359563E-02
 -0.36702654E-02  0.90753578E-03  0.29383040E-02
 -0.12709908E-01  0.58476463E-02 -0.54269424E-02
  0.38556607E-02 -0.17580575E-02 -0.53625027E-02
  0.95875959E-02 -0.40964912E-02  0.30983152E-02
 -0.36209623E-02  0.21228353E-02 -0.64507393E-02
  0.74878297E-02  0.30292976E-02 -0.42681279E-03
  0.36160203E-02 -0.10823238E-01  0.58689989E-02
  0.90927962E-02  0.47153728E-02 -0.10936480E-01
  0.11374979E-01  0.87593901E-03 -0.68546243E-03
  0.54630741E-02 -0.35482164E-02 -0.27257396E-02
 -0.40166230E-03 -0.27297482E-02 -0.25774075E-02
 -0.36495055E-02  0.68467629E-02  0.21233241E-02
  0.46610374E-02 -0.77978348E-02 -0.11453302E-01
  0.19724670E-02  0.72776272E-02 -0.34473149E-02
  0.28546709E-02  0.27218794E-02  0.15549208E-03
 -0.21211781E-02  0.93106423E-03  0.62829597E-02
  0.16828421E-02 -0.73941361E-02 -0.30024175E-02
 -0.33762601E-02 -0.88973930E-02  0.36630139E-02
 -0.96367617E-03 -0.60228447E-02 -0.49105160E-02
 -0.59722883E-02 -0.79272689E-02  0.62967778E-02
 -0.10737001E-01  0.22402100E-02 -0.65838608E-02
  0.26786655E-02  0.34936714E-03  0.11736198E-01
  0.12581438E-02 -0.95525580E-02 -0.62946951E-02
 -0.65235377E-02 -0.42278656E-02 -0.86058162E-02
 -0.47995626E-02  0.51547815E-02 -0.27655075E-02
 -0.59546269E-03 -0.91488738E-03  0.15683064E-01
 -0.18214609E-01 -0.25226643E-02 -0.18500090E-02
 -0.19356787E-02  0.23514284E-02 -0.31371314E-02
 -0.40468979E-03 -0.18346235E-02 -0.12455119E-01
  0.60609985E-05 -0.16127554E-02  0.76040114E-03
  0.26351041E-02 -0.58668553E-02 -0.14142029E-02
 -0.10269448E-01 -0.40393750E-02 -0.83060590E-03
 -0.68720227E-03  0.57085620E-03  0.31804510E-02
  0.32307658E-02  0.34276380E-02  0.72864454E-02
  0.42189971E-02  0.62604894E-02  0.67534606E-03
 -0.53392487E-02  0.20799621E-02  0.15235658E-02
 -0.71460890E-02  0.58170742E-02 -0.77781187E-02
 -0.13703907E-01  0.77644586E-02  0.21281798E-02
  0.66154609E-03 -0.37124625E-02  0.69400949E-02
  0.13039508E-01  0.32233395E-02  0.96645508E-03
  0.24079206E-02 -0.21191280E-02  0.45292544E-02
  0.17820390E-02 -0.97546069E-03 -0.37276114E-02
 -0.27904890E-02  0.56733672E-02 -0.16484617E-02
  0.43434752E-02 -0.11532612E-02  0.80011834E-02
  0.62309093E-02 -0.11282432E-01 -0.52694111E-02
 -0.38100703E-02 -0.35456377E-02 -0.13550520E-02
  0.67459698E-02 -0.20221935E-03 -0.41337261E-02
  0.24547026E-02 -0.14288086E-02  0.45653201E-02
  0.24408401E-02  0.73319989E-02 -0.17713101E-01
  0.23859570E-02  0.75844259E-02 -0.40293618E-02
 -0.60214932E-02  0.85671923E-02 -0.35334847E-02
  0.59293462E-03 -0.84630857E-03  0.95280137E-02
  0.50341299E-02 -0.18983702E-02 -0.40524981E-02
  0.65535922E-02  0.58329125E-02  0.76626681E-02
  0.42478676E-02 -0.38091882E-02  0.16237740E-02
 -0.39775026E-03  0.61692383E-02  0.13941435E-02
 -0.79523687E-03 -0.59075572E-02 -0.71284805E-03
 -0.11698365E-01  0.57437067E-02  0.57228464E-02
  0.18782601E-02  0.33156811E-02 -0.65709472E-03
 -0.44578467E-03  0.17545357E-02  0.80334584E-02
  0.82952080E-02 -0.12482164E-01  0.68536643E-02
 -0.34632498E-02  0.84958269E-02 -0.84660199E-02
  0.66201902E-02 -0.35733836E-03 -0.79811550E-02
  0.13752507E-02  0.57457726E-02 -0.98002108E-03
  0.37696666E-02  0.52441213E-02 -0.28249319E-02
 -0.40328741E-02 -0.68660482E-02  0.26291292E-03
 -0.63196794E-02  0.66237129E-02  0.36799818E-02
  0.17976216E-03 -0.36262153E-02 -0.20794262E-02
 -0.37553382E-02  0.25215990E-02  0.19688747E-02
  0.45208093E-02 -0.11260131E-01  0.56169356E-02
 -0.72579970E-04  0.19751726E-02  0.10205334E-01
  0.15064932E-02 -0.91588493E-03  0.69003731E-02
 -0.12670235E-02  0.26357911E-02  0.17667452E-02
  0.12933069E-01  0.25929338E-02  0.16422311E-02
 -0.33077729E-02 -0.88835742E-02  0.10037736E-01
  0.28370724E-02 -0.65731458E-02 -0.74406705E-02
  0.36110581E-02  0.86806827E-02 -0.53153555E-02
 -0.13400173E-03  0.40833522E-03  0.23438381E-02
 -0.45789711E-02 -0.21889692E-02  0.73428811E-02
 -0.42687160E-02  0.34647874E-02  0.41496397E-02
 -0.14669575E-01  0.24609813E-02 -0.54311140E-02
 -0.20039434E-02  0.26406022E-03  0.78309866E-03
  0.26549016E-03  0.87862249E-02  0.33611387E-02
 -0.43730412E-02  0.13498988E-03 -0.10845737E-02
 -0.31180842E-02  0.18071144E-02 -0.38277558E-02
 -0.35161364E-02  0.48350497E-04 -0.87298486E-02
 -0.70469084E-02  0.63521322E-02  0.19901409E-02
 -0.27062825E-02 -0.24048317E-02  0.18958697E-02
 -0.70118270E-02  0.27513303E-03  0.30550041E-03
  0.30825299E-02  0.49123125E-02  0.24087646E-02
  0.13322286E-02 -0.75669883E-03 -0.82290929E-03
 -0.10242734E-03 -0.10429744E-02  0.33802728E-02
 -0.12240320E-02  0.30184655E-02  0.35147539E-02
 -0.64285021E-03  0.42432551E-02  0.44063291E-02
 -0.19891519E-02 -0.70691614E-02 -0.17986515E-02
 -0.25961955E-02  0.14073098E-02  0.40635715E-03
  0.18124436E-03  0.52510947E-02 -0.29996214E-03
 -0.30719614E-02 -0.11636656E-02 -0.43581724E-02
 -0.59206843E-02 -0.26039195E-02 -0.27301937E-02
  0.12406979E-02  0.29272342E-02  0.19551963E-02
  0.20920287E-02  0.11954193E-02 -0.42611641E-03
  0.47987273E-03 -0.72121172E-02  0.72100144E-02
 -0.50725084E-02 -0.19952260E-02 -0.74526511E-02
  0.37009999E-02  0.96875547E-03  0.28003157E-02
 -0.43761907E-02  0.97849283E-02 -0.24552783E-02
 -0.57490413E-02  0.45930565E-02 -0.28380983E-02
  0.62749311E-02  0.62408734E-03 -0.15151794E-02
 -0.12077859E-03  0.45399272E-02 -0.52521253E-02
 -0.55642315E-02 -0.33677257E-02  0.97738406E-02
 -0.98874424E-02  0.35446947E-02  0.25700479E-02
 -0.31883658E-02  0.39073613E-02  0.33034907E-02
  0.72413171E-02  0.11075628E-01  0.17233066E-02
 -0.68009164E-02 -0.29286333E-02 -0.76769038E-02
 -0.28288524E-02  0.42684910E-02 -0.60721331E-03
  0.33901886E-02  0.40854626E-02 -0.61593524E-02
  0.44805239E-02 -0.38062774E-02  0.15035672E-02
 -0.67578597E-02  0.52181816E-02 -0.60774905E-03
  0.23694019E-02 -0.24739382E-02  0.45515905E-03
 -0.26824771E-02 -0.72072128E-02  0.92857079E-02
 -0.46037619E-02  0.19781728E-02  0.20950106E-02
  0.56215775E-02  0.45592080E-02  0.38009345E-02
  0.25328036E-02  0.41092639E-03  0.30611411E-04
 -0.40469877E-03 -0.29528759E-02  0.10011720E-02
  0.96412504E-02 -0.30799518E-02 -0.45393515E-02
  0.28448871E-03  0.37367445E-02  0.51750139E-02
  0.59634509E-03 -0.30973669E-02 -0.62861775E-02
  0.73579452E-02  0.39549142E-02  0.27328606E-02
 -0.46376265E-02 -0.42982722E-02  0.10729089E-01
 -0.52894617E-02  0.11868884E-02 -0.19436311E-02
  0.69683695E-02 -0.34134560E-02 -0.67564208E-02
  0.40301142E-02 -0.46849468E-02 -0.10588408E-01
  0.16944695E-02 -0.50443720E-02  0.89017318E-03
  0.22934666E-02  0.92822912E-03  0.76704328E-02
  0.67235657E-03  0.18939275E-02 -0.39143530E-02
 -0.53567115E-02  0.90747958E-02  0.34936092E-02
 -0.65894461E-03  0.21495128E-02  0.20430790E-02
  0.60920920E-04  0.35270302E-02  0.82687746E-02
  0.80130009E-03 -0.83847207E-02 -0.32344728E-02
  0.26735007E-02  0.92170658E-02 -0.82910632E-03
  0.42805964E-02 -0.23323140E-02  0.32033616E-02
  0.42152409E-02  0.74219559E-04  0.25295003E-02
 -0.71949243E-02  0.10192531E-01 -0.23219799E-02
 -0.96173732E-02  0.29215440E-03 -0.28436926E-02
 -0.12830486E-02 -0.95523694E-02  0.29020381E-02
 -0.13850788E-02 -0.49289733E-02  0.50702871E-02
 -0.18557622E-02 -0.14380345E-02  0.35023452E-02
 -0.11555948E-03 -0.28246725E-02 -0.17436919E-02
 -0.72540031E-04  0.23566576E-02 -0.16889695E-02
  0.49766189E-02  0.21299687E-02  0.44717852E-02
  0.46166308E-02 -0.56109016E-02  0.11887856E-01
  0.55043651E-03  0.14389114E-02 -0.48314801E-02
 -0.44412269E-02  0.18869621E-02 -0.11434219E-01
 -0.11964773E-02 -0.28822295E-03 -0.23261480E-04
 -0.70162138E-03  0.77740713E-02  0.44284253E-02
 -0.68067988E-02 -0.57023873E-02  0.23915502E-03
  0.11618199E-01  0.88085517E-03  0.47047379E-02
 -0.82637263E-02  0.12020830E-02  0.36050106E-02
 -0.20581804E-02 -0.71234022E-02  0.10494376E-02
 -0.15593385E-02 -0.28819952E-02 -0.51643515E-02
 -0.28798138E-02 -0.22817252E-03 -0.10313889E-01
 -0.34995609E-02  0.23521389E-02  0.45972001E-02
 -0.37921072E-02  0.60026047E-02 -0.82966172E-02
 -0.51359914E-02 -0.76857205E-02 -0.28481485E-02
 -0.10188745E-02  0.41653651E-02  0.24329660E-02
  0.10883256E-01 -0.38311867E-02  0.24290061E-02
 -0.40593721E-02 -0.47071166E-03 -0.38088318E-02
  0.60246953E-02  0.26615229E-02  0.85890869E-03
  0.24058350E-02 -0.22143378E-02  0.14890091E-02
  0.11755885E-01  0.56491607E-03  0.67696060E-02
 -0.80411236E-02  0.38602436E-02 -0.10587139E-01
 -0.22702377E-02 -0.19347020E-02  0.21424372E-02
  0.56214855E-02 -0.40588850E-02 -0.18974042E-02
 -0.25944573E-02 -0.11436486E-02  0.17120872E-02
  0.79933201E-04 -0.86680531E-02  0.10410922E-03
  0.23975162E-02  0.20888196E-02 -0.60672833E-02
  0.71325454E-02  0.32215551E-03 -0.36097928E-02
 -0.69034753E-02 -0.90943399E-02 -0.33553500E-02
  0.19149769E-02  0.37468446E-02  0.76647558E-02
  0.56838156E-03  0.52430744E-03  0.20083121E-02
  0.55058934E-02 -0.55708426E-02 -0.64897791E-03
  0.10929742E-01 -0.67106173E-02 -0.49900775E-02
 -0.17130616E-02  0.15003250E-01 -0.51190797E-02
  0.53935058E-03  0.70903011E-02 -0.32883728E-02
 -0.48787537E-04 -0.40544305E-02 -0.80905170E-02
  0.39336585E-02  0.47672690E-03 -0.73169157E-02
  0.12529638E-02 -0.53959515E-03  0.46535970E-02
 -0.77899595E-03 -0.14987741E-02  0.64214590E-03
  0.66916479E-03  0.77939871E-02 -0.37957552E-02
 -0.22827113E-02  0.11743907E-01  0.31911074E-02
 -0.44239200E-02 -0.32032536E-02  0.64577253E-02
  0.73593423E-02 -0.42502362E-02  0.34619557E-02
  0.49036746E-02 -0.39523371E-02  0.96283289E-02
 -0.44803958E-02 -0.12412813E-02 -0.13268980E-01
  0.67166038E-02 -0.18541170E-02 -0.67221637E-04
  0.33054500E-02 -0.13671581E-02 -0.65130697E-02
 -0.35026773E-02 -0.98412413E-03 -0.47757482E-02
  0.19122849E-02 -0.95924870E-03 -0.37946542E-02
  0.12811883E-01 -0.28829977E-02  0.21177308E-02
  0.39333513E-02  0.74786073E-04 -0.62629881E-03
  0.35209025E-02  0.36263205E-02 -0.24895046E-02
 -0.49867885E-02 -0.65604571E-02 -0.26384513E-02
  0.48189991E-02 -0.38727453E-02 -0.17622304E-02
 -0.28222448E-02  0.54621154E-02 -0.14122837E-02
  0.73021259E-02 -0.52674827E-02  0.26533638E-02
 -0.22866879E-02 -0.90399504E-03  0.54370630E-02
  0.86568785E-02 -0.18442621E-01 -0.34519098E-02
  0.45821445E-02 -0.93337779E-03  0.88772063E-02
 
           1
   2.00000000000000     
  0.67289808E+00  0.15911779E-02  0.00000000E+00  0.00000000E+00
  0.25191098E+00  0.97308843E+00  0.11050091E+00
  0.50222278E+00  0.45111472E+00  0.89796548E+00
  0.73484532E+00  0.75182552E+00  0.82547642E+00
  0.77612928E+00  0.25770701E+00  0.26127145E+00
  0.74614524E+00  0.41609678E-01  0.88401703E+00
  0.77975876E+00  0.73515301E+00  0.38029699E+00
  0.25242662E-01  0.40524396E+00  0.98059193E+00
  0.96347092E+00  0.53795228E+00  0.22543633E+00
  0.66021303E+00  0.26252952E+00  0.70690414E+00
  0.79958923E+00  0.20353559E+00  0.79928038E+00
  0.99267823E+00  0.53672530E+00  0.36574353E+00
  0.30921514E+00  0.44538863E+00  0.87409728E+00
  0.79730852E+00  0.27271155E+00  0.13137504E+00
  0.23433972E+00  0.72258316E+00  0.58231566E+00
  0.97675672E+00  0.99852683E+00  0.78079519E+00
  0.47262732E+00  0.61758885E+00  0.27226398E+00
  0.98194639E+00  0.98783302E+00  0.49452404E+00
  0.24516236E+00  0.46244199E+00  0.63792671E+00
  0.54348233E+00  0.56110785E-02  0.13625092E+00
  0.29671843E-02  0.50583227E+00  0.72762503E+00
  0.26090079E+00  0.21800893E+00  0.36412776E+00
  0.20782354E-02  0.95681474E+00  0.38891281E+00
  0.36555976E-02  0.50030749E+00  0.85516987E+00
  0.50665020E+00  0.46814619E+00  0.62314488E+00
  0.28058757E+00  0.75431400E+00  0.11428126E+00
  0.78997448E-02  0.43883135E+00  0.62030238E+00
  0.78693694E+00  0.76177049E+00  0.29527512E-01
  0.72559716E+00  0.23939702E+00  0.53920131E+00
  0.68982588E+00  0.70145644E+00  0.47062621E+00
  0.49308872E+00  0.24731855E+00  0.94659275E-02
  0.97493286E+00  0.19480890E+00  0.52307898E+00
  0.52289511E+00  0.70099644E+00  0.71314143E+00
  0.23570916E+00  0.76024596E+00  0.24254811E+00
  0.52106408E+00  0.48918990E+00  0.76193991E+00
  0.22666562E-01  0.98479380E+00  0.94613096E-01
  0.44829096E+00  0.94221051E+00  0.61419167E+00
  0.48677672E+00  0.97040572E+00  0.34496190E-02
  0.49169588E+00  0.95250388E+00  0.48995601E+00
  0.68373129E+00  0.99897833E+00  0.63349832E+00
  0.78992416E+00  0.76267436E+00  0.20566906E+00
  0.87372307E-02  0.80029200E-02  0.25264012E+00
  0.55167310E+00  0.73722502E+00  0.22308137E-01
  0.46524006E+00  0.99321990E+00  0.87220588E+00
  0.53304393E-01  0.55857003E+00  0.92039685E-01
  0.17899729E+00  0.22493900E+00  0.78325784E+00
  0.73431351E+00  0.49617564E+00  0.36934307E+00
  0.33644304E+00  0.69636840E+00  0.48829102E+00
  0.67104956E+00  0.63415950E+00  0.93905360E+00
  0.96386812E+00  0.96295505E+00  0.62857378E+00
  0.63857720E+00  0.85804367E+00  0.31029098E+00
  0.74902701E+00  0.73531222E+00  0.59223728E+00
  0.29382359E+00  0.93346537E+00  0.36839551E+00
  0.21972378E+00  0.22941781E+00  0.49106606E+00
  0.76085430E+00  0.51857740E+00  0.11530251E+00
  0.75683670E+00  0.45205727E+00  0.59895013E+00
  0.21308051E+00  0.75295979E+00  0.31362023E-02
  0.25764579E+00  0.23640947E+00  0.98988094E+00
  0.45370755E+00  0.17330369E+00  0.47574308E+00
  0.50620279E+00  0.43737206E+00  0.19676260E+00
  0.79616181E-02  0.50359766E+00  0.49589487E+00
  0.98823158E+00  0.28595304E-01  0.96804949E+00
  0.31153082E-02  0.79217900E+00  0.25435081E+00
  0.11504613E-01  0.74676283E+00  0.97503398E+00
  0.49079811E+00  0.46498619E+00  0.48390434E+00
  0.28459990E+00  0.25418560E+00  0.22839423E+00
  0.99602599E+00  0.73269512E+00  0.74990151E+00
  0.49740315E+00  0.29249181E-02  0.25450411E+00
  0.95270685E+00  0.22888387E+00  0.67803465E+00
  0.73482897E-01  0.28573804E+00  0.28388474E+00
  0.46704075E+00  0.21285308E+00  0.76706797E+00
  0.51426887E+00  0.23367800E+00  0.29728413E+00
  0.25422001E+00  0.72402583E+00  0.75893676E+00
  0.26918261E+00  0.46257833E+00  0.13810083E+00
  0.47738637E+00  0.94769007E+00  0.74395329E+00
  0.77057829E+00  0.42110034E+00  0.87910439E+00
  0.32828166E+00  0.51303591E+00  0.38867262E+00
  0.25279999E+00  0.71720176E+00  0.90028128E+00
  0.75562444E+00  0.66817690E-02  0.40567069E+00
  0.76727213E+00  0.99325616E+00  0.13686655E+00
  0.21680753E+00  0.20658708E+00  0.64556016E+00
  0.76327748E+00  0.24719990E+00  0.32705366E-02
  0.18013023E+00  0.71866310E+00  0.36048444E+00
  0.99660313E+00  0.73802081E+00  0.49723359E+00
  0.22373117E+00  0.25536069E+00  0.12005878E+00
  0.20570647E+00  0.95680020E+00  0.63263006E+00
  0.49057262E+00  0.49845566E+00  0.40932383E-01
  0.22452585E+00  0.26829026E-01  0.86188134E+00
  0.75468552E+00  0.22714902E+00  0.41301386E+00
  0.26973315E+00  0.99739818E+00  0.23558657E+00
  0.75823054E+00  0.48562881E+00  0.73851345E+00
  0.23757911E+00  0.96699473E+00  0.74736505E+00
  0.72073904E+00  0.52230729E+00  0.23432526E+00
  0.26235230E+00  0.98958624E+00  0.98604467E+00
  0.76579672E+00  0.45986924E+00  0.49931947E+00
  0.23535377E+00  0.98780564E+00  0.49145736E+00
  0.79431360E+00  0.49602617E+00  0.99772981E+00
  0.73001767E+00  0.99414014E+00  0.74903779E+00
  0.21960466E+00  0.51311810E+00  0.25738485E+00
  0.27810148E+00  0.48669826E+00  0.75957149E+00
  0.75836922E+00  0.31090391E-01  0.25599302E+00
  0.24578233E+00  0.45488644E+00  0.51036968E+00
  0.75555736E+00  0.66083870E-03  0.15264191E-01
  0.74111704E+00  0.97409971E+00  0.51614155E+00
  0.25061037E+00  0.48512164E+00  0.72223455E-02
  0.99280394E+00  0.23208130E+00  0.38440107E+00
  0.48815811E+00  0.72885926E+00  0.88184653E+00
  0.46924752E+00  0.19379133E+00  0.62848883E+00
  0.65700790E-02  0.77662881E+00  0.12007787E+00
  0.61157349E-02  0.23928852E+00  0.86146189E+00
  0.50571174E+00  0.73466338E+00  0.38296270E+00
  0.98714698E+00  0.70254321E+00  0.63031332E+00
  0.48625325E+00  0.20614658E+00  0.12322824E+00
  0.18643412E+00  0.39285694E+00  0.61913122E-01
  0.62237418E+00  0.88149310E+00  0.55479199E+00
  0.64877582E+00  0.95135056E-01  0.96759797E+00
  0.16873329E+00  0.58285858E+00  0.46047872E+00
  0.35853441E+00  0.39217602E+00  0.96649626E+00
  0.82654692E+00  0.86271484E+00  0.46787231E+00
  0.85135405E+00  0.97836527E-01  0.60874037E-01
  0.35457287E+00  0.54044929E+00  0.54964399E+00
  0.87230943E+00  0.11508854E+00  0.20376347E+00
  0.38385911E+00  0.56643501E+00  0.70627296E+00
  0.84017507E+00  0.88660055E+00  0.29608529E+00
  0.37369568E+00  0.37576806E+00  0.79894086E+00
  0.10234244E+00  0.61848101E+00  0.29644624E+00
  0.61749326E+00  0.10255509E+00  0.79906223E+00
  0.12265861E+00  0.41694623E+00  0.20769777E+00
  0.64522515E+00  0.86161317E+00  0.70561284E+00
  0.90050786E+00  0.59529945E+00  0.94907605E+00
  0.31169471E+00  0.76819744E-01  0.43492986E+00
  0.89478875E+00  0.37210358E+00  0.53094326E+00
  0.33960784E+00  0.86567491E+00  0.35453452E-01
  0.13354726E+00  0.64999985E-01  0.54328227E+00
  0.68669264E+00  0.59492591E+00  0.41979008E-01
  0.16560943E+00  0.89283031E+00  0.93647575E+00
  0.65604186E+00  0.38672423E+00  0.44346470E+00