Na88 Sn16 P8 S96                        
   1.00000000000000     
    13.4813327813000008    0.0000000000000000    0.0000000000000000
     0.0000000000000000   13.4813327813000008    0.0000000000000000
     0.0000000000000000    0.0000000000000000   26.9626655626000016
   Na   Sn   P    S 
    88    16     8    96
Direct
  0.0191963928075202  0.0142453861983882  0.1312618023114905
  0.5801165004055908  0.5284770205216383  0.6200416579627248
  0.5108699941176340  0.5070813035494641  0.7804543449497396
  0.9994317835636779  0.0143729881162161  0.3912899715509660
  0.2626542268770114  0.9208100238647464  0.8668448189427022
  0.0597825681352021  0.4959163613627481  0.3703181581897327
  0.9949321069407867  0.5030699431328166  0.0869760343910925
  0.2355967545515928  0.2367868100257402  0.2571052724540749
  0.9983194179106144  0.0133206174331752  0.6254689003980101
  0.7389916383993429  0.2445631397889990  0.8793920757715588
  0.7182079737048964  0.7349653859207833  0.4786231635095900
  0.3439098848553544  0.2354791796574648  0.8727713531545681
  0.7309066499694199  0.0277251329261690  0.1109179741220330
  0.3035871761950740  0.7975833591575273  0.6264272423103640
  0.0161661628611667  0.9623559140602223  0.8704612764148767
  0.4812393134387289  0.4669396893077342  0.3548489650093804
  0.0018939163075896  0.9936735869555103  0.7513353024141844
  0.0287426292089145  0.5361282318114172  0.6837223086700940
  0.2476112531598016  0.0077840812363744  0.1195345831692110
  0.7621072951067502  0.4988375240565450  0.8648115761807926
  0.5191205302311066  0.9974934144124992  0.3970205297796178
  0.2736288396971602  0.3220554754929448  0.3762314455527289
  0.7758364481992113  0.7774690694765700  0.8651694423408280
  0.8144870563935556  0.5051359457156747  0.6107347134774943
  0.2618915133889843  0.7037589282899307  0.0140640859206546
  0.2394659647230676  0.2269890651239390  0.6172523522023354
  0.8141651173576412  0.2804630925081880  0.1225828446997415
  0.7383585358820486  0.2384218170102954  0.3930246049395112
  0.2405711039377522  0.7709327791770089  0.4907609574520439
  0.4763633674553597  0.9820680998898725  0.0018950277970093
  0.0041263141041173  0.4937941044164277  0.5010380466885656
  0.5132546740147801  0.0162722330244179  0.7318429819494132
  0.0070005352406010  0.7461097710863424  0.2683276247602742
  0.5479007496477765  0.2681008755626428  0.7431791613276334
  0.9828319316639195  0.9512635456464671  0.0113961891322665
  0.4833164113529613  0.2957530813204523  0.4786763232178193
  0.5045763225613868  0.7321209071402340  0.0009692060173365
  0.4883756911362525  0.2516451643545056  0.2445922091510757
  0.0335284285577279  0.7338438298651559  0.7515764622136818
  0.4924824779100087  0.7677906464671063  0.2484222973688213
  0.9988086536463114  0.0316629323298409  0.2596956765731493
  0.5534318761738265  0.7253307899997514  0.7207903190244969
  0.5237737910023882  0.0042619030254597  0.8670935328926306
  0.0024380371015702  0.5250835931641015  0.2315851885644141
  0.2595780807083508  0.2079635240365505  0.0098488985219959
  0.4645642092993622  0.7686800801618626  0.4944285352073732
  0.9930755260912794  0.7379852098047474  0.4874105346615321
  0.7248441918653040  0.2817000547237358  0.0044537078130295
  0.8637931982816747  0.2559919934449991  0.7831520732185057
  0.5223610343605122  0.5005206425525967  0.2383686067500756
  0.0113923740978317  0.4988372586523877  0.8022329714988832
  0.5515271045044443  0.0049956283608517  0.2363720832685944
  0.2491763613339964  0.2769310677790366  0.4983277854423908
  0.7346558320642942  0.7569845867558793  0.9993913435199633
  0.7878621868029213  0.2135361984749247  0.5134561789805743
  0.9916688923748436  0.7522748327108352  0.9731087164087949
  0.0154665058201648  0.2222018027118643  0.0039095921374248
  0.5164341141008665  0.4912904670302882  0.5000473012285847
  0.4910393148450755  0.3906333969502314  0.0139736899122313
  0.9988758459376721  0.0068988518072304  0.4949576948215290
  0.5281574605806553  0.9529197971039138  0.1359119794324249
  0.0065776588643942  0.2460504963599636  0.5281976214442035
  0.0148474862010483  0.4146226129008510  0.9585721047100897
  0.4786029792651496  0.0609294841258979  0.5220994665152583
  0.0107566985350426  0.3006540709162606  0.2070021631457832
  0.7630208512861116  0.7483130589391360  0.7421630701633060
  0.2454178909539396  0.7420205873521691  0.2558228065688881
  0.7824086221237599  0.2357006019785302  0.6513259860847307
  0.7753457664076472  0.7534126063575314  0.2605951438444380
  0.2312636628569593  0.2566177502823042  0.7523618776324810
  0.7481713081748451  0.2563697319060048  0.2600679212159083
  0.2825307290371441  0.7468908319609789  0.7498781425868331
  0.2264657752814858  0.2660815412944528  0.1244466161056020
  0.6646757091999657  0.0353922943327680  0.6232109878216334
  0.7756802160941634  0.0239460630877046  0.8739425313536902
  0.2458850776944259  0.7057133718488616  0.3788156316321326
  0.1955221749037105  0.4251095465375475  0.8680152285716267
  0.7784552415550954  0.9460184190364880  0.3835287529960555
  0.7481298839155628  0.7488170488831243  0.1347948489155874
  0.2616155940128277  0.5299897438076467  0.6301844969300144
  0.5042852829201332  0.4329410081344478  0.8816204364988544
  0.2307134481706193  0.0478541805049220  0.3783516666593475
  0.7803228105181664  0.7631594388610373  0.6090380476295320
  0.2236265802554881  0.7176293034811512  0.1261674999104245
  0.3058516941470977  0.0174611682669934  0.6273535322694428
  0.5144493481450125  0.5118100662201684  0.1165672835397102
  0.2733772728826079  0.6902733532807268  0.8748716846903334
  0.7427094853245833  0.5536177774670950  0.3686741436998224
  0.2798124032502222  0.9979959960653580  0.2586018117032924
  0.7718685014597839  0.4849284807160494  0.7496415278914804
  0.2484692527152246  0.0067120069135067  0.7480224765269435
  0.7533445814307064  0.5014952914397324  0.2520296723392113
  0.2563021466934273  0.9639081172896645  0.9999208073235968
  0.7545617915327484  0.4824915432495010  0.4940523852269705
  0.2411567613047985  0.9971962784363848  0.4923616649511845
  0.7636287582786504  0.5347579945583496  0.0001277388402369
  0.7322479858418497  0.0053824511000071  0.7519984439670430
  0.2577657890211608  0.5082201739540153  0.2358977800574407
  0.2930316189362724  0.4931235378435907  0.7525868885627455
  0.7821101699317669  0.0013624447869474  0.2476783495483331
  0.2472614086028314  0.5231319175279945  0.5053442872893733
  0.7130858767303828  0.0479803658027182  0.9999165592961432
  0.7335768893650616  0.9920713358886337  0.5027304585759055
  0.2578168641432044  0.4845243568244680  0.9988110607211964
  0.0086914906066752  0.2648622376454804  0.3842748138048074
  0.5205143451198297  0.7552116257327559  0.8619174388632680
  0.5116063976719923  0.2672507693327429  0.6132771756263781
  0.9900587743008195  0.7773514781511612  0.1268045446257831
  0.0101423030149246  0.2315303988669566  0.8775541207417795
  0.4934528496041013  0.7447568368688909  0.3732174415771797
  0.0287381203927079  0.7501048864107118  0.6255202198310678
  0.4981531511555673  0.2393712822914047  0.1271084540908775
  0.1454957503518170  0.3678829191545643  0.0409392321744922
  0.6181559876191337  0.8875494298831559  0.5411016735352506
  0.6142715922260453  0.1425973335983873  0.9489092083718788
  0.1348691613402496  0.6007938422521227  0.4481961449881706
  0.3467290360545149  0.3707297827053951  0.9451367816718226
  0.8668003100680670  0.8950306678422760  0.4603709380981750
  0.8517192113684966  0.1121693254855551  0.0456070279073211
  0.3395621290452851  0.6573560093349717  0.5450925981282043
  0.8622764447380653  0.1113379162336623  0.1887594404498736
  0.4022643909240219  0.6088666189666333  0.7076753960590142
  0.8884305946054928  0.9056228451554743  0.2963243541983566
  0.3898893695538946  0.3669300070611184  0.7968444205776255
  0.1484732683017352  0.5817204567355395  0.2988035486818212
  0.6382810555833153  0.1228232335773371  0.8108909630100084
  0.1586794224265526  0.4236335051913154  0.1745308410651126
  0.6628653075199041  0.9054669973346623  0.6837534533431987
  0.8528554425965942  0.6296726157403201  0.9402744017963600
  0.3173072429498860  0.1376942409379979  0.4498772783988848
  0.8536572741810146  0.3830631246820232  0.5501918124807880
  0.3444694504998180  0.8793037839780891  0.0573154434999606
  0.1541771248753236  0.1019845440559635  0.5525968745327109
  0.6640686179087056  0.6136153779405739  0.0558825295445385
  0.1573015733105494  0.8501699854972640  0.9475615211575703
  0.6342284653096256  0.4023738030416016  0.4333614691480264
  0.6349131177450882  0.3888525030757405  0.2954407362834364
  0.1587999116253465  0.8959774383268551  0.7970830415232266
  0.1595822717594861  0.1007253968786303  0.6878948301802346
  0.6601704592534710  0.6285631677914298  0.2081359391575163
  0.8930328731931431  0.3840036278301208  0.7134832755393702
  0.3778994128419375  0.9108443737201066  0.1943049327324745
  0.3876617073178577  0.1230360097706983  0.2987449116228059
  0.8643219750927675  0.6110429256012707  0.7920591571613329
  0.1382773963116140  0.0653963856295656  0.0408578257783671
  0.6830186284378206  0.6007769114011819  0.5532568588637790
  0.6713881311386712  0.4357042387653550  0.9422472242702784
  0.1183856024628152  0.9279618374381815  0.4418504161829380
  0.3426720617824749  0.0606035028576189  0.9357624114491411
  0.8586494626034712  0.5908781689641767  0.4487230059209384
  0.8618432566121405  0.3851727653800445  0.0345156723485447
  0.3430365416492168  0.9093499073061916  0.5437317343195458
  0.1643965999602726  0.0865823455748955  0.2030999027259218
  0.6995155312533680  0.5996737240783306  0.6839649814983028
  0.1654567631397721  0.9167419779721540  0.3088477762619757
  0.6547129110103888  0.3830595515722582  0.7928511700318206
  0.8680220861228541  0.5774778615514744  0.3013993757643388
  0.3835863613962094  0.1055434632416921  0.7904715831670684
  0.8377063573626733  0.4092562162681919  0.1896052994683786
  0.3502863791708782  0.8918877046020524  0.7004307332434128
  0.8064873173412412  0.8982781577829327  0.9510856606315709
  0.3378885211992948  0.4312032968592735  0.4532739796954122
  0.8359518735111041  0.0556383911043182  0.5734409855582794
  0.3835233214698882  0.5796442602662334  0.0504030981509242
  0.1463067981530684  0.4191070853064494  0.5568811707657986
  0.6159923348100348  0.9273006470380596  0.0484511445305318
  0.1600952247953602  0.5958987771075880  0.9557850385983985
  0.6395954135325019  0.1073033499201882  0.4596186528616613
  0.3501584240493682  0.4042945191431688  0.2911956154644901
  0.8453023150504090  0.9127727970612151  0.8044325025085914
  0.8624682602050810  0.1058919218146204  0.7186208989777307
  0.3507091496860564  0.6338547176614362  0.1980869315239371
  0.2034407145556350  0.4040995569360651  0.6953810764185432
  0.6872288221089160  0.8839099739842088  0.2010696105547289
  0.6964308438488959  0.0800559484043035  0.3166948788889543
  0.1754385567899064  0.5923981291737931  0.8030753967876233
  0.1119671994190775  0.1714218794933877  0.3491312129519796
  0.6135884094176782  0.6823533596409092  0.8117335652172540
  0.6217138991835827  0.3409155131734619  0.6564644874399428
  0.0861475910762845  0.8446824943094821  0.1727635424254025
  0.4581626632885804  0.1425763504096132  0.6549373379757746
  0.9410003460514922  0.6622411191686982  0.1647010526435627
  0.9244437281446967  0.3467590301505979  0.3316243933834394
  0.4153273500577360  0.8241620155841025  0.8192043627926722
  0.1383241449299195  0.2686695988350053  0.9175600166151845
  0.5501660066075651  0.6229868557516826  0.4124514739066478
  0.0972449121655667  0.8524645198579837  0.5758606548712289
  0.6125783078196814  0.2824914321265430  0.0797876727412323
  0.9312198862529465  0.6532596775476700  0.5922937893191069
  0.4017796525270290  0.1489814273175066  0.0917592539252351
  0.9411735553222567  0.3686794253295079  0.8623988622550602
  0.4115818574661126  0.8464579898217536  0.4124494304557667
  0.9482399881774771  0.8356131291614504  0.6690494008145714
  0.4209595945325769  0.3505844483308071  0.1580397367689539
  0.9148783110224650  0.1360630115336595  0.9060977730641082
  0.3967107460927051  0.6802040070948789  0.3262661120384260
  0.0467387543229409  0.1861000060501597  0.8075926620004027
  0.6040628049728810  0.8263958286500956  0.3411565985917356
  0.1369294244098624  0.6921694942995585  0.6744237429416702
  0.5954298008119427  0.1549096982626064  0.1754839617288520
  0.4209391984844640  0.3484720557550879  0.5668926134504365
  0.8870042561619048  0.8910308336431689  0.1011036530579740
  0.9132967341848841  0.1917121090805136  0.4335124712806699
  0.4682114446062338  0.6437840378146360  0.9076763251706986
  0.1066522822356960  0.3459525072613011  0.4261698957071527
  0.5822784519838670  0.8482499966181111  0.9112142540613003
  0.5979796108478931  0.1842549753873741  0.5668135083730311
  0.0453087624052898  0.7203044213684434  0.0686048515247183
 
  0.23182873E-03 -0.53424046E-02  0.19198555E-03
  0.27457493E-02  0.15795303E-02  0.24188222E-02
  0.46191818E-03 -0.71881281E-02 -0.15353439E-01
 -0.37591933E-02 -0.57724367E-02 -0.52085902E-02
  0.18448195E-02 -0.72626463E-02 -0.75161073E-03
  0.35144810E-02 -0.75068316E-03  0.23590819E-02
  0.19648883E-02  0.50130785E-02 -0.28642577E-02
  0.60899365E-02 -0.35383006E-02 -0.27062755E-02
  0.13795099E-01  0.13836705E-02 -0.93606028E-02
 -0.41193401E-02  0.59313785E-02 -0.32047779E-02
  0.63423566E-02 -0.39063392E-02  0.13273177E-01
  0.57239858E-02 -0.13418395E-01  0.42815975E-02
  0.80624485E-02 -0.58415899E-02 -0.23788418E-02
 -0.56272824E-02  0.54928251E-02  0.63511388E-02
  0.35585856E-02 -0.76451864E-02  0.65187217E-02
 -0.25720995E-02 -0.29646472E-02  0.27186837E-02
 -0.27965644E-02  0.29201617E-02 -0.66509175E-02
 -0.37326747E-02 -0.90180883E-02 -0.30255648E-02
 -0.15809864E-02 -0.28140179E-02  0.23240738E-02
  0.25672316E-02  0.65555986E-02  0.75301376E-02
 -0.87737803E-02  0.10251640E-01  0.15606825E-02
 -0.13816790E-02 -0.19104538E-02  0.43885768E-02
 -0.14059687E-03  0.41087080E-02  0.17815359E-02
 -0.65179831E-02  0.10335347E-03  0.17073300E-02
 -0.85674956E-02  0.11840027E-01 -0.50539348E-02
  0.27589858E-03  0.34392931E-02 -0.37072677E-03
  0.41182535E-02 -0.19510883E-03 -0.53771886E-02
  0.83499494E-03 -0.44984495E-02  0.31335369E-02
 -0.39017704E-02 -0.56344644E-03  0.52744383E-02
  0.38767191E-02  0.11444837E-02 -0.54116783E-02
  0.74666771E-02 -0.24723202E-03  0.53363343E-02
 -0.20428014E-02  0.25767296E-02 -0.33413605E-04
 -0.23108923E-02 -0.33100498E-02 -0.94740671E-03
 -0.82599889E-02  0.22979313E-02 -0.42021817E-02
  0.90264853E-02 -0.41539659E-02 -0.19749665E-02
 -0.40631557E-02  0.15568352E-02  0.28842715E-02
  0.58313818E-02 -0.52450207E-02 -0.97077964E-02
 -0.27412071E-02  0.26674496E-02  0.74969808E-03
 -0.89129524E-02  0.17395207E-01 -0.52171734E-02
 -0.47225453E-04 -0.11140788E-01  0.53693288E-03
 -0.58604847E-03  0.63509803E-02  0.12378828E-02
 -0.90475540E-02 -0.71058828E-02 -0.89734916E-02
  0.86834722E-02  0.30525736E-02 -0.14163751E-01
 -0.17129050E-02  0.45260149E-03  0.24384096E-02
 -0.29648188E-02 -0.47793921E-02  0.37464994E-02
 -0.82450936E-02  0.21853307E-02 -0.17884859E-03
 -0.49485221E-02  0.96390780E-02 -0.23257997E-02
  0.20988290E-02 -0.95506715E-02  0.16547395E-02
  0.14460271E-01 -0.56568203E-02  0.21219400E-02
 -0.53579376E-02  0.12664246E-01  0.28177431E-03
  0.30591700E-02  0.61131901E-02 -0.50571222E-02
 -0.55625427E-02 -0.89386035E-02  0.43829211E-02
 -0.13200340E-02 -0.93204201E-02 -0.15578635E-02
 -0.31456752E-02  0.52330569E-02  0.24259491E-02
  0.11199677E-01  0.63729729E-02  0.10902836E-01
  0.16453298E-02 -0.11283966E-01  0.25669266E-02
  0.53784698E-02  0.92981884E-03 -0.12875247E-02
  0.24912162E-03 -0.17420719E-02  0.54920593E-02
  0.70711452E-03  0.20232074E-02  0.18484356E-03
 -0.18407636E-02 -0.22506977E-02 -0.63127170E-02
  0.22260874E-02 -0.27885057E-02 -0.27087396E-02
 -0.11388741E-01 -0.26878094E-02 -0.57935475E-02
 -0.56812369E-02 -0.36958000E-02 -0.62262164E-02
  0.43871654E-02  0.89984923E-02 -0.65272546E-02
 -0.37616461E-02 -0.42607209E-02  0.71519093E-02
  0.27132513E-02  0.13524334E-02  0.29720145E-02
  0.44121523E-02  0.40161767E-02 -0.28202567E-02
  0.52529193E-02  0.11147526E-02  0.52662091E-02
 -0.84955330E-02 -0.60440839E-03 -0.10712264E-01
 -0.85733308E-03  0.62904761E-02  0.99504116E-02
 -0.42066867E-02 -0.46147408E-03  0.16931817E-02
  0.24383070E-02  0.91278819E-02  0.18907770E-02
  0.12679421E-01 -0.21147073E-02  0.10941039E-02
  0.74966061E-02  0.46157523E-02 -0.57430971E-02
  0.23762729E-02  0.11605745E-02  0.13428963E-02
 -0.30949621E-02 -0.41102046E-02  0.39370111E-02
  0.12364227E-01 -0.11807188E-02 -0.46609046E-02
 -0.56805563E-03 -0.60259646E-03 -0.94777418E-03
 -0.67814126E-02 -0.15360804E-03  0.40929353E-02
  0.87583044E-02  0.45032054E-02 -0.53592590E-02
 -0.57274907E-02  0.66885795E-03  0.57880657E-02
 -0.66106089E-02  0.57194921E-02  0.47302483E-02
  0.30263584E-02 -0.89214870E-02  0.74844145E-02
  0.87299435E-02  0.33433360E-02  0.69432553E-02
 -0.45554108E-02  0.10939643E-01  0.62095009E-02
  0.91120818E-02 -0.35552135E-02 -0.64486253E-02
 -0.77880983E-02  0.57231213E-02  0.71540618E-03
 -0.30959287E-02  0.70113705E-02 -0.56138404E-03
  0.68073853E-03  0.21379068E-02 -0.16490617E-03
 -0.62346064E-02 -0.21809873E-02 -0.22197793E-02
  0.17494123E-02 -0.14319318E-02 -0.86681928E-03
  0.12413384E-02  0.57862058E-03 -0.54367834E-02
 -0.24522950E-02 -0.42991151E-03 -0.49178250E-02
  0.34879309E-02 -0.16401229E-02  0.25791378E-03
  0.13900834E-02 -0.43704805E-02  0.30195112E-02
 -0.88042482E-03 -0.67087904E-03 -0.12435326E-02
  0.11224411E-03 -0.33603093E-02 -0.99803209E-03
 -0.11134181E-02 -0.20765694E-03 -0.74457030E-04
 -0.47249547E-02  0.65434337E-03  0.88245658E-05
 -0.31613833E-02  0.41068315E-02 -0.43501187E-02
  0.15025171E-02 -0.17819147E-03 -0.26832246E-02
  0.45413827E-02 -0.15836247E-03  0.21086677E-02
 -0.16824077E-03 -0.18785035E-02  0.49423880E-04
  0.56689468E-03 -0.24233484E-02  0.36504020E-02
 -0.64509589E-03 -0.26447871E-02 -0.15512433E-02
 -0.27218172E-02  0.14836645E-02 -0.96435549E-03
 -0.58758668E-03 -0.94496339E-02  0.32042944E-02
 -0.53276687E-02  0.36066911E-02 -0.10458000E-01
  0.41304739E-02  0.62799105E-03 -0.49052713E-03
 -0.47424691E-02  0.65865512E-02  0.20420909E-02
 -0.49902084E-03  0.24900963E-02  0.73664316E-02
  0.62455813E-02  0.17997235E-02 -0.58672329E-02
  0.99299906E-03 -0.89439302E-02 -0.30283192E-02
  0.40491288E-03  0.12632166E-02  0.85451924E-03
 -0.28253108E-02  0.38591949E-02  0.40430406E-02
  0.79997490E-02  0.89696906E-03 -0.11755479E-02
  0.31601712E-02 -0.70298301E-02  0.48125827E-02
  0.69458739E-02  0.39788020E-02 -0.31369365E-02
  0.17449857E-02  0.15080383E-02  0.14668594E-02
 -0.18947902E-02  0.45062951E-02  0.21713070E-02
  0.57648289E-02 -0.29562493E-02  0.61087776E-02
  0.43575065E-03  0.47580281E-02  0.11071216E-02
 -0.75951596E-02  0.92172397E-02 -0.42293880E-02
  0.83111510E-02 -0.86139066E-02  0.83169700E-02
 -0.89132598E-02  0.83209088E-03  0.61358362E-02
  0.49061975E-02 -0.48843216E-02 -0.10393513E-02
  0.32223162E-02 -0.16488634E-03 -0.15423306E-02
  0.17527630E-02 -0.94274245E-03  0.33104292E-02
  0.57844226E-02 -0.45908177E-03 -0.37826169E-03
 -0.76531841E-03 -0.78700402E-02 -0.46544226E-02
  0.65719682E-02 -0.14038566E-02  0.32012833E-02
  0.67340909E-02 -0.11893224E-01 -0.90983771E-02
 -0.88141975E-03 -0.47980581E-02 -0.14214007E-03
 -0.26888233E-02  0.25390656E-02  0.88778746E-02
 -0.11664090E-02 -0.45654130E-02 -0.62305295E-02
 -0.13231885E-01  0.14083281E-02 -0.10874528E-02
  0.62107180E-02  0.36063915E-02 -0.51975498E-02
 -0.13945177E-01  0.93862208E-02 -0.26778635E-02
  0.46457264E-02  0.46890357E-02  0.37094629E-03
 -0.10369719E-03 -0.81496190E-02 -0.41750090E-03
 -0.19433397E-02  0.17607913E-02 -0.67023218E-03
 -0.45475948E-02 -0.39628934E-02  0.98199671E-02
 -0.51043085E-03 -0.51433169E-02  0.45490236E-02
  0.40224795E-02 -0.42783885E-02  0.31717280E-02
 -0.47160125E-02  0.22332829E-02  0.11004697E-02
 -0.38869974E-02 -0.83140269E-03  0.28726257E-02
 -0.20742297E-02 -0.81019198E-03  0.59958179E-02
  0.66051589E-02 -0.22090324E-02  0.96006788E-03
 -0.47712136E-02  0.42162651E-02  0.38172978E-02
 -0.28881809E-02 -0.14609252E-02 -0.23942673E-02
  0.14618224E-02 -0.84642169E-03  0.35554513E-03
 -0.42410791E-03  0.14879893E-02  0.66220846E-02
  0.40700286E-02 -0.20120339E-02  0.48568644E-02
  0.35545956E-02 -0.17730631E-02  0.12358088E-02
 -0.12927686E-01 -0.70049419E-02 -0.77791491E-02
  0.52284024E-02  0.52322602E-02  0.16744276E-03
  0.96441125E-02 -0.16569973E-02  0.43812552E-03
  0.33360269E-02 -0.52680821E-04 -0.58206828E-02
  0.19370376E-02  0.44256925E-03 -0.67322504E-02
  0.19233511E-02  0.47316959E-02  0.50226160E-02
 -0.42133372E-02  0.65994320E-02 -0.22111957E-02
  0.15982192E-02 -0.59714961E-03  0.56022349E-03
  0.24376393E-02  0.63034049E-02  0.94418004E-02
 -0.31544318E-03 -0.50379025E-02 -0.30807294E-02
 -0.17485915E-02  0.77715196E-02  0.34011327E-02
 -0.59086048E-03 -0.33546773E-02  0.57757575E-02
 -0.50315044E-02 -0.45529248E-02 -0.58677020E-02
  0.12193070E-04 -0.20665531E-02 -0.52865235E-03
  0.10153549E-02  0.19567845E-02 -0.40326048E-02
 -0.47866359E-02  0.42342218E-02 -0.29262704E-02
  0.74952420E-02  0.99860764E-03 -0.60827047E-02
  0.99293141E-03  0.20812523E-02  0.82234419E-02
 -0.22691073E-02  0.19132628E-02 -0.16290867E-02
  0.46000517E-02  0.76160961E-02 -0.46361473E-03
  0.34364275E-02  0.65584101E-03  0.65381698E-02
 -0.12973847E-05 -0.33533651E-02  0.75430151E-02
  0.16427080E-02 -0.11758659E-01  0.57385082E-02
 -0.90082901E-02 -0.45807329E-02 -0.11272253E-02
 -0.25774761E-04 -0.30793645E-02 -0.69936670E-02
 -0.13199823E-02  0.48858396E-02  0.18642915E-02
 -0.65719098E-02  0.10674105E-01 -0.47651869E-02
 -0.39598661E-02  0.72780032E-02 -0.84111941E-02
  0.34655945E-02 -0.79904263E-03  0.14077011E-02
  0.47440972E-02  0.44670102E-02  0.85840215E-02
 -0.34154557E-02  0.45312559E-02 -0.12537089E-02
 -0.11607415E-03  0.10205991E-01  0.80275253E-03
 -0.15791791E-02  0.83522143E-03  0.11196645E-01
 -0.29450234E-02  0.42282540E-02  0.69152952E-02
  0.32656155E-03  0.81110488E-03 -0.57206075E-03
  0.46687045E-02  0.63870760E-02 -0.55235010E-02
  0.46586294E-03 -0.43563925E-02 -0.21936877E-02
  0.36830182E-02 -0.22982193E-02 -0.18449678E-02
  0.15812613E-02 -0.60529127E-02 -0.28314700E-02
 -0.33726443E-02  0.33850225E-03  0.41179314E-03
 -0.37814653E-02  0.89272963E-02 -0.12314910E-01
 -0.16064362E-02  0.35909886E-02  0.46551764E-03
 -0.23544410E-03  0.52709804E-03 -0.86042987E-03
  0.65428707E-02  0.91082418E-03 -0.33845875E-02
 -0.16969924E-02 -0.32099540E-02  0.78927037E-02
 -0.44161906E-03  0.46727839E-02 -0.30478929E-02
  0.18872655E-02 -0.82883379E-02  0.63062496E-02
 -0.41294590E-02  0.38314336E-02  0.99723593E-03
 -0.70814391E-02 -0.51841138E-02  0.77261121E-02
 -0.19115313E-02  0.74601578E-02 -0.60581678E-03
  0.65248245E-02  0.38022414E-04  0.91212093E-03
 -0.38457447E-02  0.68151533E-02  0.80796687E-03
  0.27052375E-02 -0.64685856E-02  0.72201517E-02
 -0.78684686E-02  0.41246724E-02 -0.17334331E-02
 
           1
   2.00000000000000     
  0.72446629E+00 -0.27687428E-03  0.00000000E+00  0.00000000E+00
  0.19230785E-01  0.13452823E-01  0.13127604E+00
  0.58052384E+00  0.52871135E+00  0.62022108E+00
  0.51093852E+00  0.50601492E+00  0.77931548E+00
  0.99887409E+00  0.13516628E-01  0.39090362E+00
  0.26292791E+00  0.91973259E+00  0.86678907E+00
  0.60303953E-01  0.49580500E+00  0.37049315E+00
  0.99522360E+00  0.50381365E+00  0.86763573E-01
  0.23650022E+00  0.23626189E+00  0.25690453E+00
  0.36596620E-03  0.13525890E-01  0.62477456E+00
  0.73838052E+00  0.24544308E+00  0.87915436E+00
  0.71914888E+00  0.73438587E+00  0.47960772E+00
  0.34475906E+00  0.23348852E+00  0.87308895E+00
  0.73210274E+00  0.26858514E-01  0.11074152E+00
  0.30275235E+00  0.79839824E+00  0.62689835E+00
  0.16694091E-01  0.96122173E+00  0.87094481E+00
  0.48085773E+00  0.46649987E+00  0.35505063E+00
  0.14790368E-02  0.99410680E+00  0.75084196E+00
  0.28188875E-01  0.53479037E+00  0.68349788E+00
  0.24737671E+00  0.73666124E-02  0.11970698E+00
  0.76248815E+00  0.49981007E+00  0.86537014E+00
  0.51781891E+00  0.99901428E+00  0.39713630E+00
  0.27342386E+00  0.32177205E+00  0.37655698E+00
  0.77581559E+00  0.77807861E+00  0.86530159E+00
  0.81352009E+00  0.50515128E+00  0.61086136E+00
  0.26062050E+00  0.70551544E+00  0.13689202E-01
  0.23950690E+00  0.22749930E+00  0.61722485E+00
  0.81477607E+00  0.28043415E+00  0.12218398E+00
  0.73848241E+00  0.23775446E+00  0.39325704E+00
  0.23999226E+00  0.77084919E+00  0.49115220E+00
  0.47693849E+00  0.98223789E+00  0.14936077E-02
  0.52340202E-02  0.49375743E+00  0.50143388E+00
  0.51295162E+00  0.16654499E-01  0.73184050E+00
  0.66577068E-02  0.74561871E+00  0.26825735E+00
  0.54667535E+00  0.26844178E+00  0.74286746E+00
  0.98417104E+00  0.95064729E+00  0.11249693E-01
  0.48271363E+00  0.29598404E+00  0.47889027E+00
  0.50544143E+00  0.73134279E+00  0.24911427E-03
  0.48796902E+00  0.25204089E+00  0.24464782E+00
  0.32206163E-01  0.73642447E+00  0.75118947E+00
  0.49247547E+00  0.76613787E+00  0.24846213E+00
  0.99872171E+00  0.32605121E-01  0.25978750E+00
  0.55208964E+00  0.72427661E+00  0.72012470E+00
  0.52506201E+00  0.47147623E-02  0.86604291E+00
  0.21839220E-02  0.52515074E+00  0.23176606E+00
  0.25913824E+00  0.20725449E+00  0.10126801E-01
  0.46334102E+00  0.76900428E+00  0.49441527E+00
  0.99234140E+00  0.73941520E+00  0.48723801E+00
  0.72515556E+00  0.28028318E+00  0.45764508E-02
  0.86593843E+00  0.25515279E+00  0.78330947E+00
  0.52156617E+00  0.50239943E+00  0.23838951E+00
  0.11846212E-01  0.49974417E+00  0.80185785E+00
  0.55070188E+00  0.36695572E-02  0.23669719E+00
  0.24898053E+00  0.27554835E+00  0.49821223E+00
  0.73418916E+00  0.75776093E+00  0.99957129E+00
  0.78952370E+00  0.21448165E+00  0.51426491E+00
  0.99191298E+00  0.75060082E+00  0.97329912E+00
  0.16264419E-01  0.22233974E+00  0.38140879E-02
  0.51647107E+00  0.49103202E+00  0.50045468E+00
  0.49114422E+00  0.39093355E+00  0.13987401E-01
  0.99860276E+00  0.65649534E-02  0.49448944E+00
  0.52848771E+00  0.95250611E+00  0.13571105E+00
  0.48881017E-02  0.24565175E+00  0.52776788E+00
  0.14004656E-01  0.41407433E+00  0.95811026E+00
  0.47925383E+00  0.62264440E-01  0.52161530E+00
  0.10198646E-01  0.30002198E+00  0.20753267E+00
  0.76342337E+00  0.74851370E+00  0.74238352E+00
  0.24607245E+00  0.74261640E+00  0.25561361E+00
  0.78318791E+00  0.23586598E+00  0.65171662E+00
  0.77408543E+00  0.75332294E+00  0.25980054E+00
  0.23113647E+00  0.25755096E+00  0.75309997E+00
  0.74754723E+00  0.25630127E+00  0.26019352E+00
  0.28289246E+00  0.74824498E+00  0.75001839E+00
  0.22834681E+00  0.26576782E+00  0.12452777E+00
  0.66578786E+00  0.36077056E-01  0.62278498E+00
  0.77603274E+00  0.24118238E-01  0.87404214E+00
  0.24542593E+00  0.70510361E+00  0.37910767E+00
  0.19735645E+00  0.42493438E+00  0.86766950E+00
  0.77837097E+00  0.94592902E+00  0.38345845E+00
  0.74712384E+00  0.74879426E+00  0.13509845E+00
  0.26291492E+00  0.53065781E+00  0.62978697E+00
  0.50343559E+00  0.43304024E+00  0.88204978E+00
  0.22973274E+00  0.48702686E-01  0.37870254E+00
  0.78077178E+00  0.76183591E+00  0.60959322E+00
  0.22492170E+00  0.71812530E+00  0.12668253E+00
  0.30517588E+00  0.19084100E-01  0.62781413E+00
  0.51580116E+00  0.51128264E+00  0.11608895E+00
  0.27222188E+00  0.69112240E+00  0.87492475E+00
  0.74225019E+00  0.55465794E+00  0.36863250E+00
  0.27991339E+00  0.99831316E+00  0.25858958E+00
  0.77094358E+00  0.48460492E+00  0.74947687E+00
  0.24872878E+00  0.64995751E-02  0.74795818E+00
  0.75352874E+00  0.50158113E+00  0.25162639E+00
  0.25593834E+00  0.96384434E+00  0.99955602E+00
  0.75507924E+00  0.48224823E+00  0.49407152E+00
  0.24136298E+00  0.99654790E+00  0.49258564E+00
  0.76349814E+00  0.53465847E+00  0.35497768E-04
  0.73226464E+00  0.48839382E-02  0.75192441E+00
  0.25760061E+00  0.50818937E+00  0.23589226E+00
  0.29233066E+00  0.49322061E+00  0.75258754E+00
  0.78164117E+00  0.19717067E-02  0.24735567E+00
  0.24748431E+00  0.52310548E+00  0.50514525E+00
  0.71375961E+00  0.47956872E-01  0.72973186E-04
  0.73355193E+00  0.99179265E+00  0.50273412E+00
  0.25790096E+00  0.48416485E+00  0.99908184E+00
  0.85957885E-02  0.26446987E+00  0.38415975E+00
  0.52011055E+00  0.75543173E+00  0.86184591E+00
  0.51151923E+00  0.26584889E+00  0.61351486E+00
  0.98926840E+00  0.77788654E+00  0.12602881E+00
  0.10755072E-01  0.23162356E+00  0.87751774E+00
  0.49274929E+00  0.74573397E+00  0.37336892E+00
  0.28664089E-01  0.75047430E+00  0.62606664E+00
  0.49907970E+00  0.23963828E+00  0.12667324E+00
  0.14564307E+00  0.36655606E+00  0.40714602E-01
  0.61821606E+00  0.88773683E+00  0.54116506E+00
  0.61385245E+00  0.14316986E+00  0.94920911E+00
  0.13605595E+00  0.60092691E+00  0.44810895E+00
  0.34719786E+00  0.36968688E+00  0.94549376E+00
  0.86783075E+00  0.89562094E+00  0.46013825E+00
  0.85197809E+00  0.11239305E+00  0.45715835E-01
  0.33928103E+00  0.65802453E+00  0.54525366E+00
  0.86313168E+00  0.11089935E+00  0.18921257E+00
  0.40232904E+00  0.60957249E+00  0.70775752E+00
  0.88730383E+00  0.90699025E+00  0.29601063E+00
  0.39112236E+00  0.36565211E+00  0.79746135E+00
  0.14715096E+00  0.58184390E+00  0.29925868E+00
  0.63900891E+00  0.12209863E+00  0.81081387E+00
  0.15915746E+00  0.42360904E+00  0.17441644E+00
  0.66312534E+00  0.90532714E+00  0.68399901E+00
  0.85371358E+00  0.62960451E+00  0.94024634E+00
  0.31719371E+00  0.13652669E+00  0.44953203E+00
  0.85463225E+00  0.38285486E+00  0.55042927E+00
  0.34546847E+00  0.87753939E+00  0.56640556E-01
  0.15404636E+00  0.10127274E+00  0.55258633E+00
  0.66366972E+00  0.61399206E+00  0.56541060E-01
  0.15712853E+00  0.84949269E+00  0.94709936E+00
  0.63226547E+00  0.40258273E+00  0.43328081E+00