Na88 Sn16 P8 S96                        
   1.00000000000000     
    13.4813327813000008    0.0000000000000000    0.0000000000000000
     0.0000000000000000   13.4813327813000008    0.0000000000000000
     0.0000000000000000    0.0000000000000000   26.9626655626000016
   Na   Sn   P    S 
    88    16     8    96
Direct
  0.9781288496584831  0.9875315985804092  0.2453355381044284
  0.5276780509028735  0.4851524203139321  0.9237112908123000
  0.2717512487227745  0.5902293664653483  0.8670914671732376
  0.8410447249007186  0.0494691632941863  0.3736851428687145
  0.5138278870786516  0.0732765642819258  0.8786415853362229
  0.9652228399093228  0.4753587436225555  0.6162693588998490
  0.0140495795725964  0.5206365812041094  0.2394178424108144
  0.2493503659070943  0.2491228559003880  0.2420587814928760
  0.0216738995738768  0.9559753513809433  0.7319617718451142
  0.7613127779756956  0.5056416123957640  0.8753770784299255
  0.9825569459203566  0.7469527150429580  0.4536075977547907
  0.2952208537357395  0.4645120364513254  0.1346122818443892
  0.4738304550377407  0.7451437497755296  0.1908703812114603
  0.2844194118980139  0.7577099912207412  0.6399282308457721
  0.9880857059478635  0.2556771182898150  0.7404488625054931
  0.7596368393046360  0.4637283198499617  0.3705282216136906
  0.7424544513945955  0.2466593110182894  0.8067807650445258
  0.3092189301993569  0.2604559053262850  0.7019856029489073
  0.5370982261581154  0.9886781422260238  0.9952562182320878
  0.0408503774737175  0.7366635852005829  0.9706322355604160
  0.6568519090979719  0.9277612299790668  0.3609898493566546
  0.2689782728742903  0.2565870474388705  0.3559515165265867
  0.0092127195660729  0.4913569501720462  0.8822398672941940
  0.2185946304223202  0.4914350683421524  0.6201999920821436
  0.0155230684257736  0.9486585528195771  0.8564827475214537
  0.2663306514654792  0.9698885635639460  0.8758918964470700
  0.0265060919606955  0.5130438250016465  0.1259440530275780
  0.7341725172355190  0.2394030445177252  0.1313292464932886
  0.2193476467857299  0.7496651882731307  0.5093832055847123
  0.5404239899997807  0.2677530990587592  0.9893250466379969
  0.4774184422216333  0.7431806375477539  0.5158119187285756
  0.5174415426321622  0.9606140570621207  0.6153187278391904
  0.7017616523431542  0.7719424984528729  0.1294853905413257
  0.2677552306481438  0.7396672140649828  0.9961629735123362
  0.8671994569777596  0.1908625025155131  0.9646076314771656
  0.7503384853317354  0.2352867218503906  0.5167716996150618
  0.7087765367717557  0.7102643691255487  0.2906312300030351
  0.4953411678029149  0.2693428727089225  0.2516843699006317
  0.8002122347884024  0.0237847085144243  0.8643200596469494
  0.6835815982182792  0.7493827496810105  0.4681947513067499
  0.9067587672544667  0.7091207840078192  0.1985015970901772
  0.4998583668045760  0.5264727841499076  0.7693217267331113
  0.5165056325201213  0.4971427512548529  0.4656770155159020
  0.9798670093720656  0.5125451405281501  0.4993702884591831
  0.5223420461208551  0.2449511327078378  0.7524970889266018
  0.5157997831250748  0.0090071798341135  0.4865063057408950
  0.2078827795839600  0.7493897916290573  0.3658866540787443
  0.4321181071115112  0.0006965499270211  0.1410174955321655
  0.2520250806225599  0.2740830658496861  0.8632973832864758
  0.5020057207214135  0.5516478649703089  0.2684409410921622
  0.9921597436697364  0.7444921990897906  0.7584586860104979
  0.3688942723892266  0.9590686819242464  0.3636829251537065
  0.2348681777586267  0.2555969399805335  0.5072041764271337
  0.1686419725279237  0.2330551892996439  0.1130633539024076
  0.7338246015207890  0.2293851008558903  0.3806560053731155
  0.4985727378368874  0.7708259499273432  0.0040397327523301
  0.0071472242316398  0.9871553628358946  0.0755432798456502
  0.4819787495221193  0.2564065601489018  0.4846305429403261
  0.7952253318968570  0.7595750021314229  0.8831440805815184
  0.0363549430442651  0.9962813401548877  0.5039651496870603
  0.4731245631395045  0.9947417071425565  0.2681232446381179
  0.9593280362287649  0.3113691117046676  0.5117931293910036
  0.0122257341252863  0.4400033901104549  0.9929921368181612
  0.7414571768117585  0.2437077726557291  0.6520008057244426
  0.9837486330117488  0.2521620110301676  0.2333428270960860
  0.5216567834057588  0.7404607451010412  0.7393239676097439
  0.2579126213702058  0.7348795561046938  0.1426939872271193
  0.6913420386785314  0.4856656245323095  0.6244689279009737
  0.2229657362373545  0.7449536876550379  0.2341258914209203
  0.2159782570815108  0.2627361949549056  0.6096149163681377
  0.7715519741252389  0.5132316408757828  0.1124047440964854
  0.4988867215671586  0.9818710283440206  0.7546013219657940
  0.7725923715474062  0.7212127805263573  0.9991026804692581
  0.8014220797216119  0.9143476714861275  0.6240105788447140
  0.0584549086112270  0.0453538421913616  0.9680805993457883
  0.3074611761151814  0.5140737987846291  0.3689044158050584
  0.9635318083877021  0.5134383434422393  0.7461391838276950
  0.6953357072320289  0.2458879900521882  0.2371349399081579
  0.7221981296301961  0.0080581551829855  0.1004384150891708
  0.4857044083634667  0.5181040889471699  0.6095739740579762
  0.6803859016922058  0.7277479858051924  0.5949704804012398
  0.1500591094431431  0.0454017087472091  0.3539309619853800
  0.7219878051180050  0.7562463442671206  0.7698298358710893
  0.2689740498762871  0.2354381324977480  0.0199705152318471
  0.0157047377514285  0.0004344596291480  0.6303976329093330
  0.5172639347510566  0.5110574595251776  0.1108501281637502
  0.2908106283171330  0.7252748508470598  0.7654927326098869
  0.9919433642901314  0.5376272559394342  0.3488638450585898
  0.2231149133140325  0.0187883184650211  0.2447375963391323
  0.7193601760420117  0.4913151593948523  0.7481150014635152
  0.2446250064627941  0.0072679621493073  0.7547810561745638
  0.7577804325555340  0.4926788190169691  0.2345156715858363
  0.2673531930560085  0.9782985035355506  0.0099196547302423
  0.7430635502607944  0.4809854745212603  0.4893741031634964
  0.2808027773018618  0.9986298428920072  0.5012351620988160
  0.7638995980491434  0.4601130654370881  0.0040667798518920
  0.7522524916315341  0.9989338391369694  0.7414513570320149
  0.2431709734257698  0.4982277349123915  0.2526878295998097
  0.2313284102937040  0.4938899774630371  0.7492457549954034
  0.7190878798769385  0.0182287854997868  0.2476086811683187
  0.2340212179696803  0.5094187084538231  0.4922526577523355
  0.7601014034668111  0.9636630860115629  0.9920726843135114
  0.7690139162493316  0.9914389058041003  0.4976442667071431
  0.2604365369430828  0.4823180184250430  0.0024155128528082
  0.9976565497778207  0.2704112219561803  0.3641726691315349
  0.5234579484052330  0.7688738367300735  0.8806350735076806
  0.5121725258051908  0.2366389607702476  0.6249622437212065
  0.9722100415940900  0.7735964483987350  0.1154135329617737
  0.0032952429075136  0.2514975199520180  0.8680926830265339
  0.5027151759426501  0.7294358152259085  0.3776660609404906
  0.9852313486748701  0.7425042518703909  0.6118577045732821
  0.4854086931534387  0.2887658210582862  0.1195549784411989
  0.1626463486127414  0.3849535345915804  0.0594814077441553
  0.6691527104333321  0.9104535752172698  0.5508603959579426
  0.6681956901368340  0.0713834629686156  0.9373362455170643
  0.1218914984074884  0.6006397171834993  0.4469654769521466
  0.3634482514335067  0.4237031075527203  0.9371028388884826
  0.8861078295907000  0.9058151910798403  0.4429145406782278
  0.8572035857565506  0.0783255108881217  0.0402604805725230
  0.3605983742681617  0.5952761839426064  0.5349584322270279
  0.8399874165834679  0.1119186479350066  0.1944872691472971
  0.3358610972534507  0.6025653821296117  0.7031990903658532
  0.8102515142721566  0.9102140730593443  0.2970376684076757
  0.3509860937089532  0.3830123222710767  0.7809309272800004
  0.1571035962641980  0.6204765194014242  0.3047596472795450
  0.6421567598852066  0.0800303943943561  0.7922730368259268
  0.1584881098975505  0.3865710791185075  0.1975167091604495
  0.6502161931037574  0.8922580628767515  0.6900069746096984
  0.8647658559648262  0.5725140163802492  0.9573714337976953
  0.3766244360233955  0.1018669290016990  0.4525091932166366
  0.8210947145350083  0.4086803012097707  0.5567943193394602
  0.3595899062080150  0.8805791137224478  0.0666626115264592
  0.1658276887490763  0.0827613425502841  0.5539517881060900
  0.6217586074945858  0.5502472519145112  0.0330023542738409
  0.1666439404130383  0.8829455252802227  0.9439434162546694
  0.6654514462010572  0.3522975688556234  0.4420655500124529
  0.6355331883139367  0.4079420227042729  0.2927538317025398
  0.1372230289301349  0.8813529358987403  0.7904873326793717
  0.1502921719408135  0.1158300627357959  0.6987092514232296
  0.6596225936263467  0.6245913455302037  0.1884800375182655
  0.8272265004162616  0.3980157375376948  0.6986844092346046
  0.3273959224967180  0.9039880729463305  0.2033664789244499
  0.3174272336263080  0.1262657163531173  0.3029535705808773
  0.8378449620924274  0.5955715385999094  0.7962212120095683
  0.1399881580119854  0.0923663317508049  0.0471122422535206
  0.6282000110624979  0.5866574552398175  0.5385339911559840
  0.6852508068143074  0.3547874818843197  0.9359788217393943
  0.1694368896717429  0.8908982788983006  0.4392055801639016
  0.3478504408297993  0.0960644845534077  0.9597889862237207
  0.8292370588981327  0.6112094615783931  0.4369224190001048
  0.8603958968969200  0.3485597667663126  0.0555845921348900
  0.3315396540954055  0.8868961060951678  0.5658125257014672
  0.1245388407856478  0.1023878201006336  0.1902805215822359
  0.6095942056315953  0.5881631661384423  0.6859787441070472
  0.1254303412003296  0.8995219735999600  0.2874963747950689
  0.6211669820629634  0.4211416908566282  0.8109178273125307
  0.8459430976789442  0.5793092495482981  0.2884428249565956
  0.3557294528703397  0.1010272152048189  0.8096658993580546
  0.8740997563407843  0.4088742724817752  0.1829315065538199
  0.3532393867081708  0.9073234611906535  0.7047837607748368
  0.8899770047849930  0.8984265948112866  0.9383754598229028
  0.3174454230506484  0.3831346609523013  0.4445910290768468
  0.8820491146306281  0.0808346137597268  0.5538666611237970
  0.3419799489764747  0.6060339650716747  0.0555008661744409
  0.1181668152463213  0.4069459959002222  0.5290824696264711
  0.6429929823229968  0.8636308247668444  0.0479078069390717
  0.1534397489842440  0.5818996610276383  0.9555970039164953
  0.6875301236786395  0.0922422873037319  0.4354939819893054
  0.3597446521711252  0.4001346530610900  0.2906633421182253
  0.8727671063412005  0.8782841817243744  0.7900080458069417
  0.8557870974398918  0.0864148053962520  0.6858373573142322
  0.3434534696530870  0.5954009574680472  0.1935821272261173
  0.1241129962461141  0.3837757946780189  0.6852241203851760
  0.5968042787316588  0.9404767664031944  0.1960794390970823
  0.6119045528884215  0.1192308022484407  0.3089203613133814
  0.1067425214944846  0.5803132294612244  0.7998653360052924
  0.0495350242405618  0.1774806500149342  0.4125606727769274
  0.5963406704119725  0.8563698359225113  0.8375232344576438
  0.4370331161359283  0.1240656664861026  0.6592175791884941
  0.8738970573378564  0.8836944608267276  0.1418434932727145
  0.5881069989342234  0.3473112203154334  0.6722772477377497
  0.8786730005530977  0.6732128866118218  0.0940811673066929
  0.0844267801809824  0.3427131547110346  0.3081166920131687
  0.4105571228269845  0.8447207252319895  0.9227641169385384
  0.0694558304560721  0.3386982686909640  0.8126431866939133
  0.3961882766964675  0.6759782423982189  0.4207726904317746
  0.9359060682502933  0.8422339387295970  0.5629330469344938
  0.4017098722090439  0.3585639730221988  0.0708094219872133
  0.8659513623885665  0.6964483744077556  0.6510094097571866
  0.5775959488488949  0.3715716396862370  0.1657034459243378
  0.1033826968115249  0.1553210849302792  0.9006293947187873
  0.5276006501172937  0.8558710697642750  0.4186725963917791
  0.0714709480367073  0.8070371849658714  0.6729457509781431
  0.5656701417279527  0.1570833102884729  0.0935831523690252
  0.9313661069473549  0.1551377998894552  0.8158148597611081
  0.4072659159978244  0.7778736154204472  0.3147455710931112
  0.8973970202452284  0.3322516511455949  0.8997344641812191
  0.6309803033774882  0.6502856413593754  0.3753686769755817
  0.0700545973261032  0.6297089646554704  0.5839754636347237
  0.3818844680683156  0.2084706251821125  0.1567340068248922
  0.6049645022640793  0.1479054682162332  0.5762354473956153
  0.0637696155141967  0.8155881947897531  0.0612062231360425
  0.8945183945885767  0.2016860897966319  0.3191722219997254
  0.4402090631494731  0.6832897204083966  0.8293414482922439
  0.9244405471171270  0.3789089778823201  0.3978974691131464
  0.6259773658929332  0.6739385312759075  0.9255511262960622
  0.3971043471492097  0.3246016355168247  0.5887413227071966
  0.0787810883956666  0.6914937284401036  0.1682450479563573
 
  0.13888368E-02 -0.27826832E-02  0.16313491E-02
 -0.57158525E-02  0.41040914E-02  0.17406515E-03
 -0.47672537E-02  0.53931806E-02 -0.47469376E-02
 -0.50406370E-02  0.46711774E-02 -0.74522621E-02
  0.23364899E-02  0.49732480E-03 -0.31398371E-02
  0.58797540E-02  0.11586406E-02  0.15721368E-02
  0.16613039E-02 -0.66721799E-02 -0.72052055E-02
  0.20967980E-02 -0.25218413E-02  0.98031081E-03
  0.54182982E-02 -0.24663312E-02  0.14196585E-02
  0.86568084E-03 -0.44832655E-02  0.17374188E-01
 -0.34186955E-02  0.79974462E-02  0.54053120E-02
  0.29747793E-02  0.97981829E-02  0.35896462E-02
  0.36635544E-02 -0.77595189E-02 -0.51343033E-02
 -0.97308439E-02 -0.43283192E-02  0.11804367E-01
 -0.26735337E-02 -0.55126913E-02 -0.12218353E-01
  0.23534395E-02  0.26798373E-03  0.35529574E-03
  0.73931189E-02  0.76435682E-02  0.71163518E-02
  0.15434695E-02 -0.86524513E-02 -0.50871829E-02
 -0.99325491E-02 -0.33995906E-02  0.12275516E-02
  0.16903609E-02 -0.11540614E-01  0.84837921E-02
  0.73925204E-02  0.95165525E-02  0.47901280E-02
 -0.55530324E-02 -0.15674375E-02  0.23456869E-02
  0.81909050E-03 -0.88049949E-02  0.10945182E-01
 -0.95348542E-02  0.62427285E-02 -0.22580714E-04
  0.76104074E-02 -0.57005335E-02  0.97460596E-02
  0.13334726E-01  0.12815453E-03 -0.12655922E-03
 -0.46481994E-02  0.63973500E-02  0.29168727E-02
  0.58542236E-02 -0.35646267E-02  0.82478486E-02
  0.34820197E-02  0.23083164E-03 -0.20281222E-03
  0.46653593E-02 -0.77400219E-02 -0.26528481E-02
 -0.71994395E-02  0.40397317E-03 -0.95316764E-02
 -0.10756540E-01  0.13788169E-01 -0.10646083E-01
  0.19017902E-03  0.48690108E-02  0.69301547E-02
  0.24108323E-03  0.73194144E-02 -0.11115836E-02
 -0.14113513E-01  0.42063188E-02  0.30402902E-02
  0.15925821E-02  0.63952165E-02  0.70423530E-02
 -0.44440966E-02 -0.11938129E-02  0.76325165E-02
  0.75650297E-02  0.13001157E-02 -0.12141164E-01
 -0.56646391E-02  0.68762152E-02 -0.68815783E-03
  0.14085893E-02  0.37657059E-02 -0.26946133E-02
 -0.28360009E-02 -0.73997372E-03 -0.40797890E-02
  0.33689463E-02 -0.95728384E-02  0.13160519E-03
 -0.81427196E-02 -0.54986833E-02 -0.88348314E-02
 -0.52955757E-02 -0.13274482E-01 -0.12316511E-01
  0.46155418E-03  0.11010825E-01  0.54331800E-02
  0.21506976E-02 -0.29639785E-02  0.12241367E-01
 -0.47459889E-02  0.23943804E-02 -0.71191138E-02
 -0.45320007E-03  0.95925679E-02  0.20139541E-02
  0.18631661E-01 -0.32790392E-02 -0.52209079E-02
 -0.91735162E-02 -0.93329935E-03  0.11836710E-02
 -0.25407987E-03 -0.25453491E-02  0.32310315E-02
 -0.50752091E-02  0.79452245E-02 -0.46323040E-02
  0.26606383E-03  0.26545992E-02  0.24178456E-03
 -0.41072086E-03 -0.12680164E-02  0.33742701E-03
 -0.80692176E-03  0.79620879E-02 -0.17975503E-02
  0.49088955E-02 -0.18010464E-02 -0.24686193E-02
 -0.51433713E-02  0.52471587E-02  0.61015773E-03
 -0.53657797E-02  0.16394102E-02 -0.58382397E-03
  0.38109179E-02 -0.10727538E-01  0.61175301E-02
 -0.61727355E-02 -0.10517623E-01 -0.86260566E-02
 -0.70604388E-02  0.15899457E-01  0.22148196E-02
  0.39569122E-02 -0.94102993E-02 -0.28106182E-02
  0.73571911E-02  0.18505101E-02 -0.19118870E-02
 -0.71291257E-04 -0.34604702E-02 -0.12020474E-01
 -0.65364810E-02 -0.42830805E-02  0.15019375E-02
 -0.64086258E-03 -0.27045869E-02  0.68811753E-02
 -0.48437489E-02 -0.24367574E-02  0.44003093E-02
 -0.16265085E-02  0.10567761E-01  0.39478621E-02
 -0.30886001E-02  0.83024144E-02 -0.35713471E-02
 -0.25530401E-02  0.42596632E-02  0.37106961E-03
 -0.39094619E-02  0.10571048E-01 -0.21580133E-02
  0.31763464E-02  0.55653468E-02 -0.20820548E-02
  0.50432613E-02 -0.67573789E-02  0.94841292E-03
  0.55225004E-02 -0.90046861E-03  0.10407245E-01
 -0.37059833E-02  0.41108728E-04 -0.51784807E-02
 -0.81002329E-02 -0.15501381E-02  0.43103215E-02
 -0.53996212E-02  0.31399903E-02 -0.24043748E-02
 -0.57891144E-02  0.14847340E-02 -0.92480925E-02
 -0.65564058E-02  0.46032712E-02 -0.48226794E-02
 -0.33618508E-02 -0.79352137E-02  0.10041400E-02
  0.16650933E-02 -0.25365384E-02 -0.51266946E-03
 -0.22821302E-02  0.53268946E-02 -0.27298669E-02
  0.49341662E-02  0.33983217E-04 -0.13498511E-02
  0.34730061E-03 -0.10050949E-01 -0.23581162E-02
 -0.91981701E-02 -0.99758389E-02  0.79856969E-02
  0.15974876E-02 -0.24139490E-02 -0.29657004E-02
 -0.43440029E-02  0.22256780E-02 -0.60378754E-02
  0.10492517E-02  0.71878368E-03  0.68593119E-03
 -0.19489496E-02  0.32712298E-02  0.16172890E-02
  0.29579023E-02 -0.11394956E-02  0.20813289E-02
  0.25220635E-02 -0.38123583E-03  0.39991583E-03
  0.44822565E-03 -0.94260341E-03  0.39102287E-02
 -0.77292047E-04  0.45642096E-02 -0.16013338E-02
 -0.26393641E-02 -0.10977854E-03  0.31105341E-02
  0.11165881E-02 -0.97217824E-03 -0.23860573E-02
  0.22962667E-02 -0.13119079E-02  0.47004642E-03
 -0.12040253E-02  0.19589211E-02 -0.42808140E-02
  0.27523554E-02 -0.26865935E-02 -0.24049292E-02
 -0.28651910E-03  0.18323218E-02  0.89504627E-03
 -0.34286700E-02  0.80064289E-02 -0.19867061E-03
  0.31221058E-02  0.12638193E-02 -0.12737639E-02
  0.38542167E-02 -0.10373003E-02  0.33361571E-02
 -0.11184143E-02  0.18516430E-02  0.50108062E-02
  0.11949683E-02 -0.12164694E-02 -0.11396027E-02
  0.48459715E-02  0.24624565E-02 -0.57088871E-02
  0.21019726E-02 -0.62417497E-02 -0.14252226E-02
 -0.38217609E-02  0.57036614E-02 -0.11949238E-01
 -0.12175781E-02 -0.53647685E-03  0.42933823E-03
 -0.20043140E-02 -0.57258343E-02  0.21349421E-02
 -0.15876926E-02 -0.66286150E-03 -0.89386328E-03
 -0.89087705E-02 -0.20831758E-02  0.63180574E-02
  0.10734688E-01  0.11344970E-01 -0.18606982E-02
 -0.76779579E-02  0.15090719E-01 -0.15692865E-01
 -0.14754724E-03 -0.49057083E-02 -0.39905732E-02
  0.45013528E-02 -0.19698716E-02  0.35894542E-02
 -0.46117253E-02  0.27769774E-03 -0.15869030E-04
 -0.94183819E-02  0.69200714E-02  0.59383256E-02
 -0.35931233E-03  0.20672563E-02  0.82060646E-02
  0.41576255E-02 -0.21296990E-02 -0.49808079E-02
  0.27726562E-02 -0.49233175E-02  0.44302662E-02
 -0.10647921E-01  0.32029348E-03  0.14297998E-02
  0.22745120E-02 -0.40688774E-02 -0.28479114E-02
  0.15875023E-02  0.30516293E-02 -0.89238423E-02
  0.29295036E-02 -0.27811953E-02 -0.65033261E-02
  0.16235759E-02 -0.35791280E-02 -0.22774941E-02
  0.22238550E-02 -0.11721285E-01  0.27577667E-02
  0.53422372E-02 -0.10696765E-01  0.53359483E-02
 -0.17807778E-02  0.25544313E-02 -0.46883086E-03
 -0.38263886E-02 -0.11502204E-02  0.29364216E-02
  0.12108554E-02  0.16253275E-03 -0.63039427E-03
  0.75358607E-03  0.25125824E-02 -0.33155414E-02
  0.40280475E-02  0.14707586E-02  0.15217298E-02
  0.80496807E-02  0.71633099E-02  0.31961298E-02
 -0.29342647E-02  0.74497008E-03 -0.13259335E-02
 -0.47266941E-02  0.18360146E-02 -0.11483442E-01
  0.50525921E-02 -0.10314825E-03  0.15859342E-02
  0.70077263E-02 -0.45705802E-03  0.70966540E-03
  0.12142845E-02 -0.10400242E-02  0.12927602E-01
 -0.34727561E-02 -0.77537755E-03  0.59327509E-02
 -0.59363964E-02 -0.60552085E-03  0.57393164E-02
 -0.39379726E-02 -0.14991985E-02  0.58630390E-03
  0.77481342E-02 -0.48513105E-02 -0.45461684E-02
 -0.40570065E-02  0.11299347E-02  0.34915355E-02
  0.92247623E-03 -0.23442573E-02 -0.83326707E-03
  0.23337947E-02  0.21808815E-02  0.58744364E-02
 -0.75598449E-02  0.35638348E-02 -0.99536317E-02
 -0.42769181E-03 -0.11487891E-02 -0.68862272E-03
  0.12506010E-02 -0.69702175E-02 -0.13700377E-02
  0.56755905E-02 -0.11575138E-01  0.31400852E-02
  0.33675993E-02 -0.41236724E-02  0.12667723E-02
  0.30349745E-04  0.21988677E-02 -0.17031719E-02
 -0.94736269E-03 -0.65600915E-02  0.10153286E-02
 -0.38636307E-02 -0.92713167E-03  0.11797316E-01
 -0.58109412E-02  0.10899637E-01 -0.39507685E-02
  0.92357692E-02 -0.60433641E-02  0.80635050E-02
 -0.85580086E-02  0.17075683E-02 -0.60143115E-02
  0.11835975E-01  0.16248419E-02 -0.39514403E-02
  0.29894219E-02  0.95285082E-05  0.33747373E-02
  0.38666159E-02 -0.90415306E-02  0.48542309E-02
  0.45712834E-02  0.12368331E-02 -0.27422367E-02
  0.15221271E-02  0.79524487E-03 -0.12907990E-01
 -0.50579676E-02  0.66858585E-02  0.23687761E-02
  0.10036650E-01  0.24040497E-02 -0.62448156E-02
 -0.38279765E-02  0.70323327E-02  0.38200869E-02
 -0.34297263E-02 -0.84280051E-02 -0.34954782E-02
  0.68634571E-02  0.86885935E-02 -0.81741574E-02
 -0.36873398E-02 -0.54471639E-02  0.21499128E-02
  0.11969407E-02 -0.35755865E-02  0.10472573E-02
 -0.43509210E-02 -0.52391903E-02  0.17301433E-02
 -0.30469501E-02 -0.44518752E-02 -0.32939432E-02
  0.23631793E-03  0.24685915E-02 -0.16564724E-02
  0.32512292E-02 -0.44129560E-02  0.46192437E-02
  0.85110451E-03  0.18160568E-02 -0.76987610E-02
 -0.76493821E-03 -0.46716724E-02  0.74599306E-02
  0.72980348E-02  0.32947418E-02 -0.18206551E-02
  0.74641384E-02  0.60933773E-02  0.44225974E-02
  0.28761047E-02 -0.23541585E-02  0.50005298E-02
  0.10735035E-01 -0.44628232E-02  0.38993772E-02
 -0.57734641E-02  0.68326589E-02  0.76630609E-02
  0.79601918E-02 -0.61574534E-02  0.27005064E-02
 -0.67888237E-02  0.11062405E-01  0.57055099E-02
 -0.55656496E-02  0.47191455E-02 -0.17511114E-02
  0.18836721E-02  0.19133999E-02  0.35302494E-02
  0.74875649E-03 -0.80337907E-02  0.12080802E-02
  0.14782410E-02  0.19127628E-03  0.78586611E-02
  0.61817208E-02 -0.28291117E-03  0.65043597E-02
 -0.43792443E-02 -0.68955661E-02 -0.54492482E-02
 -0.82495105E-02 -0.12264620E-01 -0.65797977E-03
 -0.60005311E-05 -0.48654929E-02  0.37242668E-03
  0.89181591E-02 -0.51272692E-03 -0.14356836E-02
 -0.94624677E-03 -0.15488593E-02 -0.82870623E-02
 -0.41287677E-02 -0.16754676E-02 -0.23189301E-02
 -0.20447764E-02 -0.21703302E-02 -0.60407422E-03
  0.17885305E-02 -0.28731878E-02 -0.86219850E-02
  0.39911631E-02  0.27653387E-02 -0.13239985E-02
 -0.24706425E-02 -0.69354429E-02 -0.19172672E-02
 -0.39415942E-02 -0.27435216E-02 -0.27668866E-02
 -0.59208098E-02 -0.78635524E-02 -0.67090962E-02
  0.36199965E-02 -0.63126803E-02 -0.54632046E-03
  0.53006620E-03 -0.12994940E-03  0.79919034E-03
 -0.77471519E-02 -0.24220688E-02  0.44077146E-03
  0.93583264E-03  0.27513887E-03  0.16013719E-02
 -0.47189674E-02 -0.23976925E-02 -0.75982197E-02
 -0.14798350E-02  0.12519211E-02 -0.50113737E-02
 -0.20640329E-02  0.65119857E-02  0.44173535E-02
  0.40095086E-02  0.83625476E-02  0.18366372E-02
  0.16101626E-03  0.37377875E-02 -0.14366652E-02
 -0.41458249E-02  0.32515015E-02 -0.51420061E-02
 
           1
   2.00000000000000     
  0.74423102E+00  0.20450879E-02  0.00000000E+00  0.00000000E+00
  0.97833489E+00  0.98711878E+00  0.24545655E+00
  0.52683009E+00  0.48576128E+00  0.92372420E+00
  0.27104401E+00  0.59102946E+00  0.86673936E+00
  0.84029693E+00  0.50162148E-01  0.37313236E+00
  0.51417451E+00  0.73350344E-01  0.87840868E+00
  0.96609512E+00  0.47553063E+00  0.61638597E+00
  0.14296039E-01  0.51964674E+00  0.23888338E+00
  0.24966143E+00  0.24874873E+00  0.24213150E+00
  0.22477722E-01  0.95560946E+00  0.73206708E+00
  0.76144120E+00  0.50497651E+00  0.87666584E+00
  0.98204977E+00  0.74813916E+00  0.45400855E+00
  0.29566217E+00  0.46596563E+00  0.13487855E+00
  0.47437396E+00  0.74399260E+00  0.19048954E+00
  0.28297581E+00  0.75706787E+00  0.64080384E+00
  0.98768908E+00  0.25485929E+00  0.73954255E+00
  0.75998598E+00  0.46376808E+00  0.37055458E+00
  0.74355124E+00  0.24779326E+00  0.80730863E+00
  0.30944791E+00  0.25917229E+00  0.70160825E+00
  0.53562470E+00  0.98817380E+00  0.99534727E+00
  0.41101148E-01  0.73495150E+00  0.97126153E+00
  0.65794861E+00  0.92917304E+00  0.36134516E+00
  0.26815446E+00  0.25635451E+00  0.35612551E+00
  0.93342343E-02  0.49005070E+00  0.88305174E+00
  0.21718010E+00  0.49236120E+00  0.62019832E+00
  0.16652097E-01  0.94781286E+00  0.85720568E+00
  0.26830890E+00  0.96990758E+00  0.87588251E+00
  0.25816516E-01  0.51399289E+00  0.12616042E+00
  0.73504101E+00  0.23887422E+00  0.13194104E+00
  0.21986422E+00  0.74969943E+00  0.50936816E+00
  0.54111611E+00  0.26660484E+00  0.98912827E+00
  0.47635038E+00  0.74324057E+00  0.51510489E+00
  0.51584577E+00  0.96265958E+00  0.61452904E+00
  0.70178987E+00  0.77266483E+00  0.12999945E+00
  0.26779100E+00  0.74075307E+00  0.99608052E+00
  0.86510567E+00  0.19148652E+00  0.96483315E+00
  0.75057475E+00  0.23623547E+00  0.51729408E+00
  0.70811724E+00  0.71008726E+00  0.29119738E+00
  0.49646346E+00  0.26953575E+00  0.25078378E+00
  0.79937187E+00  0.24804818E-01  0.86426901E+00
  0.68379057E+00  0.74994140E+00  0.46799487E+00
  0.90633804E+00  0.70901101E+00  0.19819897E+00
  0.50035816E+00  0.52505262E+00  0.76933149E+00
  0.51529763E+00  0.49632700E+00  0.46502168E+00
  0.97908139E+00  0.51057583E+00  0.49845669E+00
  0.52241052E+00  0.24658462E+00  0.75290010E+00
  0.51611885E+00  0.85674639E-02  0.48741433E+00
  0.20717870E+00  0.74974501E+00  0.36535858E+00
  0.43205087E+00  0.21196389E-02  0.14116688E+00
  0.25478915E+00  0.27359661E+00  0.86291011E+00
  0.50064480E+00  0.55150941E+00  0.26852874E+00
  0.99212205E+00  0.74411459E+00  0.75869835E+00
  0.36814135E+00  0.96024738E+00  0.36333932E+00
  0.23490765E+00  0.25599076E+00  0.50722211E+00
  0.16858104E+00  0.23286707E+00  0.11308838E+00
  0.73370489E+00  0.23056630E+00  0.38052267E+00
  0.49930099E+00  0.77055876E+00  0.38566189E-02
  0.63841882E-02  0.98793380E+00  0.75588539E-01
  0.48118272E+00  0.25664977E+00  0.48458724E+00
  0.79579069E+00  0.75798354E+00  0.88359786E+00
  0.35439197E-01  0.99472102E+00  0.50332530E+00
  0.47207712E+00  0.99710044E+00  0.26828753E+00
  0.95991506E+00  0.30997306E+00  0.51158465E+00
  0.13317198E-01  0.44027792E+00  0.99285032E+00
  0.74144660E+00  0.24319440E+00  0.65110917E+00
  0.98277892E+00  0.25152660E+00  0.23345424E+00
  0.52156171E+00  0.74005951E+00  0.73983439E+00
  0.25719404E+00  0.73451806E+00  0.14302039E+00
  0.69110074E+00  0.48723339E+00  0.62476177E+00
  0.22250753E+00  0.74618538E+00  0.23386098E+00
  0.21559951E+00  0.26336813E+00  0.60964244E+00
  0.77097199E+00  0.51479989E+00  0.11224467E+00
  0.49935794E+00  0.98269667E+00  0.75444688E+00
  0.77334056E+00  0.72021030E+00  0.99917303E+00
  0.80224136E+00  0.91421408E+00  0.62478255E+00
  0.57905114E-01  0.45359941E-01  0.96769648E+00
  0.30625948E+00  0.51384383E+00  0.36922414E+00
  0.96273076E+00  0.51390417E+00  0.74596084E+00
  0.69447687E+00  0.24610826E+00  0.23644895E+00
  0.72122547E+00  0.87410656E-02  0.10008068E+00
  0.48520567E+00  0.51692687E+00  0.60964846E+00
  0.68063292E+00  0.72737168E+00  0.59493245E+00
  0.14972055E+00  0.46191971E-01  0.35372847E+00
  0.72271980E+00  0.75625139E+00  0.76972971E+00
  0.26902557E+00  0.23394704E+00  0.19795598E-01
  0.14340159E-01  0.99895451E+00  0.63098999E+00
  0.51750093E+00  0.51069934E+00  0.11063014E+00
  0.29016618E+00  0.72560504E+00  0.76504486E+00
  0.99209902E+00  0.53773389E+00  0.34891473E+00
  0.22282578E+00  0.19273616E-01  0.24485756E+00
  0.71979899E+00  0.49114611E+00  0.74826939E+00
  0.24499916E+00  0.72114046E-02  0.75481072E+00
  0.75784693E+00  0.49253898E+00  0.23480572E+00
  0.26734173E+00  0.97897562E+00  0.98008732E-02
  0.74267199E+00  0.48096919E+00  0.48960483E+00
  0.28096843E+00  0.99848562E+00  0.50105817E+00
  0.76424026E+00  0.45991844E+00  0.41016463E-02
  0.75207387E+00  0.99922445E+00  0.74113382E+00
  0.24357929E+00  0.49782917E+00  0.25250944E+00
  0.23128590E+00  0.49416181E+00  0.74931215E+00
  0.71857923E+00  0.19416566E-01  0.24759394E+00
  0.23448439E+00  0.50960620E+00  0.49215817E+00
  0.76067319E+00  0.96350920E+00  0.99232015E+00
  0.76884800E+00  0.99171360E+00  0.49801595E+00
  0.26061381E+00  0.48213755E+00  0.23309810E-02
  0.99837547E+00  0.27077654E+00  0.36374920E+00
  0.52376978E+00  0.76794785E+00  0.88052936E+00
  0.51160556E+00  0.23748512E+00  0.62407589E+00
  0.97202941E+00  0.77351686E+00  0.11544538E+00
  0.29978963E-02  0.25064807E+00  0.86825105E+00
  0.50247964E+00  0.72933748E+00  0.37759976E+00
  0.98390970E+00  0.74219521E+00  0.61232636E+00
  0.48700122E+00  0.29044888E+00  0.11941696E+00
  0.16150730E+00  0.38719229E+00  0.58317364E-01
  0.66913082E+00  0.90972580E+00  0.55056439E+00
  0.66886348E+00  0.71091226E-01  0.93760250E+00
  0.12120733E+00  0.60068091E+00  0.44696430E+00
  0.36205100E+00  0.42472972E+00  0.93754332E+00
  0.88605452E+00  0.90612188E+00  0.44352324E+00
  0.85782038E+00  0.78009563E-01  0.39891021E-01
  0.36100971E+00  0.59454579E+00  0.53528705E+00
  0.83840776E+00  0.11196616E+00  0.19459333E+00
  0.33619853E+00  0.60196175E+00  0.70298784E+00
  0.81048703E+00  0.91066679E+00  0.29637573E+00
  0.35142070E+00  0.38259972E+00  0.78044853E+00
  0.15734446E+00  0.61994554E+00  0.30459071E+00
  0.64248668E+00  0.78291503E-01  0.79247760E+00
  0.15928065E+00  0.38498418E+00  0.19791251E+00
  0.64995201E+00  0.89263702E+00  0.68997220E+00
  0.86419820E+00  0.57234338E+00  0.95758925E+00
  0.37680407E+00  0.10189104E+00  0.45246243E+00
  0.82120651E+00  0.40905305E+00  0.55654838E+00
  0.36018748E+00  0.88079731E+00  0.66775488E-01
  0.16702189E+00  0.83824043E-01  0.55418887E+00
  0.62132330E+00  0.55035777E+00  0.32904001E-01
  0.16594272E+00  0.88321790E+00  0.94309161E+00
  0.66620101E+00  0.35228227E+00  0.44218319E+00