Na88 Ge16 P8 Se96                       
   1.00000000000000     
    13.9614333504000001    0.0000000000000000    0.0000000000000000
     0.0000000000000000   13.9614333504000001    0.0000000000000000
     0.0000000000000000    0.0000000000000000   27.9228667008000002
   Na   Ge   P    Se
    88    16     8    96
Direct
  0.0378248966456599  0.0225191077114722  0.1344061297032575
  0.5171362050931937  0.5293892914427540  0.6131123851522654
  0.5168391706017367  0.4805635310186492  0.8656763821937632
  0.0088093477838716  0.0145275489447210  0.3849508055154794
  0.2688478672783559  0.9740028073676171  0.8662165088769790
  0.9851572223385483  0.5215287001455672  0.3927758176627557
  0.0268607546119797  0.5169295220430955  0.1230234165429432
  0.2238357243161505  0.2264457864187825  0.1161975134110514
  0.7269210039784901  0.7352510965669122  0.6083758074083246
  0.7299481546017113  0.2795344337799666  0.8768801576521483
  0.6976260721121427  0.7542887153921528  0.4744990046018948
  0.3071277771690770  0.2270707694194690  0.8709249350490341
  0.7841005093083445  0.2653296767684601  0.1261497403515498
  0.2542390886073791  0.7346132069326794  0.6195101297621862
  0.0066449006688820  0.0158212272657141  0.9013667697410164
  0.2181300566302802  0.5126423402423014  0.3800104777702855
  0.1057497157562921  0.9752776240195680  0.6455085915240946
  0.0179388490322980  0.4268186352177513  0.6357144086481028
  0.5145903055411858  0.9846040681950996  0.1054137443207392
  0.0266291212168883  0.5125081667954833  0.8745740766609065
  0.4914814539893050  0.9954232238498185  0.3819342324114427
  0.2310274720163715  0.2258213195798776  0.2684080975035805
  0.7806814561234208  0.7672290790197469  0.8772785781947842
  0.7518236744734218  0.2540335390456059  0.6258246019174568
  0.2706850333648246  0.7336937333182418  0.1224547841115560
  0.2606000211234386  0.1206661079988078  0.6234751415768254
  0.7812106168792614  0.5937961338185360  0.1175828742630537
  0.7464083815310741  0.5114381171147004  0.3782400199723693
  0.4937508051571691  0.7346161175668479  0.5077035383936075
  0.5308398666489216  0.2599313179412092  0.9832819296865514
  0.9903277646557123  0.5049194253048191  0.5271531273921171
  0.5010487654390048  0.7460109948206928  0.7509572783748665
  0.9847965499999527  0.7347934379643359  0.2609552262611562
  0.6587271813913885  0.2708667220792362  0.7352400480630771
  0.0085779400437091  0.8378843771185376  0.0197619676002993
  0.4941080508642574  0.4225255967556278  0.5100048653278170
  0.5035206308602431  0.7238800858802005  0.0017807309749152
  0.5014309333680441  0.2232755704616010  0.2534339426983679
  0.0048118063894440  0.7581115169528080  0.7687579312276004
  0.5010341622189292  0.7370507326635208  0.2410012277627428
  0.0119927944698019  0.0435401142682267  0.2641348906188985
  0.5138886473644427  0.4784203805208342  0.7391656323181613
  0.4998000024337683  0.9904953916252615  0.7859149772811602
  0.9732651180534543  0.5119591415045465  0.2548986973474290
  0.2742123123954981  0.2160218902546031  0.0019219325842927
  0.9832895273102108  0.7479003717938280  0.4892370427080356
  0.2221892787663379  0.7680016811634623  0.4993301148473021
  0.7640755048749696  0.2737305184743616  0.9964436786179049
  0.9567222833585778  0.0264689332075758  0.7580837421652421
  0.4639577455417394  0.4790812248037454  0.2383055070733157
  0.0128438571403614  0.5170595419400846  0.7465508544086267
  0.5388694344157784  0.9944688546600500  0.2524938973254300
  0.2569184966156266  0.2487642084621926  0.4973718910700072
  0.7545811878993348  0.7736476592036471  0.0091271880252596
  0.7174055875072374  0.2155773069469406  0.3691795108035616
  0.2089218553756430  0.7262709622436305  0.9924493913104141
  0.0129305189304160  0.2412729478761081  0.0067506170602990
  0.7128275272904433  0.2567673204263667  0.5084466997383629
  0.4825848451734646  0.5129140690699958  0.9817159797325569
  0.0155713801498916  0.9882664815100384  0.4996565235644576
  0.5093232394689341  0.0021915130429973  0.9946883611810715
  0.9969696653769031  0.2397671423216885  0.5115269851746388
  0.0018194842234902  0.5068816535473025  0.0121455440595965
  0.5232350512879455  0.0050676932155488  0.5073459425715000
  0.9741376957382601  0.2724168839108976  0.2504369306055156
  0.7444865466130284  0.7608071424407192  0.7489761355592773
  0.2676310854637641  0.7426100331047818  0.2551476544113395
  0.9459505788402413  0.2574436929320039  0.7540121336696181
  0.7498936615964092  0.7401325312834952  0.2305077204916257
  0.2693226719953364  0.2772039722272439  0.7533495020061242
  0.7517343927399639  0.2406707934825545  0.2372737554162210
  0.2502711850623939  0.7809509208222165  0.7545523577285552
  0.2780988423693135  0.4708889289168791  0.1288092415867923
  0.7736505118915096  0.9755275099372821  0.6216223253852333
  0.7048171398519157  0.0091466283208144  0.8761118035141364
  0.2654383046267182  0.7710772864436116  0.3722018834906617
  0.2568189569338787  0.4935542461146355  0.8749315629599056
  0.7389113772939562  0.9336126893346837  0.3775335316451848
  0.7655384573920629  0.9979415151365482  0.1269771372926748
  0.2722670957581251  0.4963370276453670  0.6141793332774624
  0.7685697171714031  0.5244342134454404  0.8818302535938759
  0.2511000855189428  0.0689287760031767  0.3758931557161178
  0.7597654155282669  0.5204242932930684  0.6287330463252130
  0.2689548541273930  0.9736245289913902  0.1256092098737696
  0.4673925235919936  0.0007287647922887  0.6288049590480354
  0.5448400202758003  0.4864031094968795  0.1204431303973742
  0.2349541332208044  0.7553174185727500  0.8772593311174930
  0.4895347491465115  0.4494701202706523  0.3751301111435925
  0.2797865167608866  0.0047258509961366  0.2438562400228546
  0.7584198695633499  0.5026597558692292  0.7546702020674239
  0.2126702676374873  0.0213088836801915  0.7496455869665062
  0.7234921213998201  0.4777652004324399  0.2447551882417208
  0.2595656508283385  0.9733502959651356  0.9968599588950754
  0.7420266584306556  0.4971764302579708  0.5026855993781106
  0.2622827874774141  0.0131313871062043  0.4974896891599949
  0.7495182312822593  0.5143123744586143  0.0028083512727916
  0.7087159791637000  0.0231187562156855  0.7510010116787060
  0.2181175928983665  0.4933374988780899  0.2487976084010720
  0.2684960152320498  0.5147913525010146  0.7471067400376122
  0.7803156855113565  0.9888082477993893  0.2531559747309057
  0.2398639268112102  0.5131901377446582  0.4973720104101029
  0.7631695905023806  0.0447305168490646  0.9982319762248119
  0.7710709774069788  0.9885284523524360  0.4990410276933803
  0.2453444079031494  0.4505317712390626  0.0020767369722584
  0.9805202757252415  0.2671575297744168  0.3785141732520537
  0.5021038753882890  0.7385465296364758  0.8780128325153977
  0.5050081503473807  0.2482608375597018  0.6259201867308718
  0.0023835627107559  0.7559907984558369  0.1266963195476259
  0.0064813314863916  0.2597869174741488  0.8739959954977606
  0.4996567269758753  0.7493260223830422  0.3699938942838968
  0.0067666446114243  0.7385775717557095  0.6257006199537019
  0.5008519504757365  0.2297973771974977  0.1242031896564674
  0.1454993464259725  0.3702068127456281  0.0599104613176967
  0.6615779206457547  0.8949780558076366  0.5502152434504133
  0.6581502932436749  0.1327874871233794  0.9449108484520005
  0.1232008765477501  0.6132310734754860  0.4550203090380607
  0.3465285390040367  0.3574177795035571  0.9491016101561570
  0.8692779281270648  0.8770717833031582  0.4507603910517284
  0.8709728960298511  0.1211239672838434  0.0430555797229206
  0.3477821128200608  0.6074167836795913  0.5449268196940956
  0.8741135116972550  0.1088424892934188  0.2040722956509478
  0.3664310272472977  0.6178877681486941  0.6924432663406517
  0.8871950051664660  0.9015475564294255  0.3016310994641053
  0.3786103728593808  0.4170001106610553  0.7976387939209858
  0.1265336990015593  0.5977540659596228  0.3065670302673120
  0.6353518543881721  0.1302254899306576  0.8020095179148884
  0.1340048678348846  0.3888093125153143  0.1940938413523164
  0.6069981484729391  0.9156983276995533  0.7110815180104011
  0.8558227625970694  0.6191547385517346  0.9589742871122746
  0.3736174783305125  0.1123587265821190  0.4613952175162521
  0.8364083534039028  0.3870803003838125  0.5565920011041968
  0.3523271639645751  0.8736244738997706  0.0477823411051740
  0.1495415416041859  0.1024566536240150  0.5493984421701191
  0.6445909095776764  0.6110718070951827  0.0447221230971814
  0.1534742263417802  0.8794088931848489  0.9398856506090164
  0.6446847155216215  0.3927883672380015  0.4502756903065666
  0.6320426131945247  0.3761432915770791  0.2929617345789311
  0.1165005755829503  0.9206493061793900  0.8004012580626181
  0.1271638477331704  0.1360348871167947  0.7113614501069782
  0.6291433373440126  0.5912160258365990  0.2017273206897271
  0.8486209823073673  0.4072430949980884  0.7037566576877452
  0.3558361194078662  0.8893766543231003  0.1965613088204750
  0.3773568693416075  0.0984344548007008  0.2933496580262829
  0.8536354867923194  0.6006598848331335  0.8007632970137126
  0.1302444554632745  0.0559695832569099  0.0313671550784197
  0.6263277640615982  0.5951363723648139  0.5436350939529693
  0.6565904036006688  0.4050004303914075  0.9527848360339779
  0.1694630027080627  0.9299844823124875  0.4352633059060683
  0.3433178346391728  0.0682681178619682  0.9432552424162199
  0.8318526926971204  0.6059414628677371  0.4588024250520524
  0.8459935161556843  0.4397466704918920  0.0665171842547774
  0.3586717019451833  0.9184351485108243  0.5510092447218050
  0.1884770967647841  0.1037422883141548  0.1947713133328912
  0.6719488090381051  0.5990989885206068  0.7072154470808023
  0.1774556805248947  0.9095899348501248  0.3006706496073423
  0.6646758219900389  0.3964054710012593  0.8063841993836435
  0.8110179710931547  0.6004927962925851  0.2908015654746978
  0.3179842696539181  0.1061863593038279  0.7965031371350870
  0.8423896333118421  0.3953346755184162  0.2003257351276136
  0.3009771866353121  0.9243610078700778  0.6926508366170646
  0.8484623752573072  0.9266538210775909  0.9480077809734153
  0.3378101624563529  0.4389677583378983  0.4399548853982030
  0.8468759437124470  0.1145328006655302  0.5443550502994055
  0.3534732809355264  0.5456161143408179  0.0507178541345832
  0.1641219636358417  0.3929100776800253  0.5480261893955649
  0.6642519775140737  0.9482544146315883  0.0476265049575698
  0.1396553596586693  0.5606184641757328  0.9525353203782038
  0.6665622818898086  0.0670921968544884  0.4504612458880239
  0.3215347775240420  0.3982238967359878  0.2972866157855235
  0.8140457166444285  0.9182438340396961  0.7940209428775009
  0.8015331045353239  0.1265652998061218  0.7033644786329311
  0.3204036619825142  0.6015417581242184  0.1993046537439568
  0.1706242105232692  0.4071118862129007  0.7032686357999102
  0.6805153458966283  0.8993094078833522  0.1977077249883284
  0.6819466842941202  0.0782652677117294  0.3013584175336600
  0.1711429482693294  0.6123624657117717  0.7973565164273797
  0.0723539085813219  0.1776661409490519  0.3272973548671362
  0.6099989980892397  0.6644392217483125  0.8310104934514700
  0.5862092729873133  0.3736594196207423  0.6578483192084124
  0.1024503883525377  0.8369836096952897  0.1721988115670903
  0.4391235899299800  0.1661133599592708  0.6860725171040739
  0.9303532405501601  0.6523787374139172  0.1769129334094992
  0.8828373430851492  0.3605400209238939  0.3365876258477625
  0.4112332274641682  0.8364981437596090  0.8323427844039795
  0.1150357570881144  0.1891450420598685  0.9248370924515095
  0.5735666805166644  0.6416079871385018  0.4133800386424601
  0.0909208980529175  0.8193161224173588  0.5712330711482764
  0.6034717345778452  0.3065570288245315  0.0792781015228589
  0.9018475283042673  0.6514599582222980  0.5845829075748448
  0.3985043978498874  0.1511458336580903  0.0766814134506276
  0.9280637895163918  0.3669992737130366  0.9191838800500485
  0.4238529117855562  0.8254675186192887  0.4230784673420094
  0.9330842891347794  0.8487907381113584  0.6703322734101699
  0.4119431083702480  0.3145051017139089  0.1721431732436255
  0.8968823573016875  0.1545309485733435  0.8488322747349976
  0.4076452040327527  0.6551752073199308  0.3276423944024991
  0.0829255380705180  0.3387860793766431  0.8179686362280844
  0.5821758715604838  0.8487757350397428  0.3234936954516264
  0.0968335593564957  0.6389240255260651  0.6686163640069185
  0.5909978222939504  0.1402911955113894  0.1739156786581313
  0.3957494102682622  0.3309258390094370  0.5860161945995253
  0.8887893400216965  0.8437085447344070  0.0954800718023211
  0.8987202906919916  0.1692376109485530  0.4232783704196296
  0.3943926461069593  0.6431048510114729  0.9171833844313717
  0.0686711395088927  0.3516130970801709  0.4249187195326723
  0.5964848973689962  0.8346130737597426  0.9185163771001229
  0.5989755833667895  0.1467240333776799  0.5924779258668735
  0.0845398205299151  0.6736185022952793  0.0707058927734459
 
 -0.15286533E-02  0.23339178E-02 -0.94213474E-02
  0.16851697E-02  0.61445531E-02 -0.54667700E-02
 -0.21889178E-02  0.11105582E-02 -0.45319484E-02
 -0.27504575E-02  0.74356995E-02 -0.14002361E-02
 -0.67872747E-02  0.19563022E-02 -0.23586550E-02
  0.43007961E-02  0.25249836E-02  0.36575006E-02
  0.81631739E-03  0.11975605E-02  0.59196957E-02
  0.51139291E-02 -0.77739289E-02 -0.41165075E-02
  0.82852568E-02 -0.62476592E-03 -0.45395927E-02
 -0.78988868E-04 -0.43447342E-02 -0.63657225E-02
  0.76924786E-02 -0.18035656E-02 -0.37142603E-02
  0.57349782E-02  0.22654642E-02  0.28837479E-02
  0.72150883E-04  0.39052848E-02 -0.32883504E-02
  0.17650306E-02 -0.46347226E-03  0.18378838E-02
  0.33322015E-02  0.71079785E-03  0.98782312E-03
 -0.64160811E-02  0.35940846E-02  0.34688349E-02
 -0.47595416E-02 -0.72623653E-02  0.57058897E-02
  0.36270701E-02  0.11067303E-02  0.96249709E-03
 -0.12267721E-02 -0.44737821E-02  0.69800204E-02
  0.17391644E-02  0.56265717E-03 -0.51596435E-02
 -0.10186694E-02  0.64708279E-02  0.53606109E-02
 -0.45036194E-02  0.97642393E-02  0.13981775E-02
 -0.25831324E-02 -0.23782906E-02 -0.14919670E-02
 -0.30392746E-02  0.28456025E-02  0.58783745E-02
 -0.26097896E-02 -0.21145299E-02 -0.16189172E-02
 -0.26788857E-02 -0.11138018E-02 -0.35657829E-02
  0.38196080E-02 -0.65137107E-03  0.71531000E-02
 -0.13752905E-02  0.31201612E-03 -0.34813077E-02
 -0.69323871E-03  0.58671013E-02 -0.44384530E-02
 -0.46489391E-02  0.67479104E-02 -0.21807308E-02
 -0.28475623E-02  0.14566081E-03 -0.11087235E-01
 -0.13083733E-02  0.31594142E-04  0.20735758E-02
 -0.15841836E-02  0.60783326E-03  0.89061595E-02
  0.92104322E-02 -0.13694605E-02  0.21606256E-03
  0.85599049E-03  0.74192753E-02  0.35049534E-02
  0.50771518E-03  0.71437873E-02  0.28985943E-02
  0.48214535E-02 -0.69770977E-03  0.37505423E-02
  0.43346122E-02 -0.69198825E-02  0.17284902E-03
  0.60927648E-02  0.61309041E-02 -0.66981521E-03
  0.11328260E-02  0.49840707E-02  0.19035085E-02
 -0.36091332E-02 -0.14036470E-02 -0.18782670E-02
  0.38929393E-02 -0.61834277E-02 -0.36714157E-02
  0.52412755E-02 -0.83099319E-02 -0.69580873E-02
 -0.97655659E-02  0.35348229E-02  0.33657514E-02
  0.52889120E-02 -0.18745109E-02 -0.20212535E-02
  0.11705051E-02  0.25004309E-02 -0.15556548E-02
 -0.10071083E-01 -0.95102707E-02  0.63313075E-02
  0.28996710E-02 -0.12957131E-02 -0.18427930E-02
  0.11470350E-02 -0.36596909E-02  0.79417565E-02
 -0.91627818E-03  0.39283602E-03 -0.78489182E-03
 -0.10152718E-01  0.29546148E-03  0.58777561E-02
 -0.47900903E-02  0.81766102E-02  0.10852570E-01
  0.57506030E-02 -0.10498988E-01 -0.17358691E-02
  0.29660346E-02  0.40502161E-02  0.18673547E-02
 -0.26157768E-02 -0.20722187E-02 -0.77221408E-03
  0.68610089E-03 -0.49009917E-02  0.18057306E-02
 -0.49559986E-02 -0.80320766E-02  0.62431972E-02
  0.56536170E-04 -0.46874651E-02  0.45717650E-02
  0.45261994E-03  0.65884257E-03 -0.43045415E-03
 -0.12829510E-02 -0.29803867E-02  0.41487753E-02
 -0.14569158E-02  0.56692329E-03 -0.26764366E-02
  0.80984886E-03 -0.36342237E-02 -0.66202011E-02
  0.35337436E-02  0.39799413E-03  0.14455232E-03
 -0.38116062E-02 -0.11686623E-02  0.25116376E-03
  0.66195689E-03  0.73471106E-02  0.32735922E-03
  0.51619301E-02 -0.38550107E-02  0.36451884E-02
 -0.19200822E-02  0.49528986E-02  0.10416751E-02
 -0.14420103E-03 -0.76573838E-03  0.53506895E-03
  0.13997751E-02 -0.43145880E-03  0.34643930E-02
  0.29172813E-02  0.26485342E-02 -0.23334069E-02
 -0.84762272E-02 -0.38926058E-02 -0.23970963E-02
 -0.22060808E-02 -0.47436441E-02  0.12787912E-02
  0.31718073E-03 -0.46457186E-02  0.28844369E-02
 -0.63337057E-03 -0.94545635E-02  0.20990620E-02
 -0.23130323E-02 -0.24924327E-02 -0.30540824E-02
 -0.15208983E-02 -0.55074751E-02 -0.53832925E-02
 -0.13941526E-02  0.64232097E-03 -0.68473643E-02
  0.51001710E-03 -0.14190832E-02  0.23396839E-02
 -0.52365307E-02  0.91725397E-03 -0.39058575E-02
 -0.58213556E-02 -0.43358882E-02  0.23170630E-02
 -0.13408189E-02 -0.15370910E-02  0.76013346E-02
 -0.31723907E-02  0.25517507E-02  0.25665466E-02
  0.22468577E-02 -0.10413681E-02 -0.20094831E-02
 -0.43604133E-02 -0.68984058E-02 -0.68909700E-02
  0.14590582E-02 -0.98653579E-02  0.22932210E-03
  0.13696341E-02  0.49340764E-02  0.61920122E-02
  0.44621737E-02  0.10137090E-01  0.51164190E-02
 -0.14075110E-02 -0.15617522E-02  0.57275487E-03
  0.83650755E-03  0.12554340E-02 -0.27342337E-02
  0.64132133E-03 -0.32241673E-02  0.29711190E-02
  0.31505463E-02 -0.69149648E-04 -0.22379539E-02
  0.96276989E-04 -0.18696976E-02 -0.43002131E-02
 -0.87345609E-03 -0.32064830E-02 -0.14423480E-02
 -0.22379269E-02  0.22940118E-02 -0.11353496E-02
 -0.22889977E-02 -0.17483379E-02  0.52575324E-03
 -0.38820192E-02 -0.42826446E-02 -0.25479899E-02
  0.31034322E-02 -0.42165671E-02 -0.90398479E-03
  0.29558804E-02  0.51110624E-02  0.88179736E-03
  0.58009419E-03 -0.24946317E-02  0.44734700E-02
 -0.61660562E-02  0.17103853E-02  0.14752664E-02
 -0.14052229E-02  0.31227127E-02  0.22551616E-02
  0.11084294E-02 -0.24546377E-02 -0.28317595E-02
 -0.12058964E-02  0.24070453E-02 -0.20998953E-02
  0.82716630E-03  0.12662588E-02  0.35439724E-02
  0.70063947E-02  0.77044914E-03 -0.17229232E-02
  0.14204505E-02  0.40960794E-03 -0.68180949E-02
  0.72726435E-03  0.47083153E-02  0.36868559E-03
 -0.26207245E-03  0.20153490E-02 -0.22227596E-02
 -0.59748751E-03 -0.33981143E-03 -0.26014976E-02
  0.57107434E-02 -0.17665867E-02 -0.17176271E-02
 -0.39413681E-02  0.25535858E-04 -0.77491559E-03
 -0.11304143E-02 -0.10050917E-02  0.36701945E-02
  0.14515900E-02 -0.26203978E-02 -0.35875357E-03
  0.14081139E-03 -0.13586451E-02  0.43772566E-02
 -0.14015169E-02  0.19748654E-03 -0.23016830E-02
 -0.20993574E-02  0.12118687E-02  0.65613170E-02
 -0.39798591E-03 -0.89602019E-03 -0.24074380E-02
 -0.25835693E-02  0.20812802E-03  0.32513881E-02
 -0.37792972E-02  0.21116590E-03 -0.53797225E-03
 -0.16686971E-03 -0.29456469E-03  0.24184556E-02
 -0.18724186E-04  0.88614775E-03 -0.22842164E-02
 -0.67210605E-03 -0.16353820E-03  0.15672246E-02
 -0.10593542E-02 -0.40000586E-02 -0.14270490E-02
  0.44950151E-02 -0.60390838E-03  0.41386588E-03
 -0.25999534E-02 -0.22785851E-02 -0.18686698E-02
  0.31361208E-02  0.48363366E-02  0.19394510E-02
  0.10628921E-02 -0.11330420E-02  0.18602074E-02
  0.33080879E-02  0.10773705E-02 -0.36409792E-02
 -0.28256776E-02  0.82861885E-03  0.38271571E-02
  0.19232770E-03  0.41594883E-02 -0.60280032E-03
 -0.15776880E-02  0.27503211E-02  0.22412461E-02
  0.33744995E-02  0.13721648E-02  0.52917761E-03
 -0.11760673E-02 -0.12042196E-02  0.35820099E-03
 -0.14920099E-02  0.78201116E-03 -0.67520530E-04
  0.27575371E-02  0.34824565E-02 -0.44532297E-02
 -0.24867976E-03  0.16974363E-02  0.39269785E-02
 -0.25587241E-02  0.77521094E-03  0.14842156E-02
  0.15785210E-03 -0.14305175E-02  0.16752618E-06
  0.23688962E-02 -0.26685232E-02 -0.42345209E-03
 -0.41023424E-03  0.65830448E-03 -0.26578616E-02
 -0.26493285E-02 -0.57226350E-04 -0.43383394E-02
  0.41101932E-03  0.26551743E-02  0.55230158E-03
 -0.11020184E-02 -0.30710252E-03  0.24129892E-03
 -0.37137090E-03  0.30313348E-02  0.64111081E-03
  0.87117841E-03  0.59155753E-03 -0.12550561E-02
  0.40301964E-02  0.25553712E-02  0.16174949E-02
  0.28646230E-02  0.23288983E-03  0.61979743E-03
  0.19211183E-02 -0.68698378E-03  0.29145986E-02
 -0.83598904E-03  0.26840205E-02 -0.34794283E-02
 -0.11538183E-02  0.22116490E-03  0.82519575E-04
  0.12353662E-02 -0.27411132E-03 -0.42829279E-03
 -0.36551557E-02 -0.47066753E-02  0.75917281E-03
 -0.22741761E-02 -0.29234347E-02  0.36768820E-02
  0.15639970E-02  0.16376296E-02  0.53769215E-03
 -0.36117645E-02  0.29317685E-02  0.71433973E-04
  0.73192660E-03  0.17083610E-02  0.16443940E-02
  0.59187813E-02  0.13243471E-02 -0.35434543E-03
 -0.73372393E-03  0.17063561E-02  0.15255372E-02
 -0.46149240E-02  0.68854365E-04 -0.58727820E-03
 -0.24676223E-02  0.88078697E-03  0.14517624E-02
 -0.36346511E-02  0.30243257E-02 -0.38359344E-02
  0.25971764E-03  0.26122714E-02  0.19309928E-02
 -0.14867797E-03  0.95700936E-03  0.23944300E-03
  0.41243762E-03  0.51650041E-03  0.13391600E-02
  0.24363147E-02  0.36845014E-02 -0.27463563E-03
 -0.13542123E-03 -0.40251912E-02 -0.24603720E-02
  0.70531941E-04  0.16716294E-02 -0.18459466E-02
 -0.76254329E-03  0.20667109E-02  0.10734593E-03
  0.26984464E-02 -0.19454217E-02  0.11075791E-02
  0.13503708E-02 -0.15319178E-02  0.19982231E-02
 -0.41660600E-02 -0.25675434E-03 -0.66139960E-03
  0.57036114E-02 -0.13103716E-02  0.39266056E-02
  0.71206671E-03  0.22313628E-02  0.10147831E-02
  0.32135499E-02  0.10351807E-02  0.15681960E-02
  0.15541573E-02 -0.13003352E-02 -0.21348965E-02
  0.26583037E-02 -0.63252857E-05 -0.55769842E-02
  0.35383613E-02 -0.17974610E-02 -0.12210944E-02
 -0.46825009E-03 -0.21283856E-03  0.31444311E-02
  0.10856144E-02 -0.11379093E-03 -0.13637962E-02
 -0.37984587E-03  0.32157137E-03 -0.19518701E-02
 -0.40244593E-02 -0.47160859E-02 -0.96768514E-04
  0.37447281E-02 -0.10372250E-02 -0.35907092E-02
  0.35168864E-02 -0.31812292E-03 -0.50313193E-02
  0.27816276E-02  0.34596829E-02  0.18707489E-02
  0.60010153E-03  0.39126403E-02 -0.13008939E-04
 -0.41069272E-02  0.35502185E-02 -0.25949312E-02
  0.14495069E-02 -0.13443231E-02  0.34032978E-02
  0.87011608E-03  0.10667053E-02  0.11051061E-02
 -0.54538969E-03 -0.47199401E-02 -0.63477682E-03
 -0.30979782E-02 -0.11761902E-02  0.12012901E-02
 -0.22269515E-02 -0.12491501E-02 -0.26886264E-02
  0.92935149E-03 -0.12207843E-02 -0.74421117E-03
 -0.25235057E-02 -0.49607249E-02 -0.40041662E-02
 -0.18949167E-02 -0.23829255E-02  0.41563456E-02
 -0.10258243E-02  0.20774790E-03  0.27338299E-02
 -0.17235817E-02  0.71593736E-04  0.42499638E-03
  0.29259086E-02  0.90300651E-03 -0.46491021E-03
  0.15274857E-02 -0.50396316E-03  0.26381737E-03
 -0.71517522E-02  0.39761720E-02 -0.20711064E-02
 -0.28675987E-02  0.19434306E-02 -0.39082800E-03
  0.16204735E-02 -0.33819736E-02 -0.21804818E-02
 -0.12224966E-02 -0.10095485E-02  0.43583316E-03
  0.10078903E-02 -0.77771457E-03 -0.17204930E-02
  0.44267639E-02 -0.64389557E-03 -0.36102587E-02
 -0.85954561E-03  0.11863211E-02  0.30547297E-02
  0.27074437E-02 -0.16884935E-02  0.44399419E-03
  0.76627667E-03 -0.16533102E-02  0.74420446E-04
  0.12483348E-02 -0.11228261E-02 -0.19039590E-02
 
           1
   2.00000000000000     
  0.79836005E+00  0.24495209E-02  0.00000000E+00  0.00000000E+00
  0.37605914E-01  0.22853446E-01  0.13373132E+00
  0.51737761E+00  0.53026951E+00  0.61272082E+00
  0.51652560E+00  0.48072262E+00  0.86535178E+00
  0.84153399E-02  0.15592726E-01  0.38485051E+00
  0.26787558E+00  0.97428305E+00  0.86604757E+00
  0.98577332E+00  0.52189041E+00  0.39303779E+00
  0.26977694E-01  0.51710107E+00  0.12344742E+00
  0.22456830E+00  0.22533216E+00  0.11590266E+00
  0.72810788E+00  0.73516160E+00  0.60805066E+00
  0.72993684E+00  0.27891204E+00  0.87642421E+00
  0.69872803E+00  0.75403035E+00  0.47423297E+00
  0.30794932E+00  0.22739530E+00  0.87113149E+00
  0.78411085E+00  0.26588912E+00  0.12591421E+00
  0.25449193E+00  0.73454681E+00  0.61964177E+00
  0.71222444E-02  0.15923050E-01  0.90143752E+00
  0.21721094E+00  0.51315720E+00  0.38025894E+00
  0.10506790E+00  0.97423728E+00  0.64591728E+00
  0.18458433E-01  0.42697718E+00  0.63578335E+00
  0.51441457E+00  0.98396319E+00  0.10591369E+00
  0.26878260E-01  0.51258877E+00  0.87420451E+00
  0.49133553E+00  0.99635018E+00  0.38231819E+00
  0.23038232E+00  0.22722006E+00  0.26850824E+00
  0.78031142E+00  0.76688838E+00  0.87717171E+00
  0.75138829E+00  0.25444118E+00  0.62624565E+00
  0.27031118E+00  0.73339082E+00  0.12233883E+00
  0.26021627E+00  0.12050655E+00  0.62321974E+00
  0.78175778E+00  0.59370282E+00  0.11809522E+00
  0.74621137E+00  0.51148281E+00  0.37799067E+00
  0.49365150E+00  0.73545659E+00  0.50738563E+00
  0.53017390E+00  0.26089797E+00  0.98312573E+00
  0.98991985E+00  0.50494029E+00  0.52635899E+00
  0.50086134E+00  0.74601552E+00  0.75110580E+00
  0.98456961E+00  0.73488051E+00  0.26159314E+00
  0.66004659E+00  0.27067054E+00  0.73525552E+00
  0.87005622E-02  0.83894720E+00  0.20013013E-01
  0.49418078E+00  0.42354896E+00  0.51021248E+00
  0.50421131E+00  0.72378014E+00  0.20493669E-02
  0.50205187E+00  0.22228429E+00  0.25344632E+00
  0.56846057E-02  0.75898978E+00  0.76870996E+00
  0.50119644E+00  0.73776471E+00  0.24113757E+00
  0.11475780E-01  0.43339039E-01  0.26400036E+00
  0.51444632E+00  0.47753459E+00  0.73890266E+00
  0.50055082E+00  0.98930498E+00  0.78541660E+00
  0.97186618E+00  0.51246551E+00  0.25513977E+00
  0.27496996E+00  0.21575336E+00  0.17771585E-02
  0.98345720E+00  0.74825856E+00  0.48912562E+00
  0.22074658E+00  0.76663932E+00  0.49978360E+00
  0.76449089E+00  0.27354491E+00  0.99631169E+00
  0.95688660E+00  0.25944676E-01  0.75865258E+00
  0.46382649E+00  0.47913750E+00  0.23824929E+00
  0.11389462E-01  0.51710187E+00  0.74697185E+00
  0.53818325E+00  0.99564017E+00  0.25327122E+00
  0.25774228E+00  0.24726021E+00  0.49724756E+00
  0.75500608E+00  0.77422786E+00  0.92609390E-02
  0.71703087E+00  0.21528046E+00  0.36912420E+00
  0.20902014E+00  0.72556889E+00  0.99257873E+00
  0.12220563E-01  0.24012234E+00  0.71977916E-02
  0.71283563E+00  0.25609583E+00  0.50877416E+00
  0.48264968E+00  0.51300845E+00  0.98168515E+00
  0.15387595E-01  0.98783954E+00  0.49995368E+00
  0.50911453E+00  0.22727258E-02  0.99449666E+00
  0.99708568E+00  0.23924653E+00  0.51105281E+00
  0.23256992E-02  0.50693867E+00  0.12155898E-01
  0.52268903E+00  0.49002803E-02  0.50736393E+00
  0.97423252E+00  0.27346937E+00  0.25046038E+00
  0.74522600E+00  0.76025491E+00  0.74923723E+00
  0.26735603E+00  0.74331954E+00  0.25522227E+00
  0.94592992E+00  0.25733400E+00  0.75405046E+00
  0.75009418E+00  0.74007072E+00  0.23075586E+00
  0.26974058E+00  0.27758338E+00  0.75318237E+00
  0.75052016E+00  0.24011317E+00  0.23710206E+00
  0.24995516E+00  0.78027139E+00  0.75464395E+00
  0.27814428E+00  0.47022342E+00  0.12901584E+00
  0.77355978E+00  0.97417313E+00  0.62177267E+00
  0.70448579E+00  0.87895829E-02  0.87589305E+00
  0.26522043E+00  0.77028833E+00  0.37181630E+00
  0.25661924E+00  0.49364626E+00  0.87444111E+00
  0.73898444E+00  0.93340940E+00  0.37770111E+00
  0.76478832E+00  0.99807291E+00  0.12669738E+00
  0.27143318E+00  0.49571590E+00  0.61434529E+00
  0.76837764E+00  0.52421402E+00  0.88237471E+00
  0.25064563E+00  0.69294319E-01  0.37607699E+00
  0.76008728E+00  0.52027512E+00  0.62858912E+00
  0.26833022E+00  0.97263632E+00  0.12511564E+00
  0.46760154E+00  0.99931553E+00  0.62882138E+00
  0.54503622E+00  0.48710992E+00  0.12088664E+00
  0.23559335E+00  0.75676957E+00  0.87762580E+00
  0.48933312E+00  0.44924640E+00  0.37517114E+00
  0.27990635E+00  0.49056941E-02  0.24366040E+00
  0.75851174E+00  0.50219789E+00  0.75488301E+00
  0.21312159E+00  0.21298978E-01  0.74948529E+00
  0.72350591E+00  0.47749736E+00  0.24444718E+00
  0.25944053E+00  0.97289096E+00  0.99675665E+00
  0.74170607E+00  0.49750505E+00  0.50260428E+00
  0.26195488E+00  0.12880935E-01  0.49752735E+00
  0.74896213E+00  0.51369888E+00  0.26258492E-02
  0.70916055E+00  0.22514726E-01  0.75093626E+00
  0.21854103E+00  0.49406967E+00  0.24886077E+00
  0.26857911E+00  0.51443399E+00  0.74742716E+00
  0.77943239E+00  0.98905326E+00  0.25326164E+00
  0.23966263E+00  0.51363747E+00  0.49753354E+00
  0.76332837E+00  0.44378886E-01  0.99802915E+00
  0.77089823E+00  0.98887327E+00  0.49889062E+00
  0.24546290E+00  0.45071317E+00  0.23305771E-02
  0.98152395E+00  0.26726790E+00  0.37839077E+00
  0.50230736E+00  0.73860521E+00  0.87752448E+00
  0.50511233E+00  0.24893531E+00  0.62594659E+00
  0.23460204E-02  0.75627950E+00  0.12653711E+00
  0.63957403E-02  0.25973824E+00  0.87380966E+00
  0.50047480E+00  0.74907296E+00  0.36987087E+00
  0.62020367E-02  0.73858123E+00  0.62564512E+00
  0.50069002E+00  0.22965340E+00  0.12446607E+00
  0.14570729E+00  0.36983144E+00  0.59884765E-01
  0.66159809E+00  0.89478343E+00  0.55052877E+00
  0.65794952E+00  0.13281578E+00  0.94474599E+00
  0.12290014E+00  0.61340468E+00  0.45549027E+00
  0.34647153E+00  0.35728942E+00  0.94892918E+00
  0.86890783E+00  0.87710160E+00  0.45099327E+00
  0.87043151E+00  0.12115422E+00  0.43017047E-01
  0.34775821E+00  0.60737459E+00  0.54510004E+00
  0.87411083E+00  0.10896943E+00  0.20390869E+00
  0.36633475E+00  0.61786434E+00  0.69255552E+00
  0.88704325E+00  0.90097454E+00  0.30152889E+00
  0.37925429E+00  0.41691360E+00  0.79766844E+00
  0.12616125E+00  0.59742765E+00  0.30643319E+00
  0.63580111E+00  0.13091830E+00  0.80214843E+00
  0.13415713E+00  0.38864700E+00  0.19422708E+00
  0.60747204E+00  0.91585266E+00  0.71082073E+00
  0.85541798E+00  0.61927344E+00  0.95924841E+00
  0.37364503E+00  0.11295458E+00  0.46135204E+00
  0.83618235E+00  0.38747429E+00  0.55675253E+00
  0.35281057E+00  0.87382104E+00  0.47820244E-01
  0.14937307E+00  0.10228415E+00  0.54942410E+00
  0.64437718E+00  0.61118383E+00  0.44717287E-01
  0.15386925E+00  0.87990776E+00  0.93956668E+00
  0.64464909E+00  0.39303153E+00  0.45055696E+00