Na88 Sn16 P8 Se96                       
   1.00000000000000     
    14.0793397336999995    0.0000000000000000    0.0000000000000000
     0.0000000000000000   14.0793397336999995    0.0000000000000000
     0.0000000000000000    0.0000000000000000   28.1586794673000007
   Na   Sn   P    Se
    88    16     8    96
Direct
  0.7240284416244861  0.0221948431699841  0.1249398050172245
  0.5376054831743616  0.4603819317052438  0.7323888617139080
  0.4949940712291275  0.5017060618975421  0.9819319533140516
  0.3228807631675744  0.9413029331983764  0.3517879956277165
  0.4432613135531143  0.9559154072038671  0.8850272393037426
  0.9976166948359253  0.5387929826169365  0.3863829313157893
  0.2575237737047858  0.4747525379769351  0.1308202165308401
  0.2609718613275668  0.2666303801011297  0.2385001284498696
  0.7562043211924724  0.7366899287777283  0.5922031514411120
  0.7529807911631768  0.0013971279383519  0.8721984270017749
  0.7507305668497198  0.7598082679666671  0.4733502736182452
  0.0313074479740078  0.2316025634695884  0.7467101484686747
  0.7490305156317824  0.2298643389790516  0.1101531301428788
  0.2509394024585027  0.7977301384695477  0.6045538557119711
  0.1414993174521895  0.9988480047502208  0.8900557460483128
  0.7442720058925812  0.4827304255427018  0.3759923253041558
  0.7679726448953287  0.9692550720243323  0.6292107127897629
  0.0044884217185481  0.5388938943322131  0.5095000590819302
  0.4970466810660968  0.0149756154692229  0.0198521848372389
  0.9932704651330594  0.5090331737528030  0.8748035130150541
  0.4860403968034779  0.0527548773937895  0.3733952738795505
  0.9932567103154025  0.2378571009062307  0.2508896968986827
  0.7895266996267696  0.7300550482513822  0.8619941432138227
  0.9081535371132147  0.5323908853837868  0.6327736090972199
  0.2476646612015091  0.7583975592455473  0.2536050797996985
  0.2705679725955457  0.1894542777332452  0.7253080834491973
  0.7536416648367443  0.7808900797461051  0.1314285643464496
  0.7369983155243454  0.2362910074202099  0.5099120272213308
  0.5187750689847123  0.5373050766182518  0.4368605770420690
  0.2599937489826150  0.2261262603548435  0.0078985257585762
  0.9837834273335010  0.0281394812938468  0.4951561778712250
  0.2880784181029370  0.7231570047373728  0.7438936930870049
  0.7017729890629493  0.7621937482053284  0.2733383957317562
  0.7933557836709525  0.2043967471297033  0.7926182050628847
  0.9965821056834823  0.7267404921079983  0.0032024222373771
  0.4974638005570787  0.2697377664072537  0.4979921870881502
  0.5289753433713623  0.2433945139818622  0.9699338183008082
  0.4713094304117487  0.2726251527834593  0.2483029183803600
  0.7707743385880645  0.7268710337064979  0.7314268017723110
  0.4779127913528804  0.7501653543925403  0.2273964386799954
  0.0071929340031831  0.0368697689123858  0.2446157901814425
  0.5471418511448229  0.4610639862195720  0.8501714936896311
  0.4849346938117133  0.9903148619208827  0.7408191857660519
  0.9858520365960757  0.7268220846802989  0.2539113096891828
  0.0073921782357413  0.2201046172760164  0.0163619134315878
  0.9879651881476418  0.7830377535718283  0.4888257364072386
  0.5194679090138290  0.7391757265819793  0.5105705180086941
  0.7473369211902073  0.2374817545812962  0.9852247237293987
  0.0054695468895510  0.7235616024033420  0.7400670788671512
  0.5030218435584461  0.5418903923051834  0.2842089102038429
  0.0670648327698331  0.4754228578842816  0.7368216348809833
  0.5053588522737152  0.0279082211942770  0.2409595389420685
  0.2637564319026115  0.2698777873654333  0.4991504416204775
  0.7486608511079722  0.7425737995661397  0.0096609023887336
  0.7812328279523426  0.2591013721283668  0.6262046295384348
  0.2836660126976528  0.7281646234409035  0.9985577635972190
  0.9817416059973114  0.5075382764072908  0.1152490209739541
  0.5316610662004324  0.4838008158273633  0.6004634349770166
  0.5027166588825982  0.5193915138904166  0.1346776963155855
  0.9678751372382211  0.0453935503183670  0.6289355664767943
  0.5003245231126305  0.7729280401674340  0.0113630141304069
  0.9753558955336995  0.2610633844855286  0.5038128420504644
  0.0328375464972470  0.4769904627877626  0.9820756964176136
  0.4941871564234510  0.0234674839580149  0.4899649978787147
  0.9821586400755690  0.5116132840360319  0.2515063126015784
  0.5132361154597049  0.7401912912105797  0.7351197384996950
  0.2515035135607620  0.7831262568133103  0.4782637044953617
  0.9666812682562137  0.9708708966592428  0.7366587358520275
  0.7124611702737685  0.9457997250138279  0.3749749575581490
  0.5306572377562749  0.2526085605613729  0.7429151287508381
  0.7160316149775989  0.2548213607350888  0.2336919406688492
  0.1977085022894910  0.7182708126483244  0.8660655039038805
  0.2383957344399172  0.7664371559427282  0.1300569991453543
  0.5064871457776982  0.9760538476689335  0.6069835251727437
  0.9904653495646751  0.9987157412688702  0.9864431305610158
  0.2639494530530955  0.5230874174418031  0.3676757249230324
  0.2662065614084133  0.4558125107703322  0.8664259274910843
  0.9954695989738488  0.9951241353015329  0.3727583500083909
  0.2902864965543194  0.0582440874808386  0.1107291172510322
  0.2351495145817845  0.2760330835972384  0.6134515540401413
  0.7889878006306357  0.4671662788015633  0.8640082275838517
  0.2738159308671292  0.2743624967818066  0.3624602028593025
  0.2723826198640057  0.4993343753850446  0.6281730390165553
  0.0241348043971966  0.0064051646129450  0.1208606839216615
  0.2346919352811589  0.9997016922240658  0.6225340269285435
  0.7226058509466028  0.4832511315634335  0.1151420296327988
  0.2710226898069189  0.2108734882562656  0.8739516648906415
  0.7268970043248051  0.2341718965165558  0.3709590495211608
  0.2485259494815839  0.0159779164169826  0.2432448889864585
  0.7985993243009698  0.4719739208341361  0.7362206072890104
  0.2066234800482355  0.9630705336830754  0.7528207709733467
  0.7270567748199589  0.4876617291820638  0.2451456543459462
  0.2356694694858442  0.9736655327256263  0.0014537476804652
  0.7558079669970638  0.4998209529814100  0.5084588482485710
  0.2445040386647031  0.0224851270627048  0.4939415071661107
  0.7517575748297672  0.4950182457953916  0.9918882110362288
  0.7102097576078340  0.9968652803543173  0.7461475426348076
  0.2167589475690941  0.5109809995644032  0.2449650973649400
  0.3133866183034373  0.4634034713425794  0.7485275091862617
  0.7619156775207410  0.0100330764116677  0.2545512958796566
  0.2569276831276200  0.5405748206248507  0.4918026389656900
  0.7274170507382327  0.0016388886766634  0.9985870155494939
  0.7421432836471920  0.0155693096504917  0.5026083576779502
  0.2624877603367454  0.4593547302791812  0.9949853009842353
  0.0036308292699734  0.2661940862443452  0.3802613503453752
  0.5233815041156061  0.7378436675469958  0.8552715228601140
  0.5037697494372270  0.2544939775286442  0.6165937451753395
  0.9973352456620207  0.7629911711540186  0.1342577685060650
  0.0196111140660748  0.2517016451514592  0.8812816483232075
  0.4880241812707153  0.7657474024570965  0.3676782034812353
  0.0164105588413468  0.7546280041161706  0.6187913967505979
  0.5068081693886149  0.2740501416009306  0.1143222460815900
  0.1227425908144518  0.3843745599278277  0.0552785482049947
  0.6484117865764550  0.9035476805953664  0.5553393808764095
  0.6326664959127608  0.0840598578059280  0.9416110959337881
  0.1521722309857578  0.6392602122502880  0.4367885709130118
  0.3573685655020245  0.3550826118636985  0.9386632792761169
  0.8384549830231891  0.9169473538642040  0.4502200655620811
  0.8327899617961004  0.1052301063696030  0.0509404580663834
  0.3475833392092438  0.6307506431837393  0.5520125105040142
  0.8539450819572179  0.1241184483969939  0.1985720566080734
  0.4050577442357562  0.5761621221812409  0.6946032964731077
  0.8549267602262731  0.9226877384532490  0.3093522070143137
  0.4051287042357804  0.3661726961933292  0.8055483955384346
  0.1277606396698092  0.6295100983387295  0.3004225674141103
  0.6106678101706585  0.0909607568477642  0.8008825781398097
  0.1353867557095755  0.4015262006773697  0.1847289023011873
  0.6218351569368038  0.8968590601680755  0.6826387856645864
  0.8589093817915513  0.6015066177483593  0.9457383784505916
  0.3493006703353258  0.1314309504833301  0.4369919453041427
  0.8781591051966640  0.4056999929157534  0.5534365653423794
  0.3437584098192224  0.8798983898317899  0.0624077531818525
  0.1411281510415766  0.1079178195105662  0.5500570256527560
  0.6152385822666961  0.5853216374293732  0.0405658726287733
  0.1321223997196419  0.8638910654719602  0.9551686279513943
  0.6514283576515076  0.3829404028323248  0.4577539874413662
  0.6260750904421981  0.3801636008975865  0.2967665633122711
  0.1070907366077939  0.8405022069102454  0.7972360379580596
  0.1078367975702346  0.0661207455274871  0.6965982681832366
  0.6284232097718321  0.6303766577564057  0.2104557653987762
  0.9108363672618288  0.3650897307693849  0.6948791039470666
  0.3532372819581623  0.9095956976029297  0.1900818640300578
  0.3627226693171848  0.1092522924676243  0.2913683113420843
  0.8798578805947769  0.5943938416922548  0.7954048159603553
  0.1375525433165644  0.0879316987670202  0.0490947497114687
  0.6404967323904602  0.6052812177510694  0.5480588065366701
  0.6552297206548033  0.4065690765300466  0.9301942840121702
  0.1415733146335668  0.9232227855448940  0.4403751712296241
  0.3510610470539777  0.0799649637188370  0.9517670172481654
  0.8540830220919922  0.6093836040005219  0.4473278251244052
  0.8411917792845399  0.4011967094002441  0.0456706380196307
  0.3369276901969156  0.9307897908526196  0.5514695510635471
  0.1350890753859773  0.1299862405857402  0.2013239554225013
  0.7145989878688820  0.5757697419266437  0.6729456836624077
  0.1518661543668809  0.8973185647351469  0.3009262545525451
  0.6946228003284866  0.3701683149370267  0.7937790510587664
  0.8187795864687342  0.5864371675239105  0.3008477704581090
  0.3130921055895424  0.0807888743182464  0.8005536399777581
  0.8412628590459962  0.3919585469334876  0.1902440348974161
  0.3223711817886670  0.9026049660737688  0.6948726546219561
  0.8369135455031650  0.8899086011601519  0.9523081300298049
  0.3674845085224488  0.4283648338754575  0.4413544965364907
  0.8502881624992606  0.1116400894172094  0.5534330961508499
  0.3582839157367920  0.5575555440029676  0.0472309696364012
  0.1583155163323240  0.4344469875410999  0.5467693789912225
  0.6347608244799591  0.8729485293655442  0.0528530265418088
  0.1722563637634965  0.5784289890480805  0.9436725550042867
  0.6512670758937428  0.1186085192427605  0.4488231535195280
  0.3276653396780466  0.4136843660363705  0.2984718642178820
  0.8296941061369955  0.8915796334728725  0.7974770031155317
  0.8248043518576925  0.0982315801451663  0.6987201578628431
  0.3306048183861680  0.6160688924203862  0.1940122012719912
  0.2040384159845004  0.3678352664576149  0.6986713658067043
  0.6666307508261085  0.9086092858920491  0.1954902889935401
  0.6369444090488865  0.1064612863467383  0.3044752960033507
  0.1837957964960380  0.5774749055717671  0.7958777270491598
  0.0775695235999389  0.1630445239347035  0.3378925503427820
  0.6130531452951664  0.6378546162960156  0.8109989464878087
  0.6127041363793722  0.3439313635234570  0.6551769698061976
  0.0685768017720939  0.8503517934548850  0.1922333485682597
  0.4222667427249578  0.1460598411057527  0.6617747152440029
  0.9027910413164287  0.6561279017597457  0.1705025407171478
  0.9176203863602148  0.3644440926523270  0.3349136593850974
  0.4099666707773922  0.8182746371063053  0.8140369972903907
  0.1071912455676416  0.1648079150322909  0.9369523623418476
  0.6225313471005076  0.6949852036973390  0.3735778609568094
  0.0678651673467902  0.8849957250397954  0.5838400015163900
  0.5935221707335666  0.3614802137538217  0.0724491487260355
  0.9368397857308439  0.6635773350434047  0.5616682740542669
  0.4262807657127840  0.1832549118116548  0.0603841275169534
  0.9239027010288158  0.3294846583057324  0.9266436162972607
  0.4413833256205553  0.8411992763759812  0.4330877352475485
  0.8974512889056860  0.8165950417614850  0.6633365885039916
  0.3956065883932267  0.3585455856584815  0.1598255213210894
  0.9414408239098428  0.1405304931841480  0.8320074102731632
  0.3735956834480114  0.6742556782861192  0.3395951903488630
  0.0877547774869060  0.3627742694922356  0.8311869943767588
  0.5298067698307937  0.8953463209605681  0.3237387010672373
  0.1175166096632521  0.6753622741490525  0.6654469837756029
  0.5936184683739903  0.1868507233727957  0.1678178578200482
  0.3971896638813640  0.3460358284223098  0.5735039017454955
  0.9216743510094827  0.8512096207925831  0.0762251661205688
  0.8943680972618061  0.1869773901129119  0.4236499129172143
  0.4371793656885620  0.6582550182577908  0.9096497393944276
  0.0971341163056644  0.3531207879557129  0.4267063757017825
  0.6165302236681574  0.8356403822975228  0.8946316644095785
  0.5961762504097975  0.1663934198414009  0.5686318582675525
  0.0920299658801636  0.6729062487894465  0.0827819560724002
 
  0.12557271E-02  0.33207557E-02 -0.84936377E-02
 -0.13319621E-02 -0.53365772E-02  0.53067623E-02
  0.27758043E-02  0.34787318E-02  0.95762699E-02
  0.45787664E-02  0.24039969E-03 -0.21348834E-02
 -0.19522381E-02 -0.49043798E-02  0.29945407E-02
 -0.88376517E-03 -0.37537353E-02  0.16610336E-02
  0.22325662E-02 -0.11636291E-01 -0.41394072E-02
  0.56736295E-02 -0.39349306E-02  0.36014055E-02
 -0.71769266E-02  0.61287800E-02  0.53348124E-02
  0.60696057E-02 -0.18446081E-02 -0.38610467E-02
  0.26698955E-02  0.60413770E-03 -0.38724022E-02
  0.15480925E-01 -0.46059565E-02  0.31562101E-02
  0.57323292E-02  0.96527857E-02 -0.11534957E-02
  0.67072235E-02 -0.47817637E-02 -0.83012686E-02
 -0.88322358E-02 -0.13588586E-02  0.27838258E-02
  0.13239260E-01  0.29268496E-02 -0.68647532E-02
 -0.18438061E-02  0.56797385E-02 -0.19779566E-02
 -0.44626145E-02  0.98047606E-03 -0.28773957E-02
  0.15001797E-02  0.44704248E-02  0.45207645E-02
  0.13435499E-01  0.54329942E-02  0.23488761E-02
  0.40550516E-02 -0.76629632E-02 -0.35888999E-02
  0.41877339E-02 -0.79091720E-03  0.20862058E-02
 -0.16689094E-02 -0.58982338E-02 -0.58724194E-02
 -0.38217359E-02  0.71239608E-03  0.14489027E-02
 -0.76807679E-03 -0.67827763E-02  0.42479948E-02
 -0.53349550E-02 -0.52545536E-02 -0.20272713E-02
 -0.25736313E-02 -0.20778681E-02  0.18328349E-02
 -0.13062649E-02  0.28630387E-02 -0.23735644E-03
  0.18589579E-02  0.76555394E-02  0.48440257E-02
 -0.35386453E-02  0.81294319E-02  0.13224577E-02
  0.65926518E-02 -0.21726570E-02 -0.15619529E-02
  0.18176470E-02  0.28880362E-02  0.15208150E-01
 -0.25755816E-02  0.92873788E-03 -0.49242583E-02
  0.10921807E-02 -0.51250589E-03  0.15319912E-02
  0.31008416E-02 -0.66783179E-03  0.22204684E-02
  0.68206701E-02 -0.33789644E-02 -0.37932941E-02
 -0.10861018E-02  0.80424594E-02  0.34788443E-02
  0.47386997E-02 -0.78864433E-02  0.62953520E-02
 -0.82391029E-03  0.93399360E-02  0.67386397E-03
  0.18738347E-02  0.69668972E-02 -0.18356596E-02
 -0.85220384E-02 -0.59267933E-02  0.76264434E-03
  0.43135656E-03  0.50337394E-02  0.10900260E-02
 -0.35664487E-02 -0.10966302E-02 -0.23466141E-02
 -0.15196557E-02 -0.11968512E-02 -0.55857315E-02
 -0.17703447E-02  0.65538157E-03  0.36789356E-02
 -0.80931607E-02  0.29266101E-03  0.29573369E-02
 -0.71559231E-03 -0.45898263E-02  0.11828015E-02
 -0.22950886E-02  0.20980775E-02  0.41280140E-02
  0.99130246E-02 -0.47154486E-03  0.45618553E-02
 -0.12897287E-01 -0.21312819E-02 -0.26297942E-02
  0.11885109E-02  0.42656872E-03 -0.28104496E-02
  0.25509346E-02  0.24755694E-02 -0.28727605E-02
  0.32324545E-02  0.36897037E-02 -0.42271623E-03
 -0.63328246E-03 -0.60514340E-02  0.68158411E-03
 -0.41310034E-03  0.10189676E-02  0.26984985E-03
  0.40290568E-02 -0.46593031E-04 -0.28742262E-03
  0.83449091E-04  0.87126029E-03  0.36985187E-03
  0.59715741E-02 -0.18485707E-03  0.76496371E-02
  0.57552523E-02  0.24125517E-02  0.34875398E-02
 -0.47145523E-02  0.22836906E-02 -0.86399944E-02
  0.34876693E-02 -0.76663674E-03  0.35056878E-02
  0.23217787E-02 -0.74031425E-02  0.34872823E-03
 -0.20836325E-02 -0.58233412E-02  0.19382129E-02
  0.10754051E-01  0.16535818E-02 -0.15133308E-01
 -0.65882331E-02 -0.41494934E-02 -0.14029187E-02
 -0.57578462E-02  0.29585905E-02 -0.26955463E-02
 -0.78141951E-02 -0.71737154E-03 -0.20996044E-02
 -0.45641159E-02 -0.95699115E-03  0.20541643E-02
  0.74639292E-02  0.17716309E-02  0.10331297E-02
 -0.37924018E-02  0.39587330E-02 -0.57954232E-02
  0.97211766E-03 -0.82858211E-03 -0.93347979E-03
  0.24108456E-02 -0.42456877E-02  0.39679642E-02
  0.96489268E-03 -0.17007348E-02 -0.48602710E-02
  0.28417932E-02  0.11230947E-02  0.30624481E-02
  0.26579450E-02 -0.14964187E-02  0.11685308E-03
 -0.17085914E-02 -0.60212499E-02  0.41048444E-02
 -0.32826034E-02 -0.63183470E-02  0.15357326E-02
 -0.25990236E-02  0.29579941E-02 -0.31420287E-02
  0.13119667E-02 -0.96938816E-02 -0.24833063E-02
  0.37118024E-02 -0.28885217E-02  0.24270050E-02
 -0.37395587E-02 -0.28475526E-02  0.15679736E-02
  0.36869609E-02 -0.76702119E-02  0.70604169E-02
  0.62073825E-02  0.34062523E-02  0.39598102E-04
  0.51126644E-02  0.71212557E-02 -0.20739046E-02
 -0.74491011E-02 -0.57875685E-02  0.88967217E-03
  0.42142980E-02 -0.23721016E-02  0.51366636E-02
  0.78982345E-02  0.87210857E-03  0.31127996E-02
  0.50216040E-02 -0.43077844E-02 -0.19633331E-02
  0.25956213E-02 -0.14537042E-02  0.27769511E-03
 -0.22748655E-02  0.11250663E-02  0.80971382E-03
  0.29686999E-03 -0.48771272E-03 -0.17362098E-02
  0.39094340E-02 -0.26689114E-02  0.27686199E-02
  0.14832008E-02  0.27617412E-02 -0.94681660E-04
 -0.36518119E-02 -0.10489203E-02  0.44828588E-03
  0.16901588E-02 -0.29735583E-03 -0.76821464E-03
 -0.14412199E-03  0.46849285E-02  0.70655409E-04
 -0.32583842E-02 -0.13169310E-02  0.17933847E-03
 -0.23924925E-02  0.15233496E-02  0.13795862E-02
 -0.95121092E-03 -0.96443437E-03 -0.40834521E-02
 -0.20295812E-02  0.34639690E-02  0.14431282E-02
 -0.30152914E-02 -0.28111076E-02  0.19775656E-02
 -0.22672734E-02  0.18862119E-02 -0.91198911E-03
 -0.33328934E-03  0.16958369E-02  0.43050047E-03
  0.21170564E-02  0.11339702E-02  0.13243499E-02
  0.11126402E-02 -0.26466790E-02 -0.53830818E-02
  0.75673375E-03  0.29703004E-02  0.35091936E-04
 -0.29195134E-02  0.57040877E-02  0.47012095E-02
 -0.12132970E-02  0.36326529E-03  0.59422622E-03
 -0.25003832E-02 -0.49096686E-03 -0.13992636E-03
  0.72289113E-02  0.17804952E-02 -0.20757195E-02
  0.87601427E-03 -0.12427159E-02 -0.20141911E-02
 -0.23065096E-02  0.39295269E-02  0.62852451E-02
  0.16953002E-02  0.31131841E-02 -0.15195591E-02
 -0.18965659E-02 -0.91391214E-03 -0.15314454E-02
 -0.64932633E-03 -0.29712432E-02  0.26614271E-03
  0.29454011E-02  0.25104545E-02 -0.15100659E-02
  0.60635175E-03 -0.15935696E-02  0.93810049E-03
  0.27934550E-02  0.11721133E-02 -0.29156148E-02
 -0.44081162E-02  0.10308520E-02  0.95527990E-03
  0.17536595E-03  0.23755732E-02  0.10662131E-02
  0.16044173E-03  0.37458192E-03 -0.13303330E-02
 -0.50952159E-02  0.59729652E-03  0.45239541E-02
  0.11391579E-02 -0.42992318E-02 -0.16022666E-02
 -0.40402843E-03  0.20071262E-02 -0.28557253E-02
  0.47014203E-03 -0.30463838E-02  0.31292512E-02
  0.19817271E-02 -0.16856361E-02 -0.10628812E-02
 -0.27384636E-02  0.50639512E-03  0.17745840E-03
  0.84162933E-03  0.16540534E-03 -0.10495102E-02
  0.19955055E-02 -0.12821645E-02  0.51242431E-03
  0.36457422E-02  0.11283203E-02  0.44281790E-02
  0.14481551E-02  0.35770678E-04 -0.30524432E-02
  0.10816691E-02 -0.28919313E-02 -0.14056057E-02
 -0.28124998E-02 -0.55210432E-03  0.14973139E-02
  0.22552193E-02  0.30929808E-02  0.32432178E-04
 -0.33048621E-02 -0.54219513E-02  0.47214916E-02
  0.14388392E-02 -0.61329276E-02 -0.28584600E-02
  0.16157631E-02  0.22963193E-02  0.11515684E-02
  0.76087759E-03 -0.10318336E-02 -0.15883897E-03
 -0.35923191E-02 -0.65917114E-04  0.82665851E-03
 -0.10566079E-02 -0.11246197E-03 -0.30107510E-03
  0.26386002E-02 -0.36273172E-03  0.12829778E-02
  0.34025745E-02  0.22534700E-03 -0.46580201E-02
  0.19237734E-02  0.17708495E-02  0.53789465E-03
 -0.42423691E-02 -0.79288830E-03 -0.24997724E-02
 -0.58181350E-02  0.21198658E-02 -0.24367310E-02
 -0.21560619E-02  0.16950615E-02 -0.39916924E-03
 -0.31191313E-02 -0.19613612E-02 -0.72307233E-03
  0.32192328E-02 -0.10777832E-02  0.59024235E-02
  0.47627948E-02  0.13740732E-02 -0.11028598E-02
  0.30846081E-02  0.23037136E-02 -0.25949695E-02
  0.14797240E-02  0.57010609E-02  0.16779053E-02
  0.16730074E-02 -0.16141400E-03 -0.11973067E-02
 -0.24234482E-02 -0.47885949E-02 -0.71222320E-03
 -0.15659497E-02 -0.14376809E-02 -0.18400787E-02
  0.36697682E-02  0.22845850E-02 -0.29319798E-02
  0.10910765E-02 -0.44666761E-03  0.22354714E-02
 -0.12852856E-02 -0.20913489E-02  0.47810533E-03
  0.44285950E-03  0.97011987E-03 -0.11696302E-02
  0.54995816E-02  0.32513795E-02  0.22994026E-02
 -0.15418740E-02 -0.38626824E-02  0.23700790E-03
  0.17152249E-02  0.23493524E-02 -0.21062729E-02
  0.13604079E-02  0.20163768E-02 -0.28901616E-03
 -0.79630123E-02 -0.14029767E-03  0.27387971E-02
 -0.97655267E-03 -0.60177577E-03  0.19979326E-02
 -0.15095563E-02  0.11598222E-02 -0.84348504E-03
  0.26782531E-02 -0.10755398E-02 -0.20354275E-02
 -0.10430302E-02 -0.68953708E-03  0.36327733E-02
 -0.11660070E-02 -0.17836837E-02 -0.24509359E-02
 -0.11235196E-02 -0.10017144E-02  0.20157739E-02
 -0.45900879E-02  0.17778934E-02  0.21636587E-02
 -0.21413243E-02 -0.29465312E-03 -0.34737409E-02
  0.14152783E-04 -0.38706964E-02  0.43503657E-02
  0.60483792E-02  0.57077398E-03 -0.54958761E-02
 -0.23115673E-02  0.38716529E-02  0.19412440E-03
  0.24578437E-02 -0.41627783E-03 -0.23519634E-02
 -0.21788758E-02  0.18198815E-02  0.22533986E-03
  0.66700065E-03 -0.74067391E-03  0.20535941E-02
  0.22480801E-02  0.12934070E-02  0.64654355E-04
 -0.13836148E-02 -0.42298624E-03 -0.31583437E-02
 -0.40190016E-02  0.28114736E-02  0.96080143E-03
  0.30094311E-02  0.30173266E-02  0.22878580E-02
 -0.12300644E-03  0.27724939E-02 -0.10157168E-01
 -0.56344600E-02  0.14447185E-02  0.24470909E-02
 -0.39633524E-02  0.34587486E-02  0.48159769E-02
  0.13993426E-02  0.55750347E-04 -0.84633910E-03
  0.91164680E-03  0.68102859E-03 -0.48158809E-03
 -0.48771389E-02 -0.75286979E-03 -0.18569570E-02
 -0.40001534E-02 -0.21340108E-02  0.29419961E-02
  0.32263112E-02  0.34655003E-03  0.66875866E-02
  0.62720994E-03  0.36758024E-03 -0.51641346E-02
  0.68232842E-02  0.32901334E-03 -0.12938591E-02
 -0.24502113E-02 -0.62977455E-02  0.48817916E-02
 -0.52385368E-02  0.73502835E-03  0.65880590E-03
  0.32463911E-03 -0.22781620E-02  0.52906290E-03
 -0.20633758E-02  0.19363248E-02  0.20355165E-02
 -0.15813114E-02  0.13842635E-02  0.23172550E-03
 -0.33880428E-03  0.39393801E-02  0.57920874E-03
 -0.72175368E-03  0.19447573E-03 -0.19383546E-02
 -0.30097297E-02  0.76977932E-03  0.65424279E-03
 -0.30202078E-02  0.12589274E-03  0.98837272E-03
  0.32804008E-02  0.11561438E-02 -0.75022248E-03
  0.23369291E-02 -0.27969440E-02  0.43519140E-03
  0.73219895E-02 -0.16254421E-02 -0.72191212E-02
 -0.67557703E-02 -0.16522326E-02  0.39270474E-03
  0.15963894E-02 -0.26298313E-02 -0.22370631E-02
  0.47422534E-02  0.35419487E-02  0.39343791E-02
  0.12448267E-02 -0.41984167E-02 -0.44502271E-02
 -0.21897691E-02 -0.33504711E-02 -0.26700003E-02
 
           1
   2.00000000000000     
  0.48025933E+00 -0.11337468E-02  0.00000000E+00  0.00000000E+00
  0.72420682E+00  0.22666564E-01  0.12433654E+00
  0.53741628E+00  0.45962386E+00  0.73276578E+00
  0.49538838E+00  0.50220022E+00  0.98261212E+00
  0.32353119E+00  0.94133708E+00  0.35163636E+00
  0.44298399E+00  0.95521873E+00  0.88523993E+00
  0.99749115E+00  0.53825976E+00  0.38650091E+00
  0.25784091E+00  0.47309958E+00  0.13052621E+00
  0.26177781E+00  0.26607141E+00  0.23875592E+00
  0.75518482E+00  0.73756053E+00  0.59258206E+00
  0.75384299E+00  0.11350975E-02  0.87192419E+00
  0.75110983E+00  0.75989409E+00  0.47307523E+00
  0.33506546E-01  0.23094828E+00  0.74693432E+00
  0.74984481E+00  0.23123554E+00  0.11007120E+00
  0.25189218E+00  0.79705088E+00  0.60396425E+00
  0.14024468E+00  0.99865498E+00  0.89025347E+00
  0.74615267E+00  0.48314619E+00  0.37550475E+00
  0.76771073E+00  0.97006189E+00  0.62907023E+00
  0.38544979E-02  0.53903317E+00  0.50929569E+00
  0.49725978E+00  0.15610649E-01  0.20173277E-01
  0.99517901E+00  0.50980494E+00  0.87497034E+00
  0.48661643E+00  0.51666337E-01  0.37314037E+00
  0.99385159E+00  0.23774475E+00  0.25103787E+00
  0.78928963E+00  0.72921719E+00  0.86157705E+00
  0.90761065E+00  0.53249208E+00  0.63287652E+00
  0.24755555E+00  0.75743405E+00  0.25390680E+00
  0.26981013E+00  0.18870786E+00  0.72516409E+00
  0.75327608E+00  0.78059491E+00  0.13155874E+00
  0.73681276E+00  0.23669771E+00  0.50989517E+00
  0.51903914E+00  0.53839256E+00  0.43720463E+00
  0.25949108E+00  0.22728106E+00  0.79924547E-02
  0.98471993E+00  0.27830851E-01  0.49504524E+00
  0.28833662E+00  0.72356726E+00  0.74497387E+00
  0.70140712E+00  0.76232568E+00  0.27298865E+00
  0.79351093E+00  0.20432394E+00  0.79272702E+00
  0.99702259E+00  0.72664563E+00  0.33601334E-02
  0.49843269E+00  0.26925778E+00  0.49772276E+00
  0.52882106E+00  0.24453696E+00  0.97018091E+00
  0.47198257E+00  0.27150487E+00  0.24875005E+00
  0.77065730E+00  0.72819779E+00  0.73147466E+00
  0.47817897E+00  0.75115502E+00  0.22726606E+00
  0.59823604E-02  0.36027855E-01  0.24466996E+00
  0.54720313E+00  0.46177904E+00  0.85024891E+00
  0.48442807E+00  0.99015908E+00  0.74065252E+00
  0.98563617E+00  0.72665207E+00  0.25351458E+00
  0.71406970E-02  0.22019772E+00  0.16623214E-01
  0.98681554E+00  0.78307933E+00  0.48903578E+00
  0.51936626E+00  0.73852373E+00  0.51065453E+00
  0.74701090E+00  0.23777979E+00  0.98551792E+00
  0.68777130E-02  0.72349462E+00  0.74039109E+00
  0.50118976E+00  0.54158764E+00  0.28402213E+00
  0.67233663E-01  0.47548345E+00  0.73662202E+00
  0.50572122E+00  0.28259881E-01  0.24075550E+00
  0.26421561E+00  0.27040192E+00  0.49912042E+00
  0.74857089E+00  0.74171418E+00  0.97093126E-02
  0.78117415E+00  0.25924612E+00  0.62622380E+00
  0.28423835E+00  0.72815800E+00  0.99853735E+00
  0.98175346E+00  0.50766204E+00  0.11527529E+00
  0.53250934E+00  0.48377456E+00  0.60100676E+00
  0.50353420E+00  0.51973422E+00  0.13492540E+00
  0.96720543E+00  0.45717953E-01  0.62832190E+00
  0.50081995E+00  0.77281914E+00  0.11612009E-01
  0.97568571E+00  0.26001175E+00  0.50383761E+00
  0.32541562E-01  0.47616324E+00  0.98221336E+00
  0.49571479E+00  0.23702379E-01  0.48889014E+00
  0.98122277E+00  0.51102384E+00  0.25140667E+00
  0.51241820E+00  0.74061157E+00  0.73492828E+00
  0.25039349E+00  0.78302435E+00  0.47811458E+00
  0.96603293E+00  0.97073495E+00  0.73680464E+00
  0.71352144E+00  0.94605139E+00  0.37504834E+00
  0.53011852E+00  0.25317091E+00  0.74250350E+00
  0.71616971E+00  0.25470366E+00  0.23362564E+00
  0.19805097E+00  0.71766770E+00  0.86634733E+00
  0.23853280E+00  0.76619556E+00  0.12971179E+00
  0.50689083E+00  0.97621339E+00  0.60720104E+00
  0.99084292E+00  0.99850317E+00  0.98645143E+00
  0.26370674E+00  0.52223209E+00  0.36796728E+00
  0.26574026E+00  0.45491498E+00  0.86653500E+00
  0.99510040E+00  0.99554432E+00  0.37253518E+00
  0.29047286E+00  0.56867051E-01  0.11055274E+00
  0.23567678E+00  0.27562276E+00  0.61362393E+00
  0.78845659E+00  0.46676178E+00  0.86411959E+00
  0.27433967E+00  0.27327293E+00  0.36296168E+00
  0.27326439E+00  0.49981824E+00  0.62817585E+00
  0.24861069E-01  0.74167541E-02  0.12071338E+00
  0.23363377E+00  0.99887956E+00  0.62259722E+00
  0.72320450E+00  0.48291417E+00  0.11550687E+00
  0.27214465E+00  0.21099737E+00  0.87417275E+00
  0.72761033E+00  0.23355997E+00  0.37081960E+00
  0.24889466E+00  0.15771415E-01  0.24326461E+00
  0.79827617E+00  0.47213374E+00  0.73627812E+00
  0.20666565E+00  0.96300125E+00  0.75269745E+00
  0.72761212E+00  0.48728260E+00  0.24534230E+00
  0.23588016E+00  0.97405784E+00  0.14470228E-02
  0.75528922E+00  0.49967195E+00  0.50849069E+00
  0.24474413E+00  0.22442887E-01  0.49388694E+00
  0.75173710E+00  0.49568375E+00  0.99189323E+00
  0.70974690E+00  0.99667821E+00  0.74616028E+00
  0.21641909E+00  0.51119739E+00  0.24506308E+00
  0.31325150E+00  0.46326647E+00  0.74823748E+00
  0.76162737E+00  0.10525141E-01  0.25465380E+00
  0.25649935E+00  0.54017550E+00  0.49194310E+00
  0.72709498E+00  0.19068291E-02  0.99852224E+00
  0.74209594E+00  0.15810207E-01  0.50263893E+00
  0.26278849E+00  0.45951581E+00  0.99507936E+00
  0.37888822E-02  0.26581812E+00  0.37987901E+00
  0.52348900E+00  0.73826561E+00  0.85527402E+00
  0.50335503E+00  0.25530426E+00  0.61692765E+00
  0.99716289E+00  0.76304277E+00  0.13429997E+00
  0.19255929E-01  0.25163190E+00  0.88127171E+00
  0.48905106E+00  0.76600033E+00  0.36753077E+00
  0.16534999E-01  0.75445147E+00  0.61864834E+00
  0.50648052E+00  0.27460834E+00  0.11476866E+00
  0.12298341E+00  0.38481679E+00  0.55170620E-01
  0.64814238E+00  0.90341786E+00  0.55523061E+00
  0.63257426E+00  0.83637786E-01  0.94163000E+00
  0.15259063E+00  0.63961683E+00  0.43668132E+00
  0.35745470E+00  0.35485624E+00  0.93872991E+00
  0.83885180E+00  0.91711386E+00  0.45001298E+00
  0.83216378E+00  0.10537654E+00  0.51008308E-01
  0.34760825E+00  0.63108810E+00  0.55208824E+00
  0.85396787E+00  0.12417166E+00  0.19847757E+00
  0.40433396E+00  0.57624697E+00  0.69492462E+00
  0.85508858E+00  0.92207702E+00  0.30923840E+00
  0.40507131E+00  0.36645781E+00  0.80534556E+00
  0.12782742E+00  0.62907735E+00  0.30064483E+00
  0.61094932E+00  0.90721309E-01  0.80080709E+00
  0.13499775E+00  0.40159814E+00  0.18474151E+00
  0.62195471E+00  0.89688256E+00  0.68256424E+00
  0.85919285E+00  0.60132448E+00  0.94577477E+00
  0.34981856E+00  0.13159123E+00  0.43730646E+00
  0.87836482E+00  0.40570507E+00  0.55321976E+00
  0.34391206E+00  0.87948758E+00  0.62307919E-01
  0.14072863E+00  0.10783939E+00  0.55016337E+00
  0.61555894E+00  0.58576100E+00  0.40568176E-01
  0.13165294E+00  0.86312087E+00  0.95550398E+00
  0.65163275E+00  0.38206921E+00  0.45755096E+00