Na88 Ge16 P8 S96                        
   1.00000000000000     
    13.3422163233000006    0.0000000000000000    0.0000000000000000
     0.0000000000000000   13.3422163233000006    0.0000000000000000
     0.0000000000000000    0.0000000000000000   26.6844326466999995
   Na   Ge   P    S 
    88    16     8    96
Direct
  0.4988566481287708  0.0088465632140308  0.1379692982622807
  0.7650863634098638  0.4522279415866749  0.8825870584353315
  0.8140750996418143  0.6893127160149781  0.7345088434015441
  0.7440467539015271  0.2079452566500271  0.2534100671791590
  0.7213298335338915  0.9347437679252869  0.8658401259682101
  0.7777824387191236  0.6936133030951522  0.3830937264942552
  0.9437046423995075  0.2611863005109288  0.9805688084919859
  0.9486765559978432  0.5092021474426458  0.1376051696055696
  0.7781299075558341  0.2176404120562527  0.7455471730405205
  0.8143474228268833  0.2518009085649565  0.1207877754254864
  0.9465446159896655  0.5371927879048692  0.2500746419605527
  0.2727608746895137  0.4503616435957071  0.8984495118724697
  0.7409639321211384  0.5241119814517655  0.1192407201061162
  0.2509861569364519  0.6926952652697247  0.6003994499321248
  0.2461985564504936  0.9370915545472217  0.8752937643455244
  0.4886198787082038  0.7245350652323801  0.4978813410961433
  0.2227465586464279  0.1828815718985171  0.5983622132040216
  0.2689487730750874  0.6987626286116545  0.7371601969143211
  0.5053565448456225  0.9917623485483422  0.2768528463671748
  0.0501378490667985  0.1701970970563243  0.7400954614351138
  0.4762337937427408  0.4637472508859886  0.3786194063551661
  0.9053107056232912  0.0326165305345669  0.3581398304074636
  0.0216357251431460  0.5093283793403938  0.8807535482215695
  0.5300082363833640  0.4958782702531115  0.6395739843632885
  0.4843658716195034  0.0178543289008304  0.3810350685193630
  0.9870553799240788  0.5004796438993294  0.7308388706541439
  0.7432556320390045  0.7218852221160863  0.9686473219388059
  0.7400522553545991  0.2560719366160574  0.6236902123890407
  0.7459670738994172  0.7441205064989235  0.5097875166237732
  0.5034594081043297  0.7692801028312329  0.0048695916454456
  0.9470997957882594  0.0023377589359862  0.4966207967197367
  0.4956008658131624  0.7144942600686011  0.7603861085762619
  0.0070145942206259  0.9393932192204243  0.1944177872995526
  0.4956420886640852  0.4558245336136598  0.7490728993835096
  0.1798394602989948  0.9109477050341674  0.1191323045342423
  0.4615509218360093  0.9727121809388313  0.5232779528232064
  0.5055841078011528  0.0508572077719229  0.9969767590598975
  0.2686456296890750  0.2302699530062808  0.3603447303764513
  0.9904703619357305  0.0704376036978017  0.6057669348460917
  0.7279257908933875  0.7792846379474918  0.1138866834560651
  0.0183266704265977  0.1009233470964336  0.2703905237707158
  0.4880340842822519  0.4468943229993737  0.0228180322446951
  0.5359628469430616  0.9857163232578998  0.7414244987637796
  0.9998554531347513  0.5251455399600029  0.0039139057069847
  0.1537330418779748  0.2187178268838248  0.4616763628103001
  0.0087580835635285  0.4747293297326464  0.3379554910292927
  0.2299791829221949  0.4796439745767567  0.3820180371139734
  0.7338775831996862  0.6888543687984239  0.8397470094393323
  0.9798117628631666  0.9470358438815755  0.8817786559668809
  0.4605909972194419  0.4848527828921118  0.2383472283844614
  0.7596113225097975  0.9234919789975919  0.6062669389623458
  0.2305808291037731  0.9500684327047494  0.3789719387856288
  0.9912509517735413  0.2867870825040986  0.4992959087525485
  0.2154878018463732  0.5323536068462140  0.1426204056321286
  0.7754860154964828  0.5026350365717495  0.6158499172984889
  0.0733765812172652  0.7315618841352852  0.2466288318860060
  0.2921357614976239  0.2013589241547483  0.8553324674245378
  0.2403110544855344  0.7301869608050655  0.4333038257937332
  0.4846908661432893  0.5032666531708873  0.1373092729826936
  0.0165447097362043  0.4803949453949024  0.5105029516936249
  0.0000203895778214  0.0227987247767622  0.9996945931570512
  0.7435858406989974  0.7217616946269749  0.2376530105594396
  0.9913968479987998  0.7682055629110888  0.9860884340551137
  0.3829257465121373  0.2293011095310994  0.4968028836481552
  0.4784084386295980  0.1978792754793998  0.2494659214992697
  0.9973778664680419  0.9076319643883719  0.7184185760514729
  0.4531681122529600  0.4519605081286061  0.4833786486215136
  0.3234645942213101  0.2022376433173864  0.7145104239174350
  0.2422832522702743  0.2607732847286510  0.2277315925748211
  0.5431359955050835  0.2306242704584349  0.7626705488105848
  0.1944186802790708  0.2266259307238313  0.9688096811489229
  0.2132888587922073  0.6758620472537218  0.8687473851769394
  0.2775161967171258  0.2469108694265751  0.0800424946300052
  0.5284568710074751  0.9172085025109554  0.6297103251063282
  0.7454003811603467  0.2132078467951039  0.8876806460595028
  0.7444062614216318  0.3442229322761832  0.3626703228194679
  0.2413913779805707  0.7271918642538434  0.0295565444273861
  0.6966525610383232  0.9088839313485568  0.3743742192243667
  0.7251919109317531  0.0201214268116741  0.1254553699256559
  0.2645578588775308  0.4270683195111231  0.6365648277877695
  0.5066239615629429  0.7427059675012317  0.2202589911464536
  0.3258553502695942  0.7527868801818109  0.2746291241166084
  0.0346306884671073  0.7353416051038544  0.5218686344793099
  0.7082452532285655  0.2463860720918663  0.0261914223269060
  0.2335490221068196  0.9251429056674243  0.6276387941655759
  0.5359154487335858  0.4825628459182600  0.8787570195482864
  0.4890869540197232  0.9726785007825220  0.8698504871983925
  0.7327739339894239  0.2526100508879716  0.4919647172574754
  0.2483163418682891  0.9752365020009056  0.2358398094061271
  0.7287217318014394  0.4743319876072780  0.7606080114619193
  0.2819604029851001  0.9208832045523805  0.7534443426964439
  0.7215017591281583  0.4936442135118599  0.2511295387631554
  0.2524856705212722  0.9938703738947020  0.9904128422783745
  0.7321323453135568  0.4945678615052871  0.5044956051449403
  0.2016972899288872  0.9579584335078771  0.4932191166564491
  0.7431413938054015  0.4924388762649924  0.9901548524487810
  0.7644016136051236  0.9847806786710599  0.7483964119754120
  0.2261783199775347  0.5170451794581606  0.2489630810319211
  0.2489301795642813  0.4350349326721867  0.7521394631663632
  0.7435757795227957  0.9719940576437914  0.2513365182960653
  0.2359575906366606  0.4685781712073613  0.4988118675729713
  0.7507536847500142  0.9898575396937701  0.9914854434176411
  0.7160957469736373  0.9708374189164899  0.5033955451426471
  0.2471270881699829  0.4863485500068135  0.0180460117735628
  0.9798956052368212  0.2452826497054855  0.3780895150220970
  0.4815091576474561  0.7235475579605665  0.8817296510526114
  0.5119649341651243  0.1861651419548538  0.6160992928174250
  0.9689383327995117  0.7455700877221973  0.1088719451722666
  0.9933604469279547  0.2033140941331460  0.8695498033229435
  0.4721892305734850  0.7278709408511013  0.3698475013700126
  0.9932023439228772  0.7036767935564745  0.6392675083152656
  0.5256840236504969  0.2437353054500504  0.1259436086954121
  0.1305606952780121  0.4064897202831730  0.0611771379274924
  0.6105412222504824  0.8503429112274211  0.5468576618672254
  0.6544196558116141  0.0608048020344986  0.9378600845706030
  0.1435104274758567  0.5856505685876817  0.4556127729638127
  0.3455994380479591  0.3623581837656012  0.9699845365785876
  0.8143869528666182  0.8808516562804111  0.4542040989628675
  0.8372341789410039  0.0954267418044214  0.0449112440785464
  0.3309789038804646  0.5606834410309502  0.5455436125661811
  0.8484208578590415  0.0778298230351132  0.2068621005650194
  0.3455739689319522  0.5321702206405604  0.7005217872496480
  0.8152572022541599  0.8708784456936987  0.3005543927004679
  0.3665859399917585  0.3396915935725834  0.7875385277132223
  0.1446190479091576  0.6122903980652371  0.3046059785033865
  0.6876955232705732  0.0792514527553498  0.7991705277686227
  0.1079727640614160  0.4176088941014757  0.2058225749351968
  0.6715585929227995  0.8851332908179464  0.7012509985671908
  0.8498095882769399  0.5909889230488735  0.9362103112807293
  0.3206147333061178  0.0563259318539887  0.4613487191702243
  0.8462309623144196  0.3886265574799557  0.5460549016005031
  0.3432689519879897  0.8962765891829559  0.0465279312408713
  0.1154586790296656  0.0824653212437465  0.5323276769399581
  0.6591708649780614  0.6162453404424892  0.0423465613718820
  0.1492100473486312  0.8743820326128515  0.9605305535391565
  0.6356480119515137  0.4044772896516027  0.4495766655449662
  0.6224952292328845  0.3787399965850534  0.2856399727400806
  0.1872517683447165  0.8219967873677431  0.8040616274333188
  0.1813279126453513  0.0189479685100356  0.7028463010327437
  0.6223411617941395  0.5940996474991638  0.2029652979983803
  0.8210447939044245  0.3900218608308698  0.7002095363365953
  0.3509075380578643  0.8808825184230744  0.1847204614180389
  0.3378795192377416  0.0961276069931915  0.2702794582793460
  0.8393117399394930  0.5551892815200583  0.8040826020183944
  0.1756217095621223  0.0863727926699007  0.0471765866565389
  0.6267682836655949  0.5659529007044416  0.5627853718986012
  0.6544872467468372  0.3767683559544053  0.9552066830242596
  0.1064988173816786  0.8837594101394153  0.4400720343128799
  0.3468515582497080  0.0787476511149872  0.9378404769030881
  0.8349031489765804  0.5893288126348087  0.4607310944501012
  0.8504404850824911  0.4126130907247592  0.0349900806484339
  0.2804420015875295  0.8406227697919699  0.5359168125262350
  0.1613633045061438  0.0743295691201457  0.1766512361902602
  0.6515822242169513  0.5941228208834972  0.7163779777518482
  0.1314185709625928  0.8969727393298315  0.2828528217302578
  0.6349288603430649  0.3734531470444836  0.8096213856634341
  0.8154224392373143  0.5698488070951864  0.3052713774722899
  0.3700480947853404  0.0482821098755428  0.7959963570096933
  0.8204826416789526  0.4322231418697859  0.1931517048561456
  0.3985749821712469  0.8381100124668664  0.7061224011406173
  0.8482995201277391  0.8847392021982253  0.9482429862001839
  0.3047056362075113  0.3545373100412972  0.4426486826009194
  0.8004336902041298  0.0704321199765725  0.5606236907704875
  0.3427864358926654  0.5775315700987180  0.0643183571224155
  0.1603869536239073  0.3698341594674723  0.5571784576683629
  0.6440912478375824  0.9168175007760554  0.0459946927204824
  0.1675414483434009  0.5808263653890687  0.9544745225300303
  0.6214978540524888  0.0708854814504785  0.4622621941893806
  0.3212453830064919  0.3816862768208091  0.2880354402332055
  0.8483819446102117  0.8637965707549026  0.8008492270007443
  0.8797532781578460  0.0661438900446977  0.7028061045195843
  0.3405748888035851  0.6084777562612794  0.2106660920645562
  0.1456411833824793  0.3328769818047096  0.7121286648819576
  0.6607897918024712  0.8808982212237993  0.1908878704791825
  0.6710217699383643  0.0696322676949299  0.3106211934772418
  0.1494121163448345  0.5288641989403091  0.7992279148697520
  0.0973006440829311  0.1386257455600369  0.3611180312898610
  0.5726502004592017  0.8007318835236312  0.8332655258703253
  0.5515801995388185  0.2300063333887253  0.5479473567088174
  0.9159163616262157  0.7103184299632349  0.1883727302595500
  0.4729802588941686  0.2962272843184022  0.6610439662319143
  0.9553904140390784  0.8934753013315878  0.0871940397866143
  0.9258176098170181  0.3026154422911745  0.3108856236084870
  0.5649638571048040  0.6571564050085882  0.9321677672736193
  0.9178136986397680  0.1120972388359302  0.9200575747804957
  0.3597032402022965  0.6381561112367432  0.3576482591502766
  0.8417698996945870  0.6748206685219172  0.6292214887392541
  0.4074144532705847  0.3233576961095883  0.1653414787731357
  0.0285193613146837  0.8412369200584617  0.6064976826360780
  0.6206952691528019  0.3520578091151382  0.0969686891259458
  0.0915719361488641  0.0955717249467542  0.8433909230929382
  0.5853398227540166  0.6688203649303184  0.4016353703334981
  0.0567269213997222  0.5926433357635730  0.5994416367582476
  0.4616191804499664  0.1576540065936457  0.0737093419657452
  0.0699588350089387  0.3069687469542958  0.9166333007207969
  0.4128777172250677  0.8601380272735412  0.4130779403571753
  0.8999314404379426  0.2742686445283758  0.8206342094603279
  0.5308515824963514  0.8011487610342211  0.3117510321888690
  0.0429130796058418  0.7052253370667505  0.7114775155812992
  0.6259800957909889  0.1758993663853105  0.1779060861058842
  0.3875011368083380  0.0920022299897718  0.6025379844717617
  0.1340872699811207  0.7294474578146348  0.1235492055467756
  0.8799083830792341  0.1724379012050781  0.4209983024095164
  0.3780659314766497  0.8023419729490040  0.9183490753179304
  0.0483377156439601  0.3623810984314801  0.4137488838965898
  0.4064332126102705  0.6157735987415126  0.8367340992205268
  0.6260394035801179  0.0956741380794292  0.6551996086348154
  0.9005599246658225  0.6684738522406127  0.0526080401198317
 
  0.32859261E-02  0.33573905E-02 -0.17486682E-01
 -0.21417604E-02  0.79375196E-02  0.42390474E-02
  0.53479845E-02 -0.51697613E-02 -0.14053846E-01
  0.54587078E-03  0.17968698E-02  0.68016677E-02
 -0.39201619E-02 -0.66596251E-02 -0.47593682E-02
 -0.45617689E-02  0.12453264E-01 -0.42684134E-02
  0.23099798E-02  0.15961352E-02 -0.22744791E-02
  0.52845208E-02  0.58028307E-03 -0.88301088E-02
  0.73341902E-02  0.46824611E-02  0.23034945E-02
 -0.32850967E-02 -0.28154159E-03  0.22476219E-02
 -0.37059315E-02 -0.22054078E-02  0.68465710E-02
  0.14580893E-01 -0.20103160E-02 -0.73681445E-02
 -0.73240048E-02  0.14418407E-02 -0.74311371E-02
  0.64881785E-02 -0.44277059E-02 -0.18411021E-02
  0.73077825E-02  0.96360424E-02 -0.39242698E-02
  0.46037476E-02 -0.87236692E-02 -0.27069130E-02
  0.41514568E-02 -0.27737802E-02  0.48332572E-02
 -0.59495934E-03  0.11796654E-02 -0.31899184E-02
 -0.10837394E-02 -0.30836506E-02 -0.72728930E-02
  0.31632254E-02 -0.69196486E-02 -0.48784145E-02
  0.81963298E-02 -0.17111049E-02  0.37451178E-02
 -0.87455469E-02 -0.47275565E-02  0.59563776E-02
  0.11240220E-01 -0.14955308E-02 -0.84105798E-02
 -0.59664421E-02  0.11883230E-01 -0.74914783E-02
  0.11833060E-01 -0.78030872E-02 -0.30222858E-02
 -0.52291966E-02  0.37750625E-02  0.42699762E-02
 -0.67240345E-02  0.11760550E-01  0.73355705E-02
 -0.88622544E-02 -0.21908907E-02  0.63356803E-03
  0.67522481E-02 -0.32794486E-02  0.18097065E-02
  0.10625774E-02  0.10008282E-02  0.27662236E-02
  0.19922247E-02  0.44697404E-02 -0.46860270E-02
 -0.56001895E-02  0.13162769E-01  0.28721993E-03
  0.12254085E-02 -0.42946726E-02  0.48110538E-02
  0.24926265E-02 -0.32518844E-02 -0.12306854E-02
 -0.89824773E-02  0.60992846E-02 -0.92642903E-02
 -0.31280103E-02 -0.34603500E-02 -0.10712817E-02
 -0.67928310E-02  0.97246090E-03 -0.90181106E-02
  0.17421258E-02 -0.25299931E-02  0.13432418E-01
  0.85480990E-02  0.85016479E-02  0.11086434E-02
 -0.10297677E-01 -0.18364666E-02 -0.20195790E-03
  0.68632838E-02  0.84826694E-02  0.99415528E-02
  0.93287006E-03 -0.50975950E-02 -0.21985792E-02
  0.12659633E-02  0.68840468E-04  0.24058392E-02
  0.25200315E-04 -0.11109156E-02  0.51824426E-02
  0.25032976E-02 -0.36586146E-02 -0.16984484E-02
 -0.12556530E-02  0.15268046E-02 -0.24876099E-02
  0.23204761E-02  0.22312927E-02 -0.15409641E-01
 -0.11661771E-01  0.14458822E-02 -0.14811234E-01
  0.96759319E-02  0.10069427E-02  0.35689876E-02
 -0.24362041E-02 -0.33498602E-02  0.68302228E-02
  0.59769660E-02 -0.14378651E-01  0.80698460E-02
  0.37100628E-02 -0.13929894E-02  0.15869865E-01
  0.26395819E-02  0.67499857E-03  0.12313260E-01
 -0.39530389E-02  0.29458633E-02  0.19036423E-02
  0.41773620E-03 -0.96507332E-02  0.23475951E-02
 -0.35752219E-02  0.46445279E-02 -0.41974317E-02
  0.41320553E-02 -0.21079978E-02 -0.25479128E-02
 -0.18272216E-02 -0.43011649E-02 -0.31817991E-02
  0.99980595E-02 -0.15486506E-02  0.14089462E-01
  0.47708068E-02 -0.10135339E-01 -0.67475568E-02
 -0.27076823E-03  0.36916524E-03 -0.14702620E-01
 -0.30637568E-02  0.51368619E-02 -0.12382658E-01
 -0.12008700E-02 -0.50806097E-02 -0.69619326E-02
  0.27164635E-03  0.70270403E-02  0.15106279E-02
 -0.62396106E-02  0.12773066E-01 -0.46298220E-02
  0.73932549E-02 -0.10398713E-02  0.88692209E-02
 -0.44468294E-02  0.67011210E-02 -0.21140687E-03
 -0.16026198E-02  0.43873863E-02  0.61857523E-02
  0.77989331E-02 -0.10868148E-02 -0.22641750E-02
 -0.55121295E-02  0.43025075E-02  0.77906798E-02
 -0.73017223E-02 -0.21936866E-02 -0.58093181E-02
 -0.64783583E-02 -0.16973679E-02  0.11803222E-01
  0.39552483E-02  0.32933347E-02 -0.47730127E-02
 -0.58094591E-02  0.99857875E-03  0.16882150E-02
 -0.82019131E-02 -0.31989223E-02  0.45142111E-02
 -0.31338242E-04 -0.16961772E-02 -0.29601189E-02
 -0.54437434E-02  0.36005789E-02  0.37587977E-02
 -0.49301323E-02  0.46459118E-02  0.88704587E-03
 -0.12708338E-01  0.97042048E-02 -0.36296194E-02
 -0.25347597E-02 -0.18811092E-02 -0.52006686E-02
  0.13120643E-02 -0.37108954E-02 -0.72099608E-02
 -0.95801834E-02  0.45067139E-02 -0.10998998E-01
 -0.98265050E-03 -0.48534595E-02  0.12136639E-02
 -0.90134032E-03  0.39823379E-02  0.28671354E-02
  0.31953925E-02 -0.61018016E-02  0.55885347E-03
  0.61838958E-02 -0.12878233E-01  0.26895521E-02
  0.17841900E-01 -0.31778317E-02 -0.70780633E-02
  0.47720510E-02 -0.92617570E-02 -0.31655702E-02
 -0.17789009E-02 -0.11226026E-02 -0.20387292E-02
  0.49144802E-02  0.23718029E-02 -0.29701889E-02
  0.53357467E-02 -0.37648872E-02 -0.58404340E-02
  0.67313287E-02 -0.24492115E-02 -0.17262807E-02
 -0.28249257E-02 -0.63886869E-02  0.20543709E-02
 -0.70513103E-03  0.25188634E-02 -0.50669794E-03
  0.21066997E-02 -0.21420815E-02 -0.43488426E-02
  0.42053011E-02  0.12154682E-02  0.10419297E-01
 -0.78484411E-03 -0.60625034E-03  0.24830037E-02
 -0.47048399E-03  0.50698575E-04  0.67742471E-03
 -0.82857342E-03 -0.30044094E-02  0.44339074E-03
 -0.24765232E-02  0.64991833E-02 -0.24265777E-02
  0.27739270E-02 -0.12129577E-03 -0.18395137E-02
 -0.50142410E-03  0.15244411E-02  0.14766092E-02
  0.73735965E-03 -0.17752372E-03  0.16959805E-02
  0.16508158E-02  0.17047654E-02 -0.56840281E-02
  0.40450556E-04 -0.31195781E-03  0.32225390E-02
 -0.59924347E-02  0.41690631E-02 -0.80381988E-02
 -0.21982827E-02  0.34233804E-03  0.78337152E-02
  0.93109653E-03 -0.15209139E-02  0.23907352E-03
  0.81679465E-03  0.10272708E-02  0.51278710E-03
  0.77409210E-05 -0.48652461E-02  0.53648235E-02
 -0.77771102E-02 -0.79429860E-02  0.53400571E-02
  0.38202545E-02 -0.14522174E-02  0.12601845E-02
  0.52611173E-02  0.63417415E-02  0.65528273E-02
 -0.44245729E-02  0.71572952E-02  0.11210798E-01
  0.19636101E-02  0.70525343E-03  0.47724582E-02
 -0.74320738E-03 -0.12795457E-02  0.51752340E-02
  0.43448479E-02  0.69857233E-02 -0.23939253E-02
 -0.32267786E-02 -0.43205635E-02 -0.90890740E-02
 -0.16824029E-02 -0.15976393E-02  0.26964948E-02
  0.18431411E-02 -0.16856657E-02 -0.22086815E-03
 -0.87066256E-02  0.49801511E-02  0.43366550E-03
  0.12531060E-01 -0.32619060E-02  0.31150927E-02
  0.38256745E-02 -0.72516904E-02 -0.29116920E-04
 -0.43310941E-02 -0.16689144E-03 -0.76106295E-02
 -0.44461656E-02 -0.47952271E-02  0.56927894E-03
 -0.26135254E-02  0.33309087E-03  0.63649545E-02
 -0.42603806E-02  0.10466089E-02  0.50797045E-02
 -0.44658059E-02  0.46329192E-02 -0.61624881E-03
 -0.70278930E-02 -0.30640174E-02  0.81743353E-02
  0.33550814E-02 -0.10888528E-02  0.94475390E-03
 -0.16197441E-02  0.40997935E-03 -0.41166851E-02
 -0.30623848E-02  0.25123191E-02  0.56211273E-02
 -0.52476603E-02  0.39936251E-02 -0.22054376E-02
  0.33420766E-02 -0.23014502E-02 -0.64465890E-02
 -0.13498446E-01  0.10750998E-04 -0.36163378E-03
 -0.27140181E-02 -0.42115708E-02  0.61710091E-02
  0.75509500E-02  0.35338726E-03  0.10466617E-01
 -0.38914816E-02  0.91984004E-03 -0.62660077E-04
 -0.13155933E-03 -0.10444496E-02  0.15162653E-02
 -0.48052547E-02  0.41236703E-04 -0.76284653E-02
  0.79904038E-02  0.82597733E-02  0.29329716E-02
  0.25584373E-02 -0.77138110E-02  0.28910844E-02
 -0.12478973E-01 -0.54657001E-02 -0.30119045E-02
 -0.27100440E-02  0.67663553E-02  0.35466508E-02
  0.35788705E-02  0.62587604E-02  0.51180342E-02
  0.16556202E-02  0.23950339E-02  0.76689937E-02
 -0.10192817E-01 -0.49133886E-02 -0.33076648E-02
 -0.27187759E-03 -0.21532162E-02  0.56487843E-02
 -0.73422127E-02 -0.62263170E-02 -0.37957546E-02
 -0.75029048E-02 -0.17847271E-02 -0.18451839E-02
  0.97506816E-02 -0.10804039E-01 -0.18850758E-02
 -0.26257276E-02 -0.30706137E-02 -0.47246447E-02
  0.42923421E-02 -0.36101323E-02  0.27023307E-02
  0.90376159E-03  0.91910893E-03 -0.10331233E-01
 -0.28120742E-02  0.99508454E-02  0.29836515E-02
  0.55593538E-02  0.87186882E-02 -0.11389673E-02
  0.25263843E-02 -0.10472060E-02 -0.37936317E-02
  0.13920124E-02  0.58590892E-03 -0.16561536E-02
 -0.67936262E-02 -0.12818949E-03  0.73095659E-02
  0.54073523E-02 -0.24723060E-02  0.28379265E-03
  0.27629485E-03 -0.53625014E-02 -0.85689253E-02
 -0.30460554E-02  0.26040833E-02 -0.17615926E-02
 -0.55136218E-02  0.59940539E-02 -0.76727174E-02
 -0.83456991E-02  0.83246807E-02  0.48011925E-02
  0.35839754E-02  0.78292488E-02 -0.24350244E-02
  0.50000341E-02 -0.35509830E-02  0.61679677E-02
  0.41289302E-02  0.63053276E-02 -0.26139466E-02
 -0.73330554E-02  0.41410326E-02  0.49487700E-02
  0.40508697E-02 -0.85584880E-02 -0.11223858E-02
 -0.11859131E-01  0.18332975E-02  0.11560192E-03
  0.45398747E-02 -0.32042010E-02 -0.39151618E-03
  0.14714961E-01 -0.27539771E-02  0.13519571E-02
  0.40254372E-02 -0.86693496E-02  0.90417082E-02
  0.91340316E-02 -0.52557439E-02 -0.20588681E-02
 -0.22085377E-02 -0.28242019E-02 -0.42387749E-02
 -0.16999324E-02 -0.24399534E-02  0.17197577E-02
 -0.38411177E-03  0.12594360E-02  0.80396841E-02
 -0.59310235E-02  0.32522196E-02 -0.42761839E-02
  0.42083367E-03  0.25038297E-02 -0.25748579E-02
 -0.79431368E-02  0.47218471E-02  0.82468596E-02
  0.32790395E-02  0.80156122E-02  0.19889756E-02
 -0.36187768E-02  0.89312122E-04 -0.79458287E-02
  0.65691784E-02 -0.44416373E-02  0.11199368E-01
  0.32204726E-02  0.13110439E-02 -0.11727453E-01
  0.49044303E-04  0.63129456E-03  0.31202987E-02
 -0.12145088E-01 -0.17942633E-02 -0.63924527E-02
 -0.83741085E-03 -0.45061908E-03  0.92980303E-04
  0.25163070E-02 -0.16248106E-01 -0.52385851E-02
  0.82342287E-05 -0.32668156E-02 -0.57898308E-02
 -0.22146328E-03 -0.42331279E-03 -0.11530647E-02
 -0.72361691E-02 -0.54824538E-02 -0.27623058E-02
 -0.21110825E-02 -0.67448358E-02 -0.99154591E-03
 -0.29371376E-02  0.24737308E-03 -0.62533403E-02
 -0.60700993E-02  0.67999741E-02  0.56735338E-02
  0.12339354E-01 -0.48101236E-04 -0.52409535E-03
 -0.37489073E-02 -0.43714061E-02  0.20478660E-02
  0.63606144E-02  0.61962877E-02 -0.72361887E-02
 -0.21170313E-02  0.11281944E-02  0.53229324E-04
 -0.52336253E-03 -0.45348542E-02  0.69802701E-03
  0.99886298E-02 -0.16103730E-02 -0.82786994E-02
 -0.44480421E-02  0.57133663E-02  0.78894751E-03
  0.22310035E-02  0.14773182E-04  0.57990882E-02
  0.13904530E-02  0.31908408E-02  0.66254571E-02
  0.15017595E-02  0.50658574E-02  0.56167731E-02
  0.46903453E-02  0.22021440E-02  0.11477687E-01
 -0.19443418E-02  0.50638333E-02  0.18937768E-02
  0.11425703E-02  0.66035124E-02 -0.22048386E-03
 -0.31941070E-02  0.59363729E-02  0.10191915E-01
 
           1
   2.00000000000000     
  0.72397776E+00  0.46036955E-03  0.00000000E+00  0.00000000E+00
  0.49934921E+00  0.93498365E-02  0.13665867E+00
  0.76476531E+00  0.45341778E+00  0.88290478E+00
  0.81487676E+00  0.68853777E+00  0.73345551E+00
  0.74412858E+00  0.20821461E+00  0.25391985E+00
  0.72074220E+00  0.93374549E+00  0.86548341E+00
  0.77709863E+00  0.69548005E+00  0.38277381E+00
  0.94405091E+00  0.26142556E+00  0.98039834E+00
  0.94946871E+00  0.50928913E+00  0.13694335E+00
  0.77922930E+00  0.21834231E+00  0.74571982E+00
  0.81385499E+00  0.25175871E+00  0.12095623E+00
  0.94598910E+00  0.53686220E+00  0.25058779E+00
  0.27494655E+00  0.45006030E+00  0.89789727E+00
  0.73986606E+00  0.52432811E+00  0.11868376E+00
  0.25195874E+00  0.69203155E+00  0.60026146E+00
  0.24729399E+00  0.93853600E+00  0.87499964E+00
  0.48930998E+00  0.72322739E+00  0.49767846E+00
  0.22336886E+00  0.18246578E+00  0.59872447E+00
  0.26885959E+00  0.69893946E+00  0.73692111E+00
  0.50519409E+00  0.99130011E+00  0.27630774E+00
  0.50612017E-01  0.16915984E+00  0.73972982E+00
  0.47746242E+00  0.46349076E+00  0.37890010E+00
  0.90399975E+00  0.31907869E-01  0.35858626E+00
  0.23320636E-01  0.50910420E+00  0.88012317E+00
  0.52911387E+00  0.49765957E+00  0.63901250E+00
  0.48613965E+00  0.16684645E-01  0.38080855E+00
  0.98627152E+00  0.50104553E+00  0.73115891E+00
  0.74224770E+00  0.72364813E+00  0.96919712E+00
  0.73872380E+00  0.25574352E+00  0.62373770E+00
  0.74697924E+00  0.74362892E+00  0.50992315E+00
  0.50361869E+00  0.76943013E+00  0.50769203E-02
  0.94739843E+00  0.30077736E-02  0.49626958E+00
  0.49476140E+00  0.71646736E+00  0.76040764E+00
  0.71982831E-02  0.93874945E+00  0.19477838E+00
  0.49601573E+00  0.45533708E+00  0.74898066E+00
  0.17849299E+00  0.91186199E+00  0.11843795E+00
  0.46108203E+00  0.97219347E+00  0.52319766E+00
  0.50456586E+00  0.51002980E-01  0.99630085E+00
  0.26890677E+00  0.22989071E+00  0.36135149E+00
  0.99175172E+00  0.71712002E-01  0.60585003E+00
  0.72638217E+00  0.77900935E+00  0.11387155E+00
  0.19355478E-01  0.10219490E+00  0.27113564E+00
  0.48817392E+00  0.44613019E+00  0.22653249E-01
  0.53615262E+00  0.98572664E+00  0.74160482E+00
  0.99985923E+00  0.52497901E+00  0.43023301E-02
  0.15410829E+00  0.21816940E+00  0.46154906E+00
  0.85698610E-02  0.47495820E+00  0.33776904E+00
  0.23032702E+00  0.47997845E+00  0.38086308E+00
  0.73212948E+00  0.68907111E+00  0.83863691E+00
  0.98126219E+00  0.94718678E+00  0.88204615E+00
  0.46022581E+00  0.48435064E+00  0.23885915E+00
  0.76050727E+00  0.92133662E+00  0.60687177E+00
  0.23113697E+00  0.94985962E+00  0.38016139E+00
  0.99164663E+00  0.28688826E+00  0.50021879E+00
  0.21489524E+00  0.53279519E+00  0.14276308E+00
  0.77554863E+00  0.50118839E+00  0.61602587E+00
  0.72840655E-01  0.73225810E+00  0.24631423E+00
  0.29275516E+00  0.20104294E+00  0.85514150E+00
  0.24003715E+00  0.72954222E+00  0.43306535E+00
  0.48618958E+00  0.50303451E+00  0.13836528E+00
  0.17259854E-01  0.47887566E+00  0.50999722E+00
  0.99997980E+00  0.22854063E-01  0.99859263E+00
  0.74312658E+00  0.72253171E+00  0.23672493E+00
  0.99121684E+00  0.76744398E+00  0.98556664E+00
  0.38296647E+00  0.23035446E+00  0.49691611E+00
  0.47747312E+00  0.19979396E+00  0.24911892E+00
  0.99848612E+00  0.90747609E+00  0.71908332E+00
  0.45250153E+00  0.45296501E+00  0.48336280E+00
  0.32322436E+00  0.20289531E+00  0.71497405E+00
  0.24345231E+00  0.26061037E+00  0.22756189E+00
  0.54230973E+00  0.23126922E+00  0.76325446E+00
  0.19332415E+00  0.22629710E+00  0.96837427E+00
  0.21231775E+00  0.67560761E+00  0.86963204E+00
  0.27810909E+00  0.24740454E+00  0.79684757E-01
  0.52758603E+00  0.91735819E+00  0.62983686E+00
  0.74417091E+00  0.21272833E+00  0.88801899E+00
  0.74440156E+00  0.34396868E+00  0.36244846E+00
  0.24057536E+00  0.72773159E+00  0.29838267E-01
  0.69591353E+00  0.90958035E+00  0.37444070E+00
  0.72328693E+00  0.21576088E-01  0.12518333E+00
  0.26417790E+00  0.42678634E+00  0.63617504E+00
  0.50682064E+00  0.74214970E+00  0.21971860E+00
  0.32441928E+00  0.75346244E+00  0.27380475E+00
  0.34483389E-01  0.73461407E+00  0.52195960E+00
  0.70811014E+00  0.24698303E+00  0.26406314E-01
  0.23402801E+00  0.92422824E+00  0.62768068E+00
  0.53684242E+00  0.48063240E+00  0.87895860E+00
  0.49176146E+00  0.97220214E+00  0.86931999E+00
  0.73348927E+00  0.25122171E+00  0.49172746E+00
  0.24804968E+00  0.97506822E+00  0.23568701E+00
  0.72945841E+00  0.47468752E+00  0.76038540E+00
  0.28276023E+00  0.92031885E+00  0.75300660E+00
  0.72251079E+00  0.49327708E+00  0.25100015E+00
  0.25206221E+00  0.99291271E+00  0.99056682E+00
  0.73202665E+00  0.49494544E+00  0.50445763E+00
  0.20201308E+00  0.95763734E+00  0.49289317E+00
  0.74377177E+00  0.49262108E+00  0.99093578E+00
  0.76428397E+00  0.98468980E+00  0.74858251E+00
  0.22610779E+00  0.51705278E+00  0.24901385E+00
  0.24880598E+00  0.43458457E+00  0.75217270E+00
  0.74320455E+00  0.97296829E+00  0.25115465E+00
  0.23637340E+00  0.46855999E+00  0.49867400E+00
  0.75067852E+00  0.99008605E+00  0.99159612E+00
  0.71620628E+00  0.97081081E+00  0.50352266E+00
  0.24737455E+00  0.48660409E+00  0.17619993E-01
  0.97990167E+00  0.24523589E+00  0.37833104E+00
  0.48061089E+00  0.72417250E+00  0.88112719E+00
  0.51163541E+00  0.18621646E+00  0.61668643E+00
  0.96907790E+00  0.74534210E+00  0.10888986E+00
  0.99348288E+00  0.20346808E+00  0.86958824E+00
  0.47219039E+00  0.72714164E+00  0.37024960E+00
  0.99203655E+00  0.70248614E+00  0.63966775E+00
  0.52625668E+00  0.24351762E+00  0.12603806E+00
  0.13134934E+00  0.40744035E+00  0.61668273E-01
  0.60987798E+00  0.85141579E+00  0.54769791E+00
  0.65471400E+00  0.60910520E-01  0.93821778E+00
  0.14339902E+00  0.58545876E+00  0.45600066E+00
  0.34625073E+00  0.36340534E+00  0.96980511E+00
  0.81390326E+00  0.88020400E+00  0.45352287E+00
  0.83698199E+00  0.95187255E-01  0.45113347E-01
  0.33125519E+00  0.56043076E+00  0.54552706E+00
  0.84711573E+00  0.78576348E-01  0.20689460E+00
  0.34745238E+00  0.53168126E+00  0.70075526E+00
  0.81583067E+00  0.86979142E+00  0.30055221E+00
  0.36593671E+00  0.33966658E+00  0.78696811E+00
  0.14395257E+00  0.61157159E+00  0.30464865E+00
  0.68730376E+00  0.79301383E-01  0.79964758E+00
  0.10733413E+00  0.41776578E+00  0.20620330E+00
  0.67088917E+00  0.88582777E+00  0.70120481E+00
  0.84875611E+00  0.59052963E+00  0.93682298E+00
  0.32111766E+00  0.56162713E-01  0.46141953E+00
  0.84598816E+00  0.38868801E+00  0.54574636E+00
  0.34280990E+00  0.89665319E+00  0.46949235E-01
  0.11467205E+00  0.83063966E-01  0.53216238E+00
  0.65967184E+00  0.61590035E+00  0.41863389E-01
  0.14718663E+00  0.87438364E+00  0.96050345E+00
  0.63524118E+00  0.40384597E+00  0.45003918E+00